*SPEF "ieee 1481-1999"
*DESIGN "g_glitch"
*DATE "22:20:16 Thursday October 01, 2026"
*VENDOR "The OpenROAD Project"
*PROGRAM "OpenROAD"
*VERSION "dcf36133a369abc8f3c5e5738cd4d82e4903c0e0"
*DESIGN_FLOW "NAME_SCOPE LOCAL" "PIN_CAP NONE"
*DIVIDER /
*DELIMITER :
*BUS_DELIMITER []
*T_UNIT 1 NS
*C_UNIT 1 PF
*R_UNIT 1 OHM
*L_UNIT 1 HENRY

*NAME_MAP
*3 en[0]
*4 en[1]
*5 en[2]
*6 en[3]
*7 en[4]
*8 en[5]
*9 en[6]
*10 en[7]
*11 osc
*12 _00_
*13 _01_
*14 _02_
*15 _03_
*16 _04_
*17 _05_
*18 _06_
*19 _07_
*20 genblk4\[0\]\.n1
*21 genblk4\[0\]\.n2
*22 genblk4\[0\]\.n3
*23 genblk4\[0\]\.n4
*24 genblk4\[0\]\.n5
*25 genblk4\[0\]\.n6
*26 genblk4\[0\]\.n7
*27 genblk4\[0\]\.n8
*28 genblk4\[1\]\.n1
*29 genblk4\[1\]\.n2
*30 genblk4\[1\]\.n3
*31 genblk4\[1\]\.n4
*32 genblk4\[1\]\.n5
*33 genblk4\[1\]\.n6
*34 genblk4\[1\]\.n7
*35 genblk4\[1\]\.n8
*36 genblk4\[2\]\.n1
*37 genblk4\[2\]\.n2
*38 genblk4\[2\]\.n3
*39 genblk4\[2\]\.n4
*40 genblk4\[2\]\.n5
*41 genblk4\[2\]\.n6
*42 genblk4\[2\]\.n7
*43 genblk4\[2\]\.n8
*44 genblk4\[3\]\.n1
*45 genblk4\[3\]\.n2
*46 genblk4\[3\]\.n3
*47 genblk4\[3\]\.n4
*48 genblk4\[3\]\.n5
*49 genblk4\[3\]\.n6
*50 genblk4\[3\]\.n7
*51 genblk4\[3\]\.n8
*52 genblk4\[4\]\.n1
*53 genblk4\[4\]\.n2
*54 genblk4\[4\]\.n3
*55 genblk4\[4\]\.n4
*56 genblk4\[4\]\.n5
*57 genblk4\[4\]\.n6
*58 genblk4\[4\]\.n7
*59 genblk4\[4\]\.n8
*60 genblk4\[5\]\.n1
*61 genblk4\[5\]\.n2
*62 genblk4\[5\]\.n3
*63 genblk4\[5\]\.n4
*64 genblk4\[5\]\.n5
*65 genblk4\[5\]\.n6
*66 genblk4\[5\]\.n7
*67 genblk4\[5\]\.n8
*68 genblk4\[6\]\.n1
*69 genblk4\[6\]\.n2
*70 genblk4\[6\]\.n3
*71 genblk4\[6\]\.n4
*72 genblk4\[6\]\.n5
*73 genblk4\[6\]\.n6
*74 genblk4\[6\]\.n7
*75 genblk4\[6\]\.n8
*76 genblk4\[7\]\.n1
*77 genblk4\[7\]\.n2
*78 genblk4\[7\]\.n3
*79 genblk4\[7\]\.n4
*80 genblk4\[7\]\.n5
*81 genblk4\[7\]\.n6
*82 genblk4\[7\]\.n7
*83 genblk4\[7\]\.n8
*84 net1
*85 net2
*86 net3
*87 net4
*88 net5
*89 net6
*90 net7
*91 net8
*92 net9
*93 o1
*94 res
*95 w\[0\]
*96 w\[1\]
*97 w\[2\]
*98 w\[3\]
*99 w\[4\]
*100 w\[5\]
*101 w\[6\]
*102 w\[7\]
*103 x1\[0\]
*104 x1\[1\]
*105 x1\[2\]
*106 x1\[3\]
*107 x2\[0\]
*108 x2\[1\]
*109 x3
*110 FILLER_0_123
*111 FILLER_0_130
*112 FILLER_0_137
*113 FILLER_0_141
*114 FILLER_0_161
*115 FILLER_0_168
*116 FILLER_0_172
*117 FILLER_0_184
*118 FILLER_0_19
*119 FILLER_0_205
*120 FILLER_0_207
*121 FILLER_0_227
*122 FILLER_0_234
*123 FILLER_0_241
*124 FILLER_0_245
*125 FILLER_0_254
*126 FILLER_0_258
*127 FILLER_0_26
*128 FILLER_0_28
*129 FILLER_0_286
*130 FILLER_0_293
*131 FILLER_0_295
*132 FILLER_0_48
*133 FILLER_0_55
*134 FILLER_0_75
*135 FILLER_0_96
*136 FILLER_1_123
*137 FILLER_1_130
*138 FILLER_1_132
*139 FILLER_1_152
*140 FILLER_1_175
*141 FILLER_1_19
*142 FILLER_1_195
*143 FILLER_1_197
*144 FILLER_1_217
*145 FILLER_1_228
*146 FILLER_1_235
*147 FILLER_1_242
*148 FILLER_1_26
*149 FILLER_1_286
*150 FILLER_1_293
*151 FILLER_1_295
*152 FILLER_1_30
*153 FILLER_1_60
*154 FILLER_1_64
*155 FILLER_2_123
*156 FILLER_2_130
*157 FILLER_2_137
*158 FILLER_2_163
*159 FILLER_2_170
*160 FILLER_2_177
*161 FILLER_2_179
*162 FILLER_2_186
*163 FILLER_2_19
*164 FILLER_2_191
*165 FILLER_2_198
*166 FILLER_2_221
*167 FILLER_2_228
*168 FILLER_2_235
*169 FILLER_2_241
*170 FILLER_2_243
*171 FILLER_2_26
*172 FILLER_2_269
*173 FILLER_2_278
*174 FILLER_2_285
*175 FILLER_2_292
*176 FILLER_2_33
*177 FILLER_2_40
*178 FILLER_2_47
*179 FILLER_2_58
*180 FILLER_2_65
*181 FILLER_2_72
*182 FILLER_2_76
*183 FILLER_2_96
*184 FILLER_3_122
*185 FILLER_3_129
*186 FILLER_3_137
*187 FILLER_3_144
*188 FILLER_3_151
*189 FILLER_3_184
*190 FILLER_3_19
*191 FILLER_3_210
*192 FILLER_3_217
*193 FILLER_3_224
*194 FILLER_3_234
*195 FILLER_3_236
*196 FILLER_3_242
*197 FILLER_3_247
*198 FILLER_3_249
*199 FILLER_3_259
*200 FILLER_3_26
*201 FILLER_3_266
*202 FILLER_3_268
*203 FILLER_3_28
*204 FILLER_3_289
*205 FILLER_3_291
*206 FILLER_4_109
*207 FILLER_4_123
*208 FILLER_4_130
*209 FILLER_4_132
*210 FILLER_4_148
*211 FILLER_4_155
*212 FILLER_4_157
*213 FILLER_4_180
*214 FILLER_4_187
*215 FILLER_4_19
*216 FILLER_4_194
*217 FILLER_4_200
*218 FILLER_4_204
*219 FILLER_4_21
*220 FILLER_4_228
*221 FILLER_4_235
*222 FILLER_4_256
*223 FILLER_4_26
*224 FILLER_4_263
*225 FILLER_4_293
*226 FILLER_4_295
*227 FILLER_4_33
*228 FILLER_4_40
*229 FILLER_4_49
*230 FILLER_4_60
*231 FILLER_4_67
*232 FILLER_4_74
*233 FILLER_4_81
*234 FILLER_4_88
*235 FILLER_4_98
*236 _08_
*237 _09_
*238 _10_
*239 _11_
*240 _12_
*241 _13_
*242 _14_
*243 _15_
*244 g_stage\[0\]\.i_dly
*245 g_stage\[1\]\.i_dly
*246 g_stage\[2\]\.i_dly
*247 g_stage\[3\]\.i_dly
*248 g_stage\[4\]\.i_dly
*249 g_stage\[5\]\.i_dly
*250 g_stage\[6\]\.i_dly
*251 g_xor1\[0\]\.i_xor
*252 g_xor1\[1\]\.i_xor
*253 g_xor1\[2\]\.i_xor
*254 g_xor1\[3\]\.i_xor
*255 g_xor2\[0\]\.i_xor
*256 g_xor2\[1\]\.i_xor
*257 genblk4\[0\]\.i_inv1
*258 genblk4\[0\]\.i_inv16
*259 genblk4\[0\]\.i_inv16b
*260 genblk4\[0\]\.i_inv16c
*261 genblk4\[0\]\.i_inv16d
*262 genblk4\[0\]\.i_inv2
*263 genblk4\[0\]\.i_inv4
*264 genblk4\[0\]\.i_inv8
*265 genblk4\[1\]\.i_inv1
*266 genblk4\[1\]\.i_inv16
*267 genblk4\[1\]\.i_inv16b
*268 genblk4\[1\]\.i_inv16c
*269 genblk4\[1\]\.i_inv16d
*270 genblk4\[1\]\.i_inv2
*271 genblk4\[1\]\.i_inv4
*272 genblk4\[1\]\.i_inv8
*273 genblk4\[2\]\.i_inv1
*274 genblk4\[2\]\.i_inv16
*275 genblk4\[2\]\.i_inv16b
*276 genblk4\[2\]\.i_inv16c
*277 genblk4\[2\]\.i_inv16d
*278 genblk4\[2\]\.i_inv2
*279 genblk4\[2\]\.i_inv4
*280 genblk4\[2\]\.i_inv8
*281 genblk4\[3\]\.i_inv1
*282 genblk4\[3\]\.i_inv16
*283 genblk4\[3\]\.i_inv16b
*284 genblk4\[3\]\.i_inv16c
*285 genblk4\[3\]\.i_inv16d
*286 genblk4\[3\]\.i_inv2
*287 genblk4\[3\]\.i_inv4
*288 genblk4\[3\]\.i_inv8
*289 genblk4\[4\]\.i_inv1
*290 genblk4\[4\]\.i_inv16
*291 genblk4\[4\]\.i_inv16b
*292 genblk4\[4\]\.i_inv16c
*293 genblk4\[4\]\.i_inv16d
*294 genblk4\[4\]\.i_inv2
*295 genblk4\[4\]\.i_inv4
*296 genblk4\[4\]\.i_inv8
*297 genblk4\[5\]\.i_inv1
*298 genblk4\[5\]\.i_inv16
*299 genblk4\[5\]\.i_inv16b
*300 genblk4\[5\]\.i_inv16c
*301 genblk4\[5\]\.i_inv16d
*302 genblk4\[5\]\.i_inv2
*303 genblk4\[5\]\.i_inv4
*304 genblk4\[5\]\.i_inv8
*305 genblk4\[6\]\.i_inv1
*306 genblk4\[6\]\.i_inv16
*307 genblk4\[6\]\.i_inv16b
*308 genblk4\[6\]\.i_inv16c
*309 genblk4\[6\]\.i_inv16d
*310 genblk4\[6\]\.i_inv2
*311 genblk4\[6\]\.i_inv4
*312 genblk4\[6\]\.i_inv8
*313 genblk4\[7\]\.i_inv1
*314 genblk4\[7\]\.i_inv16
*315 genblk4\[7\]\.i_inv16b
*316 genblk4\[7\]\.i_inv16c
*317 genblk4\[7\]\.i_inv16d
*318 genblk4\[7\]\.i_inv2
*319 genblk4\[7\]\.i_inv4
*320 genblk4\[7\]\.i_inv8
*321 i_inp1
*322 i_inp2
*323 i_res_buf
*324 i_xor3
*325 input1
*326 input2
*327 input3
*328 input4
*329 input5
*330 input6
*331 input7
*332 input8
*333 input9

*PORTS
en[0] I
en[1] I
en[2] I
en[3] I
en[4] I
en[5] I
en[6] I
en[7] I
osc I

*D_NET *3 0.00122277
*CONN
*P en[0] I
*I *325:A I *D sg13cmos5l_buf_1
*CAP
1 en[0] 0.000611386
2 *325:A 0
3 *3:13 0.000611386
*RES
1 en[0] *3:13 46.7774 
2 *3:13 *325:A 20 
*END

*D_NET *4 0.0010761
*CONN
*P en[1] I
*I *326:A I *D sg13cmos5l_buf_1
*CAP
1 en[1] 0.000538048
2 *326:A 0
3 *4:13 0.000538048
4 *4:13 *236:A 0
5 *4:13 *236:B 0
*RES
1 en[1] *4:13 46.283 
2 *4:13 *326:A 20 
*END

*D_NET *5 0.00134822
*CONN
*P en[2] I
*I *327:A I *D sg13cmos5l_buf_1
*CAP
1 en[2] 0.000504681
2 *327:A 0
3 *5:13 0.000504681
4 *5:13 *237:A 0
5 *5:13 *237:B 0
6 *5:13 *94:35 0.000338854
*RES
1 en[2] *5:13 46.2263 
2 *5:13 *327:A 20 
*END

*D_NET *6 0.00157665
*CONN
*P en[3] I
*I *328:A I *D sg13cmos5l_buf_1
*CAP
1 en[3] 0.000788325
2 *328:A 0
3 *6:13 0.000788325
4 *6:13 *238:A 0
5 *6:13 *238:B 0
6 *6:13 *94:33 0
7 *6:13 *94:35 0
*RES
1 en[3] *6:13 49.2494 
2 *6:13 *328:A 20 
*END

*D_NET *7 0.00105274
*CONN
*P en[4] I
*I *329:A I *D sg13cmos5l_buf_1
*CAP
1 en[4] 0.000526368
2 *329:A 0
3 *7:13 0.000526368
4 *7:13 *239:A 0
5 *7:13 *239:B 0
*RES
1 en[4] *7:13 46.0358 
2 *7:13 *329:A 20 
*END

*D_NET *8 0.000955848
*CONN
*P en[5] I
*I *330:A I *D sg13cmos5l_buf_1
*CAP
1 en[5] 0.000477924
2 *330:A 0.000477924
3 *330:A *94:31 0
*RES
1 en[5] *330:A 25.6444 
*END

*D_NET *9 0.00141
*CONN
*P en[6] I
*I *331:A I *D sg13cmos5l_buf_1
*CAP
1 en[6] 0.000704998
2 *331:A 0.000704998
3 *331:A *241:B 0
4 *331:A *314:A 0
5 *331:A *80:12 0
*RES
1 en[6] *331:A 27.8074 
*END

*D_NET *10 0.00127034
*CONN
*P en[7] I
*I *332:A I *D sg13cmos5l_buf_1
*CAP
1 en[7] 0.00063517
2 *332:A 0
3 *10:13 0.00063517
4 *10:13 *242:B 0
*RES
1 en[7] *10:13 47.519 
2 *10:13 *332:A 20 
*END

*D_NET *11 0.00063304
*CONN
*P osc I
*I *333:A I *D sg13cmos5l_buf_1
*CAP
1 osc 0.00031652
2 *333:A 0.00031652
*RES
1 osc *333:A 43.6668 
*END

*D_NET *12 0.000197769
*CONN
*I *257:A I *D sg13cmos5l_inv_1
*I *243:X O *D sg13cmos5l_and2_1
*CAP
1 *257:A 9.88846e-05
2 *243:X 9.88846e-05
*RES
1 *243:X *257:A 40.9167 
*END

*D_NET *13 0.000744265
*CONN
*I *265:A I *D sg13cmos5l_inv_1
*I *236:X O *D sg13cmos5l_and2_1
*CAP
1 *265:A 0.000372132
2 *236:X 0.000372132
*RES
1 *236:X *265:A 43.4814 
*END

*D_NET *14 0.00157436
*CONN
*I *273:A I *D sg13cmos5l_inv_1
*I *237:X O *D sg13cmos5l_and2_1
*CAP
1 *273:A 4.96871e-05
2 *237:X 0.000697453
3 *14:12 0.00074714
4 *273:A *280:A 8.00842e-05
5 *14:12 *278:A 0
6 *14:12 *280:A 0
7 *14:12 *284:A 0
*RES
1 *237:X *14:12 46.4272 
2 *14:12 *273:A 40.5356 
*END

*D_NET *15 0.00117247
*CONN
*I *281:A I *D sg13cmos5l_inv_1
*I *238:X O *D sg13cmos5l_and2_1
*CAP
1 *281:A 7.0087e-05
2 *238:X 0.0002921
3 *15:8 0.000362187
4 *15:8 *46:8 0.000448099
5 *15:8 *94:35 0
*RES
1 *238:X *15:8 42.8222 
2 *15:8 *281:A 40.5356 
*END

*D_NET *16 0.000416253
*CONN
*I *289:A I *D sg13cmos5l_inv_1
*I *239:X O *D sg13cmos5l_and2_1
*CAP
1 *289:A 0.000208126
2 *239:X 0.000208126
*RES
1 *239:X *289:A 41.9055 
*END

*D_NET *17 0.000638534
*CONN
*I *297:A I *D sg13cmos5l_inv_1
*I *240:X O *D sg13cmos5l_and2_1
*CAP
1 *297:A 0.000319267
2 *240:X 0.000319267
3 *297:A *94:20 0
*RES
1 *240:X *297:A 42.987 
*END

*D_NET *18 0.000552506
*CONN
*I *305:A I *D sg13cmos5l_inv_1
*I *241:X O *D sg13cmos5l_and2_1
*CAP
1 *305:A 3.82592e-05
2 *241:X 9.41146e-05
3 *18:8 0.000132374
4 *18:8 *68:8 0
5 *18:8 *94:20 0.000287758
*RES
1 *241:X *18:8 41.339 
2 *18:8 *305:A 40.3193 
*END

*D_NET *19 0.00176876
*CONN
*I *313:A I *D sg13cmos5l_inv_1
*I *242:X O *D sg13cmos5l_and2_1
*CAP
1 *313:A 5.95323e-05
2 *242:X 0.000421475
3 *19:10 0.000481007
4 *313:A *318:A 1.54556e-05
5 *19:10 *242:A 0.000663131
6 *19:10 *94:14 0.00012816
*RES
1 *242:X *19:10 44.532 
2 *19:10 *313:A 40.5356 
*END

*D_NET *20 0.00108322
*CONN
*I *262:A I *D sg13cmos5l_inv_2
*I *257:Y O *D sg13cmos5l_inv_1
*CAP
1 *262:A 0
2 *257:Y 0.000541608
3 *20:10 0.000541608
4 *20:10 *258:A 0
5 *20:10 *21:10 0
6 *20:10 *28:8 0
*RES
1 *257:Y *20:10 45.7062 
2 *20:10 *262:A 40 
*END

*D_NET *21 0.00103717
*CONN
*I *263:A I *D sg13cmos5l_inv_4
*I *262:Y O *D sg13cmos5l_inv_2
*CAP
1 *263:A 0.00013135
2 *262:Y 0.000387237
3 *21:10 0.000518587
4 *263:A *264:A 0
5 *21:10 *270:A 0
6 *21:10 *28:8 0
7 *20:10 *21:10 0
*RES
1 *262:Y *21:10 42.369 
2 *21:10 *263:A 41.1845 
*END

*D_NET *22 0.000383029
*CONN
*I *264:A I *D sg13cmos5l_inv_8
*I *263:Y O *D sg13cmos5l_inv_4
*CAP
1 *264:A 0.000151401
2 *263:Y 0.000151401
3 *264:A *258:A 8.02267e-05
4 *264:A *270:A 0
5 *263:A *264:A 0
*RES
1 *263:Y *264:A 41.6171 
*END

*D_NET *23 0.000539398
*CONN
*I *258:A I *D sg13cmos5l_inv_16
*I *264:Y O *D sg13cmos5l_inv_8
*CAP
1 *258:A 0.000229586
2 *264:Y 0.000229586
3 *264:A *258:A 8.02267e-05
4 *20:10 *258:A 0
*RES
1 *264:Y *258:A 42.9458 
*END

*D_NET *24 0.000717652
*CONN
*I *259:A I *D sg13cmos5l_inv_16
*I *258:Y O *D sg13cmos5l_inv_16
*CAP
1 *259:A 3.91283e-05
2 *258:Y 0.000319697
3 *24:8 0.000358826
4 *259:A *261:A 0
*RES
1 *258:Y *24:8 43.5638 
2 *24:8 *259:A 40.3193 
*END

*D_NET *25 0.000518627
*CONN
*I *260:A I *D sg13cmos5l_inv_16
*I *259:Y O *D sg13cmos5l_inv_16
*CAP
1 *260:A 0.000154511
2 *259:Y 0.000154511
3 *260:A *261:A 0.000209605
*RES
1 *259:Y *260:A 41.6171 
*END

*D_NET *26 0.00110371
*CONN
*I *261:A I *D sg13cmos5l_inv_16
*I *260:Y O *D sg13cmos5l_inv_16
*CAP
1 *261:A 0.000447052
2 *260:Y 0.000447052
3 *259:A *261:A 0
4 *260:A *261:A 0.000209605
*RES
1 *260:Y *261:A 44.4805 
*END

*D_NET *28 0.000726321
*CONN
*I *270:A I *D sg13cmos5l_inv_2
*I *265:Y O *D sg13cmos5l_inv_1
*CAP
1 *270:A 0.000175777
2 *265:Y 0.000187384
3 *28:8 0.00036316
4 *264:A *270:A 0
5 *20:10 *28:8 0
6 *21:10 *270:A 0
7 *21:10 *28:8 0
*RES
1 *265:Y *28:8 41.8334 
2 *28:8 *270:A 41.6171 
*END

*D_NET *29 0.000954602
*CONN
*I *271:A I *D sg13cmos5l_inv_4
*I *270:Y O *D sg13cmos5l_inv_2
*CAP
1 *271:A 0.00040466
2 *270:Y 0.00040466
3 *271:A *266:A 0.000145283
4 *271:A *267:A 0
5 *271:A *272:A 0
*RES
1 *270:Y *271:A 44.3466 
*END

*D_NET *30 0.000401446
*CONN
*I *272:A I *D sg13cmos5l_inv_8
*I *271:Y O *D sg13cmos5l_inv_4
*CAP
1 *272:A 0.000160538
2 *271:Y 0.000160538
3 *272:A *266:A 8.03692e-05
4 *272:A *267:A 0
5 *271:A *272:A 0
*RES
1 *271:Y *272:A 41.6171 
*END

*D_NET *31 0.000639731
*CONN
*I *266:A I *D sg13cmos5l_inv_16
*I *272:Y O *D sg13cmos5l_inv_8
*CAP
1 *266:A 0.00020704
2 *272:Y 0.00020704
3 *271:A *266:A 0.000145283
4 *272:A *266:A 8.03692e-05
*RES
1 *272:Y *266:A 42.8428 
*END

*D_NET *32 0.000465814
*CONN
*I *267:A I *D sg13cmos5l_inv_16
*I *266:Y O *D sg13cmos5l_inv_16
*CAP
1 *267:A 0.000232907
2 *266:Y 0.000232907
3 *271:A *267:A 0
4 *272:A *267:A 0
*RES
1 *266:Y *267:A 42.7501 
*END

*D_NET *33 0.000954236
*CONN
*I *268:A I *D sg13cmos5l_inv_16
*I *267:Y O *D sg13cmos5l_inv_16
*CAP
1 *268:A 0
2 *267:Y 0.000477118
3 *33:10 0.000477118
*RES
1 *267:Y *33:10 45.4281 
2 *33:10 *268:A 40 
*END

*D_NET *34 0.000309687
*CONN
*I *269:A I *D sg13cmos5l_inv_16
*I *268:Y O *D sg13cmos5l_inv_16
*CAP
1 *269:A 0.000154843
2 *268:Y 0.000154843
*RES
1 *268:Y *269:A 41.6171 
*END

*D_NET *36 0.000833313
*CONN
*I *278:A I *D sg13cmos5l_inv_2
*I *273:Y O *D sg13cmos5l_inv_1
*CAP
1 *278:A 0.000114731
2 *273:Y 0.000213666
3 *36:10 0.000328396
4 *278:A *280:A 0.000176521
5 *14:12 *278:A 0
*RES
1 *273:Y *36:10 41.3802 
2 *36:10 *278:A 41.1845 
*END

*D_NET *37 0.000743061
*CONN
*I *279:A I *D sg13cmos5l_inv_4
*I *278:Y O *D sg13cmos5l_inv_2
*CAP
1 *279:A 0.00037153
2 *278:Y 0.00037153
3 *279:A *275:A 0
4 *279:A *280:A 0
*RES
1 *278:Y *279:A 43.5638 
*END

*D_NET *38 0.00183824
*CONN
*I *280:A I *D sg13cmos5l_inv_8
*I *279:Y O *D sg13cmos5l_inv_4
*CAP
1 *280:A 0.00079082
2 *279:Y 0.00079082
3 *280:A *274:A 0
4 *273:A *280:A 8.00842e-05
5 *278:A *280:A 0.000176521
6 *279:A *280:A 0
7 *14:12 *280:A 0
*RES
1 *279:Y *280:A 45.7746 
*END

*D_NET *39 0.00127608
*CONN
*I *274:A I *D sg13cmos5l_inv_16
*I *280:Y O *D sg13cmos5l_inv_8
*CAP
1 *274:A 0.000638038
2 *280:Y 0.000638038
3 *280:A *274:A 0
*RES
1 *280:Y *274:A 46.5714 
*END

*D_NET *40 0.000361623
*CONN
*I *275:A I *D sg13cmos5l_inv_16
*I *274:Y O *D sg13cmos5l_inv_16
*CAP
1 *275:A 0.000180812
2 *274:Y 0.000180812
3 *279:A *275:A 0
*RES
1 *274:Y *275:A 42.0497 
*END

*D_NET *41 0.000359077
*CONN
*I *276:A I *D sg13cmos5l_inv_16
*I *275:Y O *D sg13cmos5l_inv_16
*CAP
1 *276:A 0.000179539
2 *275:Y 0.000179539
3 *276:A *277:A 0
*RES
1 *275:Y *276:A 42.0497 
*END

*D_NET *42 0.000359077
*CONN
*I *277:A I *D sg13cmos5l_inv_16
*I *276:Y O *D sg13cmos5l_inv_16
*CAP
1 *277:A 0.000179539
2 *276:Y 0.000179539
3 *276:A *277:A 0
*RES
1 *276:Y *277:A 42.0497 
*END

*D_NET *44 0.000648048
*CONN
*I *286:A I *D sg13cmos5l_inv_2
*I *281:Y O *D sg13cmos5l_inv_1
*CAP
1 *286:A 0
2 *281:Y 0.000324024
3 *44:10 0.000324024
4 *44:10 *58:10 0
*RES
1 *281:Y *44:10 42.987 
2 *44:10 *286:A 40 
*END

*D_NET *45 0.000323154
*CONN
*I *287:A I *D sg13cmos5l_inv_4
*I *286:Y O *D sg13cmos5l_inv_2
*CAP
1 *287:A 0.000161577
2 *286:Y 0.000161577
*RES
1 *286:Y *287:A 41.4008 
*END

*D_NET *46 0.00195466
*CONN
*I *288:A I *D sg13cmos5l_inv_8
*I *287:Y O *D sg13cmos5l_inv_4
*CAP
1 *288:A 8.30855e-05
2 *287:Y 0.000233188
3 *46:8 0.000316274
4 *288:A *282:A 0
5 *46:8 *94:35 0.000874016
6 *15:8 *46:8 0.000448099
*RES
1 *287:Y *46:8 44.0582 
2 *46:8 *288:A 40.7519 
*END

*D_NET *47 0.000539085
*CONN
*I *282:A I *D sg13cmos5l_inv_16
*I *288:Y O *D sg13cmos5l_inv_8
*CAP
1 *282:A 0.000269543
2 *288:Y 0.000269543
3 *288:A *282:A 0
*RES
1 *288:Y *282:A 42.6162 
*END

*D_NET *48 0.000133739
*CONN
*I *283:A I *D sg13cmos5l_inv_16
*I *282:Y O *D sg13cmos5l_inv_16
*CAP
1 *283:A 6.68694e-05
2 *282:Y 6.68694e-05
*RES
1 *282:Y *283:A 40.8446 
*END

*D_NET *49 0.000414575
*CONN
*I *284:A I *D sg13cmos5l_inv_16
*I *283:Y O *D sg13cmos5l_inv_16
*CAP
1 *284:A 0.000207288
2 *283:Y 0.000207288
3 *14:12 *284:A 0
*RES
1 *283:Y *284:A 42.0497 
*END

*D_NET *50 0.000388076
*CONN
*I *285:A I *D sg13cmos5l_inv_16
*I *284:Y O *D sg13cmos5l_inv_16
*CAP
1 *285:A 0.000194038
2 *284:Y 0.000194038
*RES
1 *284:Y *285:A 42.0497 
*END

*D_NET *52 0.00206185
*CONN
*I *294:A I *D sg13cmos5l_inv_2
*I *289:Y O *D sg13cmos5l_inv_1
*CAP
1 *294:A 7.14194e-05
2 *289:Y 0.000295105
3 *52:8 0.000366525
4 *294:A *296:A 0.000112426
5 *52:8 *53:8 0.00023464
6 *52:8 *94:31 0.000426331
7 *52:8 *94:33 0.000555408
*RES
1 *289:Y *52:8 44.5526 
2 *52:8 *294:A 40.7519 
*END

*D_NET *53 0.000615327
*CONN
*I *295:A I *D sg13cmos5l_inv_4
*I *294:Y O *D sg13cmos5l_inv_2
*CAP
1 *295:A 5.51824e-05
2 *294:Y 0.000135161
3 *53:8 0.000190343
4 *295:A *239:A 0
5 *53:8 *94:31 0
6 *52:8 *53:8 0.00023464
*RES
1 *294:Y *53:8 41.339 
2 *53:8 *295:A 40.5356 
*END

*D_NET *54 0.00071681
*CONN
*I *296:A I *D sg13cmos5l_inv_8
*I *295:Y O *D sg13cmos5l_inv_4
*CAP
1 *296:A 0.000302192
2 *295:Y 0.000302192
3 *296:A *239:A 0
4 *296:A *290:A 0
5 *294:A *296:A 0.000112426
*RES
1 *295:Y *296:A 43.0797 
*END

*D_NET *55 0.000329942
*CONN
*I *290:A I *D sg13cmos5l_inv_16
*I *296:Y O *D sg13cmos5l_inv_8
*CAP
1 *290:A 5.10362e-05
2 *296:Y 0.000113935
3 *55:8 0.000164971
4 *296:A *290:A 0
*RES
1 *296:Y *55:8 41.339 
2 *55:8 *290:A 40.5356 
*END

*D_NET *56 0.000400705
*CONN
*I *291:A I *D sg13cmos5l_inv_16
*I *290:Y O *D sg13cmos5l_inv_16
*CAP
1 *291:A 0.000200352
2 *290:Y 0.000200352
*RES
1 *290:Y *291:A 42.0497 
*END

*D_NET *57 0.00039095
*CONN
*I *292:A I *D sg13cmos5l_inv_16
*I *291:Y O *D sg13cmos5l_inv_16
*CAP
1 *292:A 0.000195475
2 *291:Y 0.000195475
*RES
1 *291:Y *292:A 42.0497 
*END

*D_NET *58 0.00209504
*CONN
*I *293:A I *D sg13cmos5l_inv_16
*I *292:Y O *D sg13cmos5l_inv_16
*CAP
1 *293:A 0.000143833
2 *292:Y 0.000903686
3 *58:10 0.00104752
4 *44:10 *58:10 0
*RES
1 *292:Y *58:10 46.2933 
2 *58:10 *293:A 41.1845 
*END

*D_NET *60 0.000408103
*CONN
*I *302:A I *D sg13cmos5l_inv_2
*I *297:Y O *D sg13cmos5l_inv_1
*CAP
1 *302:A 0.000204052
2 *297:Y 0.000204052
*RES
1 *297:Y *302:A 41.9673 
*END

*D_NET *61 0.000183051
*CONN
*I *303:A I *D sg13cmos5l_inv_4
*I *302:Y O *D sg13cmos5l_inv_2
*CAP
1 *303:A 9.15253e-05
2 *302:Y 9.15253e-05
*RES
1 *302:Y *303:A 40.8446 
*END

*D_NET *62 0.000633345
*CONN
*I *304:A I *D sg13cmos5l_inv_8
*I *303:Y O *D sg13cmos5l_inv_4
*CAP
1 *304:A 0.000316672
2 *303:Y 0.000316672
3 *304:A *298:A 0
*RES
1 *303:Y *304:A 43.5638 
*END

*D_NET *63 0.000427578
*CONN
*I *298:A I *D sg13cmos5l_inv_16
*I *304:Y O *D sg13cmos5l_inv_8
*CAP
1 *298:A 0.000213789
2 *304:Y 0.000213789
3 *304:A *298:A 0
*RES
1 *304:Y *298:A 42.5338 
*END

*D_NET *64 0.000290577
*CONN
*I *299:A I *D sg13cmos5l_inv_16
*I *298:Y O *D sg13cmos5l_inv_16
*CAP
1 *299:A 0.000145289
2 *298:Y 0.000145289
*RES
1 *298:Y *299:A 41.6171 
*END

*D_NET *65 0.000904608
*CONN
*I *300:A I *D sg13cmos5l_inv_16
*I *299:Y O *D sg13cmos5l_inv_16
*CAP
1 *300:A 0
2 *299:Y 0.000452304
3 *65:8 0.000452304
*RES
1 *299:Y *65:8 45.5414 
2 *65:8 *300:A 40 
*END

*D_NET *66 0.000307268
*CONN
*I *301:A I *D sg13cmos5l_inv_16
*I *300:Y O *D sg13cmos5l_inv_16
*CAP
1 *301:A 0.000153634
2 *300:Y 0.000153634
*RES
1 *300:Y *301:A 41.6171 
*END

*D_NET *68 0.000831421
*CONN
*I *310:A I *D sg13cmos5l_inv_2
*I *305:Y O *D sg13cmos5l_inv_1
*CAP
1 *310:A 0.000193249
2 *305:Y 0.000182714
3 *68:8 0.000375963
4 *310:A *69:10 7.94957e-05
5 *68:8 *69:10 0
6 *68:8 *94:20 0
7 *18:8 *68:8 0
*RES
1 *305:Y *68:8 41.5862 
2 *68:8 *310:A 41.6171 
*END

*D_NET *69 0.00162609
*CONN
*I *311:A I *D sg13cmos5l_inv_4
*I *310:Y O *D sg13cmos5l_inv_2
*CAP
1 *311:A 0.000165145
2 *310:Y 0.000608153
3 *69:10 0.000773298
4 *311:A *316:A 0
5 *69:10 *94:20 0
6 *310:A *69:10 7.94957e-05
7 *68:8 *69:10 0
*RES
1 *310:Y *69:10 43.605 
2 *69:10 *311:A 41.1845 
*END

*D_NET *70 0.000259953
*CONN
*I *312:A I *D sg13cmos5l_inv_8
*I *311:Y O *D sg13cmos5l_inv_4
*CAP
1 *312:A 0.000129977
2 *311:Y 0.000129977
3 *312:A *307:A 0
*RES
1 *311:Y *312:A 41.4008 
*END

*D_NET *71 0.000360622
*CONN
*I *306:A I *D sg13cmos5l_inv_16
*I *312:Y O *D sg13cmos5l_inv_8
*CAP
1 *306:A 0.000180311
2 *312:Y 0.000180311
3 *306:A *307:A 0
*RES
1 *312:Y *306:A 41.9673 
*END

*D_NET *72 0.000359077
*CONN
*I *307:A I *D sg13cmos5l_inv_16
*I *306:Y O *D sg13cmos5l_inv_16
*CAP
1 *307:A 0.000179539
2 *306:Y 0.000179539
3 *306:A *307:A 0
4 *312:A *307:A 0
*RES
1 *306:Y *307:A 42.0497 
*END

*D_NET *73 0.000359077
*CONN
*I *308:A I *D sg13cmos5l_inv_16
*I *307:Y O *D sg13cmos5l_inv_16
*CAP
1 *308:A 0.000179539
2 *307:Y 0.000179539
3 *308:A *309:A 0
*RES
1 *307:Y *308:A 42.0497 
*END

*D_NET *74 0.000359077
*CONN
*I *309:A I *D sg13cmos5l_inv_16
*I *308:Y O *D sg13cmos5l_inv_16
*CAP
1 *309:A 0.000179539
2 *308:Y 0.000179539
3 *308:A *309:A 0
*RES
1 *308:Y *309:A 42.0497 
*END

*D_NET *76 0.000517161
*CONN
*I *318:A I *D sg13cmos5l_inv_2
*I *313:Y O *D sg13cmos5l_inv_1
*CAP
1 *318:A 0.000250853
2 *313:Y 0.000250853
3 *313:A *318:A 1.54556e-05
*RES
1 *313:Y *318:A 42.2454 
*END

*D_NET *77 0.00126488
*CONN
*I *319:A I *D sg13cmos5l_inv_4
*I *318:Y O *D sg13cmos5l_inv_2
*CAP
1 *319:A 0.000272535
2 *318:Y 0.000177898
3 *77:8 0.000450433
4 *319:A *320:A 0.000127958
5 *319:A *323:A 0
6 *77:8 *79:8 0.000236057
*RES
1 *318:Y *77:8 42.3278 
2 *77:8 *319:A 42.9149 
*END

*D_NET *78 0.00045443
*CONN
*I *320:A I *D sg13cmos5l_inv_8
*I *319:Y O *D sg13cmos5l_inv_4
*CAP
1 *320:A 0.000163236
2 *319:Y 0.000163236
3 *319:A *320:A 0.000127958
*RES
1 *319:Y *320:A 41.8437 
*END

*D_NET *79 0.00114156
*CONN
*I *314:A I *D sg13cmos5l_inv_16
*I *320:Y O *D sg13cmos5l_inv_8
*CAP
1 *314:A 5.50261e-05
2 *320:Y 0.000397725
3 *79:8 0.000452752
4 *331:A *314:A 0
5 *77:8 *79:8 0.000236057
*RES
1 *320:Y *79:8 43.811 
2 *79:8 *314:A 40.5356 
*END

*D_NET *80 0.00118068
*CONN
*I *315:A I *D sg13cmos5l_inv_16
*I *314:Y O *D sg13cmos5l_inv_16
*CAP
1 *315:A 7.39111e-05
2 *314:Y 0.000516431
3 *80:12 0.000590342
4 *331:A *80:12 0
*RES
1 *314:Y *80:12 44.6659 
2 *80:12 *315:A 40.5356 
*END

*D_NET *81 0.00086844
*CONN
*I *316:A I *D sg13cmos5l_inv_16
*I *315:Y O *D sg13cmos5l_inv_16
*CAP
1 *316:A 0.00043422
2 *315:Y 0.00043422
3 *311:A *316:A 0
*RES
1 *315:Y *316:A 44.2127 
*END

*D_NET *82 0.000388076
*CONN
*I *317:A I *D sg13cmos5l_inv_16
*I *316:Y O *D sg13cmos5l_inv_16
*CAP
1 *317:A 0.000194038
2 *316:Y 0.000194038
*RES
1 *316:Y *317:A 42.0497 
*END

*D_NET *84 0.00157593
*CONN
*I *243:A I *D sg13cmos5l_and2_1
*I *325:X O *D sg13cmos5l_buf_1
*CAP
1 *243:A 9.53816e-05
2 *325:X 0.000652539
3 *84:8 0.00074792
4 *243:A *243:B 8.00842e-05
*RES
1 *325:X *84:8 45.7886 
2 *84:8 *243:A 40.9682 
*END

*D_NET *85 0.00036383
*CONN
*I *236:B I *D sg13cmos5l_and2_1
*I *326:X O *D sg13cmos5l_buf_1
*CAP
1 *236:B 0.000141818
2 *326:X 0.000141818
3 *236:B *236:A 8.0194e-05
4 *4:13 *236:B 0
*RES
1 *326:X *236:B 41.6274 
*END

*D_NET *86 0.00036383
*CONN
*I *237:B I *D sg13cmos5l_and2_1
*I *327:X O *D sg13cmos5l_buf_1
*CAP
1 *237:B 0.000141818
2 *327:X 0.000141818
3 *237:B *237:A 8.0194e-05
4 *5:13 *237:B 0
*RES
1 *327:X *237:B 41.6274 
*END

*D_NET *87 0.000318285
*CONN
*I *238:B I *D sg13cmos5l_and2_1
*I *328:X O *D sg13cmos5l_buf_1
*CAP
1 *238:B 0.000119045
2 *328:X 0.000119045
3 *238:B *238:A 8.0194e-05
4 *6:13 *238:B 0
*RES
1 *328:X *238:B 41.3802 
*END

*D_NET *88 0.000368523
*CONN
*I *239:B I *D sg13cmos5l_and2_1
*I *329:X O *D sg13cmos5l_buf_1
*CAP
1 *239:B 0.000144164
2 *329:X 0.000144164
3 *239:B *239:A 8.0194e-05
4 *7:13 *239:B 0
*RES
1 *329:X *239:B 41.6274 
*END

*D_NET *89 0.000662828
*CONN
*I *240:B I *D sg13cmos5l_and2_1
*I *330:X O *D sg13cmos5l_buf_1
*CAP
1 *240:B 5.08741e-05
2 *330:X 0.000240498
3 *89:8 0.000291372
4 *240:B *94:31 8.00842e-05
*RES
1 *330:X *89:8 42.0806 
2 *89:8 *240:B 40.5356 
*END

*D_NET *90 0.000263923
*CONN
*I *241:B I *D sg13cmos5l_and2_1
*I *331:X O *D sg13cmos5l_buf_1
*CAP
1 *241:B 0.000131962
2 *331:X 0.000131962
3 *331:A *241:B 0
*RES
1 *331:X *241:B 41.6274 
*END

*D_NET *91 0.000237989
*CONN
*I *242:B I *D sg13cmos5l_and2_1
*I *332:X O *D sg13cmos5l_buf_1
*CAP
1 *242:B 0.000118995
2 *332:X 0.000118995
3 *242:B *321:A 0
4 *242:B *322:A 0
5 *10:13 *242:B 0
*RES
1 *332:X *242:B 41.3802 
*END

*D_NET *92 0.000297065
*CONN
*I *321:A I *D sg13cmos5l_inv_1
*I *333:X O *D sg13cmos5l_buf_1
*CAP
1 *321:A 0.000148533
2 *333:X 0.000148533
3 *321:A *242:A 0
4 *242:B *321:A 0
*RES
1 *333:X *321:A 41.8746 
*END

*D_NET *93 9.45957e-05
*CONN
*I *322:A I *D sg13cmos5l_inv_4
*I *321:Y O *D sg13cmos5l_inv_1
*CAP
1 *322:A 4.72978e-05
2 *321:Y 4.72978e-05
3 *242:B *322:A 0
*RES
1 *321:Y *322:A 40.5974 
*END

*D_NET *94 0.0172675
*CONN
*I *242:A I *D sg13cmos5l_and2_1
*I *241:A I *D sg13cmos5l_and2_1
*I *239:A I *D sg13cmos5l_and2_1
*I *238:A I *D sg13cmos5l_and2_1
*I *237:A I *D sg13cmos5l_and2_1
*I *236:A I *D sg13cmos5l_and2_1
*I *243:B I *D sg13cmos5l_and2_1
*I *240:A I *D sg13cmos5l_and2_1
*I *323:X O *D sg13cmos5l_buf_4
*CAP
1 *242:A 0.000338295
2 *241:A 0
3 *239:A 0.000146341
4 *238:A 0.000210694
5 *237:A 0.000139177
6 *236:A 0.000124072
7 *243:B 0.000218713
8 *240:A 0
9 *323:X 3.74884e-05
10 *94:37 0.00117753
11 *94:35 0.00197468
12 *94:33 0.00175965
13 *94:31 0.00144816
14 *94:20 0.001946
15 *94:14 0.00204704
16 *94:8 0.00123045
17 *242:A *95:8 0.000426418
18 *94:14 *95:8 0.000288172
19 *236:B *236:A 8.0194e-05
20 *237:B *237:A 8.0194e-05
21 *238:B *238:A 8.0194e-05
22 *239:B *239:A 8.0194e-05
23 *240:B *94:31 8.00842e-05
24 *243:A *243:B 8.00842e-05
25 *295:A *239:A 0
26 *296:A *239:A 0
27 *297:A *94:20 0
28 *321:A *242:A 0
29 *330:A *94:31 0
30 *4:13 *236:A 0
31 *5:13 *237:A 0
32 *5:13 *94:35 0.000338854
33 *6:13 *238:A 0
34 *6:13 *94:33 0
35 *6:13 *94:35 0
36 *7:13 *239:A 0
37 *15:8 *94:35 0
38 *18:8 *94:20 0.000287758
39 *19:10 *242:A 0.000663131
40 *19:10 *94:14 0.00012816
41 *46:8 *94:35 0.000874016
42 *52:8 *94:31 0.000426331
43 *52:8 *94:33 0.000555408
44 *53:8 *94:31 0
45 *68:8 *94:20 0
46 *69:10 *94:20 0
*RES
1 *323:X *94:8 40.3193 
2 *94:8 *94:14 8.4357 
3 *94:14 *94:20 31.4536 
4 *94:20 *240:A 20 
5 *94:20 *94:31 28.9198 
6 *94:31 *94:33 7.0246 
7 *94:33 *94:35 12.7102 
8 *94:35 *94:37 9.4966 
9 *94:37 *243:B 42.3072 
10 *94:37 *236:A 41.4008 
11 *94:35 *237:A 41.4008 
12 *94:33 *238:A 41.9982 
13 *94:31 *239:A 41.4008 
14 *94:14 *241:A 40 
15 *94:8 *242:A 45.0985 
*END

*D_NET *95 0.00215624
*CONN
*I *244:A I *D sg13cmos5l_dlygate4sd3_1
*I *251:A I *D sg13cmos5l_xnor2_1
*I *322:Y O *D sg13cmos5l_inv_4
*CAP
1 *244:A 0
2 *251:A 0.000263245
3 *322:Y 0.000457578
4 *95:10 0.000263245
5 *95:8 0.000457578
6 *251:A *96:8 0
7 *242:A *95:8 0.000426418
8 *94:14 *95:8 0.000288172
*RES
1 *322:Y *95:8 45.7886 
2 *95:8 *95:10 20 
3 *95:10 *251:A 22.6162 
4 *95:10 *244:A 20 
*END

*D_NET *96 0.000617067
*CONN
*I *251:B I *D sg13cmos5l_xnor2_1
*I *245:A I *D sg13cmos5l_dlygate4sd3_1
*I *244:X O *D sg13cmos5l_dlygate4sd3_1
*CAP
1 *251:B 0.000105516
2 *245:A 0
3 *244:X 0.000203018
4 *96:8 0.000308534
5 *251:B *247:A 0
6 *96:8 *247:A 0
7 *96:8 *252:B 0
8 *251:A *96:8 0
*RES
1 *244:X *96:8 21.9673 
2 *96:8 *245:A 20 
3 *96:8 *251:B 21.0918 
*END

*D_NET *97 0.00108195
*CONN
*I *252:A I *D sg13cmos5l_xnor2_1
*I *246:A I *D sg13cmos5l_dlygate4sd3_1
*I *245:X O *D sg13cmos5l_dlygate4sd3_1
*CAP
1 *252:A 0.000291542
2 *246:A 0
3 *245:X 0.000128279
4 *97:6 0.000419821
5 *252:A *247:A 0
6 *252:A *252:B 0.000242313
*RES
1 *245:X *97:6 21.4008 
2 *97:6 *246:A 20 
3 *97:6 *252:A 23.605 
*END

*D_NET *98 0.000781387
*CONN
*I *247:A I *D sg13cmos5l_dlygate4sd3_1
*I *252:B I *D sg13cmos5l_xnor2_1
*I *246:X O *D sg13cmos5l_dlygate4sd3_1
*CAP
1 *247:A 0.000105053
2 *252:B 0.000164484
3 *246:X 0
4 *98:4 0.000269537
5 *247:A *248:A 0
6 *247:A *99:21 0
7 *252:B *248:A 0
8 *251:B *247:A 0
9 *252:A *247:A 0
10 *252:A *252:B 0.000242313
11 *96:8 *247:A 0
12 *96:8 *252:B 0
*RES
1 *246:X *98:4 20 
2 *98:4 *252:B 21.9673 
3 *98:4 *247:A 21.3493 
*END

*D_NET *99 0.000704813
*CONN
*I *253:A I *D sg13cmos5l_xnor2_1
*I *248:A I *D sg13cmos5l_dlygate4sd3_1
*I *247:X O *D sg13cmos5l_dlygate4sd3_1
*CAP
1 *253:A 0
2 *248:A 0.000176416
3 *247:X 0
4 *99:21 0.000175991
5 *99:4 0.000352407
6 *248:A *249:A 0
7 *248:A *255:B 0
8 *99:21 *255:B 0
9 *99:21 *104:8 0
10 *247:A *248:A 0
11 *247:A *99:21 0
12 *252:B *248:A 0
*RES
1 *247:X *99:4 20 
2 *99:4 *248:A 21.9673 
3 *99:4 *99:21 42.0909 
4 *99:21 *253:A 20 
*END

*D_NET *100 0.000570531
*CONN
*I *253:B I *D sg13cmos5l_xnor2_1
*I *249:A I *D sg13cmos5l_dlygate4sd3_1
*I *248:X O *D sg13cmos5l_dlygate4sd3_1
*CAP
1 *253:B 0.000166741
2 *249:A 0.000118524
3 *248:X 0
4 *100:4 0.000285266
5 *249:A *255:B 0
6 *253:B *255:B 0
7 *253:B *256:A 0
8 *253:B *256:B 0
9 *248:A *249:A 0
*RES
1 *248:X *100:4 20 
2 *100:4 *249:A 21.3493 
3 *100:4 *253:B 21.6171 
*END

*D_NET *101 0.000740739
*CONN
*I *254:A I *D sg13cmos5l_xnor2_1
*I *250:A I *D sg13cmos5l_dlygate4sd3_1
*I *249:X O *D sg13cmos5l_dlygate4sd3_1
*CAP
1 *254:A 0.000270384
2 *250:A 4.91222e-05
3 *249:X 5.08636e-05
4 *101:8 0.000370369
5 *254:A *254:B 0
6 *254:A *256:B 0
*RES
1 *249:X *101:8 40.5974 
2 *101:8 *250:A 40.5356 
3 *101:8 *254:A 42.9252 
*END

*D_NET *102 0.00040498
*CONN
*I *254:B I *D sg13cmos5l_xnor2_1
*I *250:X O *D sg13cmos5l_dlygate4sd3_1
*CAP
1 *254:B 0.00020249
2 *250:X 0.00020249
3 *254:A *254:B 0
*RES
1 *250:X *254:B 42.2145 
*END

*D_NET *103 0.000369042
*CONN
*I *255:A I *D sg13cmos5l_xnor2_1
*I *251:Y O *D sg13cmos5l_xnor2_1
*CAP
1 *255:A 0.000176821
2 *251:Y 0.000176821
3 *255:A *255:B 1.54008e-05
*RES
1 *251:Y *255:A 41.6583 
*END

*D_NET *104 0.00135937
*CONN
*I *255:B I *D sg13cmos5l_xnor2_1
*I *252:Y O *D sg13cmos5l_xnor2_1
*CAP
1 *255:B 0.000424547
2 *252:Y 0.000247437
3 *104:8 0.000671983
4 *255:B *256:A 0
5 *255:B *324:B 0
6 *248:A *255:B 0
7 *249:A *255:B 0
8 *253:B *255:B 0
9 *255:A *255:B 1.54008e-05
10 *99:21 *255:B 0
11 *99:21 *104:8 0
*RES
1 *252:Y *104:8 43.0694 
2 *104:8 *255:B 44.2333 
*END

*D_NET *105 0.000320831
*CONN
*I *256:A I *D sg13cmos5l_xnor2_1
*I *253:Y O *D sg13cmos5l_xnor2_1
*CAP
1 *256:A 0.000152688
2 *253:Y 0.000152688
3 *256:A *256:B 1.54556e-05
4 *256:A *324:A 0
5 *256:A *324:B 0
6 *253:B *256:A 0
7 *255:B *256:A 0
*RES
1 *253:Y *256:A 41.8746 
*END

*D_NET *106 0.000246339
*CONN
*I *256:B I *D sg13cmos5l_xnor2_1
*I *254:Y O *D sg13cmos5l_xnor2_1
*CAP
1 *256:B 0.000115442
2 *254:Y 0.000115442
3 *256:B *324:B 0
4 *253:B *256:B 0
5 *254:A *256:B 0
6 *256:A *256:B 1.54556e-05
*RES
1 *254:Y *256:B 41.4111 
*END

*D_NET *107 0.00037596
*CONN
*I *324:A I *D sg13cmos5l_xnor2_1
*I *255:Y O *D sg13cmos5l_xnor2_1
*CAP
1 *324:A 0.00018798
2 *255:Y 0.00018798
3 *256:A *324:A 0
*RES
1 *255:Y *324:A 41.9055 
*END

*D_NET *108 0.000402366
*CONN
*I *324:B I *D sg13cmos5l_xnor2_1
*I *256:Y O *D sg13cmos5l_xnor2_1
*CAP
1 *324:B 0.000201183
2 *256:Y 0.000201183
3 *255:B *324:B 0
4 *256:A *324:B 0
5 *256:B *324:B 0
*RES
1 *256:Y *324:B 42.1012 
*END

*D_NET *109 0.000458911
*CONN
*I *323:A I *D sg13cmos5l_buf_4
*I *324:Y O *D sg13cmos5l_xnor2_1
*CAP
1 *323:A 0.000229455
2 *324:Y 0.000229455
3 *319:A *323:A 0
*RES
1 *324:Y *323:A 42.3999 
*END
