*SPEF "ieee 1481-1999"
*DESIGN "ctrl"
*DATE "22:42:38 Thursday October 01, 2026"
*VENDOR "The OpenROAD Project"
*PROGRAM "OpenROAD"
*VERSION "dcf36133a369abc8f3c5e5738cd4d82e4903c0e0"
*DESIGN_FLOW "NAME_SCOPE LOCAL" "PIN_CAP NONE"
*DIVIDER /
*DELIMITER :
*BUS_DELIMITER []
*T_UNIT 1 NS
*C_UNIT 1 PF
*R_UNIT 1 OHM
*L_UNIT 1 HENRY

*NAME_MAP
*3 adr_i[0]
*4 adr_i[1]
*5 clk_i
*6 config_o[0]
*7 config_o[10]
*8 config_o[11]
*9 config_o[12]
*10 config_o[13]
*11 config_o[14]
*12 config_o[15]
*13 config_o[16]
*14 config_o[17]
*15 config_o[18]
*16 config_o[19]
*17 config_o[1]
*18 config_o[20]
*19 config_o[21]
*20 config_o[22]
*21 config_o[23]
*22 config_o[24]
*23 config_o[25]
*24 config_o[26]
*25 config_o[27]
*26 config_o[28]
*27 config_o[29]
*28 config_o[2]
*29 config_o[30]
*30 config_o[31]
*31 config_o[3]
*32 config_o[4]
*33 config_o[5]
*34 config_o[6]
*35 config_o[7]
*36 config_o[8]
*37 config_o[9]
*38 din_i[0]
*39 din_i[1]
*40 din_i[2]
*41 din_i[3]
*42 din_i[4]
*43 din_i[5]
*44 din_i[6]
*45 din_i[7]
*46 en_i
*47 en_load_o[0]
*48 en_load_o[1]
*49 en_load_o[2]
*50 en_ros_o[0]
*51 en_ros_o[1]
*52 en_ros_o[2]
*53 en_ros_o[3]
*54 rst_in
*55 sel_load_src_o[0]
*56 sel_load_src_o[1]
*57 sel_load_src_o[2]
*58 sel_load_src_o[3]
*59 sel_load_src_o[4]
*60 sel_load_src_o[5]
*61 we_i
*62 _0000_
*63 _0001_
*64 _0002_
*65 _0003_
*66 _0004_
*67 _0005_
*68 _0006_
*69 _0007_
*70 _0008_
*71 _0009_
*72 _0010_
*73 _0011_
*74 _0012_
*75 _0013_
*76 _0014_
*77 _0015_
*78 _0016_
*79 _0017_
*80 _0018_
*81 _0019_
*82 _0020_
*83 _0021_
*84 _0022_
*85 _0023_
*86 _0024_
*87 _0025_
*88 _0026_
*89 _0027_
*90 _0028_
*91 _0029_
*92 _0030_
*93 _0031_
*94 _0032_
*95 _0033_
*96 _0034_
*97 _0035_
*98 _0036_
*99 _0037_
*100 _0038_
*101 _0039_
*102 _0040_
*103 _0041_
*104 _0042_
*105 _0043_
*106 _0044_
*107 _0045_
*108 _0046_
*109 _0047_
*110 _0048_
*111 _0049_
*112 _0050_
*113 _0051_
*114 _0052_
*115 _0053_
*116 _0054_
*117 _0055_
*118 _0056_
*119 _0057_
*120 _0058_
*121 _0059_
*122 _0060_
*123 _0061_
*124 _0062_
*125 _0063_
*126 _0064_
*127 _0065_
*128 _0066_
*129 _0067_
*130 _0068_
*131 _0069_
*132 _0070_
*133 _0071_
*134 _0072_
*135 _0073_
*136 _0074_
*137 _0075_
*138 _0076_
*139 _0077_
*140 _0078_
*141 _0079_
*142 _0080_
*143 _0081_
*144 _0082_
*145 _0083_
*146 _0084_
*147 _0085_
*148 _0086_
*149 _0087_
*150 _0088_
*151 _0089_
*152 _0090_
*153 _0091_
*154 _0092_
*155 _0093_
*156 _0094_
*157 _0095_
*158 _0096_
*159 _0097_
*160 _0098_
*161 _0099_
*162 _0100_
*163 _0101_
*164 _0102_
*165 _0103_
*166 _0104_
*167 _0105_
*168 _0106_
*169 _0107_
*170 _0108_
*171 _0109_
*172 _0110_
*173 _0111_
*174 _0112_
*175 _0113_
*176 _0114_
*177 _0115_
*178 _0116_
*179 _0117_
*180 _0118_
*181 _0119_
*182 _0120_
*183 _0121_
*184 _0122_
*185 _0123_
*186 _0124_
*187 _0125_
*188 _0126_
*189 _0127_
*190 _0128_
*191 _0129_
*192 _0130_
*193 _0131_
*194 _0132_
*195 _0133_
*196 _0134_
*197 _0135_
*198 _0136_
*199 _0137_
*200 _0138_
*201 _0139_
*202 _0140_
*203 _0141_
*204 _0142_
*205 _0143_
*206 _0144_
*207 _0145_
*208 _0146_
*209 _0147_
*210 _0148_
*211 _0149_
*212 _0150_
*213 _0151_
*214 _0152_
*215 _0153_
*216 _0154_
*217 _0155_
*218 _0156_
*219 _0157_
*220 _0158_
*221 _0159_
*222 _0160_
*223 _0161_
*224 _0162_
*225 _0163_
*226 _0164_
*227 _0165_
*228 _0166_
*229 _0167_
*230 _0168_
*231 _0169_
*232 _0170_
*233 _0171_
*234 _0172_
*235 _0173_
*236 _0174_
*237 _0175_
*238 _0176_
*239 _0177_
*240 _0178_
*241 _0179_
*242 _0180_
*243 _0181_
*244 _0182_
*245 _0183_
*246 _0184_
*247 _0185_
*248 _0186_
*249 _0187_
*250 _0188_
*251 _0189_
*252 _0190_
*253 _0191_
*254 _0192_
*255 _0193_
*256 _0194_
*257 _0195_
*258 _0196_
*259 _0197_
*260 _0198_
*261 _0199_
*262 _0200_
*263 _0201_
*264 _0202_
*265 _0203_
*266 _0204_
*267 _0205_
*268 _0206_
*269 _0207_
*270 _0208_
*271 _0209_
*272 _0210_
*273 _0211_
*274 _0212_
*275 _0213_
*276 _0214_
*277 _0215_
*278 _0216_
*279 _0217_
*280 _0218_
*281 _0219_
*282 _0220_
*283 _0221_
*284 _0222_
*285 _0223_
*286 _0224_
*287 _0225_
*288 _0226_
*289 _0227_
*290 _0228_
*291 _0229_
*292 _0230_
*293 _0231_
*294 _0232_
*295 _0233_
*296 _0234_
*297 _0235_
*298 _0236_
*299 _0237_
*300 _0238_
*301 _0239_
*302 _0240_
*303 _0241_
*304 _0242_
*305 _0243_
*306 _0244_
*307 _0245_
*308 _0246_
*309 _0247_
*310 _0248_
*311 _0249_
*312 _0250_
*313 _0251_
*314 _0252_
*315 _0253_
*316 _0254_
*317 _0255_
*318 _0256_
*319 _0257_
*320 _0258_
*321 _0259_
*322 _0260_
*323 _0261_
*324 _0262_
*325 _0263_
*326 _0264_
*327 _0265_
*328 _0266_
*329 _0267_
*330 _0268_
*331 _0269_
*332 _0270_
*333 _0271_
*334 _0272_
*335 _0273_
*336 _0274_
*337 _0275_
*338 _0276_
*339 _0277_
*340 _0278_
*341 _0279_
*342 _0280_
*343 _0281_
*344 _0282_
*345 _0283_
*346 _0284_
*347 _0285_
*348 _0286_
*349 _0287_
*350 _0288_
*351 _0289_
*352 _0290_
*353 _0291_
*354 _0292_
*355 _0293_
*356 _0294_
*357 _0295_
*358 _0296_
*359 _0297_
*360 _0298_
*361 _0299_
*362 _0300_
*363 _0301_
*364 _0302_
*365 _0303_
*366 _0304_
*367 _0305_
*368 _0306_
*369 _0307_
*370 _0308_
*371 _0309_
*372 _0310_
*373 _0311_
*374 _0312_
*375 _0313_
*376 _0314_
*377 _0315_
*378 _0316_
*379 _0317_
*380 _0318_
*381 _0319_
*382 _0320_
*383 _0321_
*384 _0322_
*385 _0323_
*386 _0324_
*387 _0325_
*388 _0326_
*389 _0327_
*390 _0328_
*391 _0329_
*392 _0330_
*393 _0331_
*394 _0332_
*395 _0333_
*396 _0334_
*397 _0335_
*398 _0336_
*399 _0337_
*400 _0338_
*401 _0339_
*402 _0340_
*403 _0341_
*404 _0342_
*405 _0343_
*406 _0344_
*407 _0345_
*408 _0346_
*409 _0347_
*410 _0348_
*411 _0349_
*412 _0350_
*413 _0351_
*414 _0352_
*415 _0353_
*416 _0354_
*417 _0355_
*418 _0356_
*419 _0357_
*420 _0358_
*421 _0359_
*422 _0360_
*423 _0361_
*424 _0362_
*425 _0363_
*426 _0364_
*427 _0365_
*428 _0366_
*429 _0367_
*430 _0368_
*431 _0369_
*432 _0370_
*433 _0371_
*434 _0372_
*435 _0373_
*436 _0374_
*437 _0375_
*438 _0376_
*439 _0377_
*440 _0378_
*441 _0379_
*442 _0380_
*443 _0381_
*444 _0382_
*445 _0383_
*446 _0384_
*447 _0385_
*448 _0386_
*449 _0387_
*450 _0388_
*451 _0389_
*452 _0390_
*453 _0391_
*454 _0392_
*455 _0393_
*456 _0394_
*457 _0395_
*458 _0396_
*459 _0397_
*460 _0398_
*461 _0399_
*462 _0400_
*463 _0401_
*464 _0402_
*465 _0403_
*466 _0404_
*467 _0405_
*468 _0406_
*469 _0407_
*470 _0408_
*471 _0409_
*472 _0410_
*473 _0411_
*474 _0412_
*475 _0413_
*476 _0414_
*477 _0415_
*478 _0416_
*479 _0417_
*480 _0418_
*481 _0419_
*482 _0420_
*483 _0421_
*484 _0422_
*485 _0423_
*486 _0424_
*487 _0425_
*488 _0426_
*489 _0427_
*490 _0428_
*491 _0429_
*492 _0430_
*493 _0431_
*494 _0432_
*495 _0433_
*496 _0434_
*497 _0435_
*498 _0436_
*499 _0437_
*500 _0438_
*501 _0439_
*502 _0440_
*503 _0441_
*504 _0442_
*505 _0443_
*506 _0444_
*507 _0445_
*508 _0446_
*509 _0447_
*510 _0448_
*511 _0449_
*512 _0450_
*513 _0451_
*514 _0452_
*515 _0453_
*516 _0454_
*517 _0455_
*518 _0456_
*519 _0457_
*520 _0458_
*521 _0459_
*522 _0460_
*523 _0461_
*524 _0462_
*525 _0463_
*526 _0464_
*527 _0465_
*528 _0466_
*529 _0467_
*530 _0468_
*531 _0469_
*532 _0470_
*533 _0471_
*534 _0472_
*535 _0473_
*536 _0474_
*537 _0475_
*538 _0476_
*539 _0477_
*540 _0478_
*541 _0479_
*542 _0480_
*543 _0481_
*544 _0482_
*545 _0483_
*546 _0484_
*547 _0485_
*548 _0486_
*549 _0487_
*550 _0488_
*551 _0489_
*552 _0490_
*553 _0491_
*554 _0492_
*555 _0493_
*556 _0494_
*557 _0495_
*558 _0496_
*559 _0497_
*560 _0498_
*561 _0499_
*562 _0500_
*563 _0501_
*564 _0502_
*565 _0503_
*566 _0504_
*567 _0505_
*568 _0506_
*569 _0507_
*570 _0508_
*571 _0509_
*572 _0510_
*573 _0511_
*574 _0512_
*575 _0513_
*576 _0514_
*577 _0515_
*578 _0516_
*579 _0517_
*580 _0518_
*581 _0519_
*582 _0520_
*583 _0521_
*584 _0522_
*585 _0523_
*586 _0524_
*587 _0525_
*588 _0526_
*589 _0527_
*590 _0528_
*591 _0529_
*592 _0530_
*593 _0531_
*594 _0532_
*595 _0533_
*596 _0534_
*597 _0535_
*598 _0536_
*599 _0537_
*600 cfg_force_en\[0\]
*601 cfg_force_en\[10\]
*602 cfg_force_en\[11\]
*603 cfg_force_en\[12\]
*604 cfg_force_en\[13\]
*605 cfg_force_en\[14\]
*606 cfg_force_en\[15\]
*607 cfg_force_en\[16\]
*608 cfg_force_en\[17\]
*609 cfg_force_en\[18\]
*610 cfg_force_en\[19\]
*611 cfg_force_en\[1\]
*612 cfg_force_en\[20\]
*613 cfg_force_en\[21\]
*614 cfg_force_en\[22\]
*615 cfg_force_en\[23\]
*616 cfg_force_en\[24\]
*617 cfg_force_en\[25\]
*618 cfg_force_en\[26\]
*619 cfg_force_en\[27\]
*620 cfg_force_en\[28\]
*621 cfg_force_en\[29\]
*622 cfg_force_en\[2\]
*623 cfg_force_en\[30\]
*624 cfg_force_en\[31\]
*625 cfg_force_en\[3\]
*626 cfg_force_en\[4\]
*627 cfg_force_en\[5\]
*628 cfg_force_en\[6\]
*629 cfg_force_en\[7\]
*630 cfg_force_en\[8\]
*631 cfg_force_en\[9\]
*632 cfg_force_val\[0\]
*633 cfg_force_val\[10\]
*634 cfg_force_val\[11\]
*635 cfg_force_val\[12\]
*636 cfg_force_val\[13\]
*637 cfg_force_val\[14\]
*638 cfg_force_val\[15\]
*639 cfg_force_val\[16\]
*640 cfg_force_val\[17\]
*641 cfg_force_val\[18\]
*642 cfg_force_val\[19\]
*643 cfg_force_val\[1\]
*644 cfg_force_val\[20\]
*645 cfg_force_val\[21\]
*646 cfg_force_val\[22\]
*647 cfg_force_val\[23\]
*648 cfg_force_val\[24\]
*649 cfg_force_val\[25\]
*650 cfg_force_val\[26\]
*651 cfg_force_val\[27\]
*652 cfg_force_val\[28\]
*653 cfg_force_val\[29\]
*654 cfg_force_val\[2\]
*655 cfg_force_val\[30\]
*656 cfg_force_val\[31\]
*657 cfg_force_val\[3\]
*658 cfg_force_val\[4\]
*659 cfg_force_val\[5\]
*660 cfg_force_val\[6\]
*661 cfg_force_val\[7\]
*662 cfg_force_val\[8\]
*663 cfg_force_val\[9\]
*664 clknet_0_clk_i
*665 clknet_4_0_0_clk_i
*666 clknet_4_10_0_clk_i
*667 clknet_4_11_0_clk_i
*668 clknet_4_12_0_clk_i
*669 clknet_4_13_0_clk_i
*670 clknet_4_14_0_clk_i
*671 clknet_4_15_0_clk_i
*672 clknet_4_1_0_clk_i
*673 clknet_4_2_0_clk_i
*674 clknet_4_3_0_clk_i
*675 clknet_4_4_0_clk_i
*676 clknet_4_5_0_clk_i
*677 clknet_4_6_0_clk_i
*678 clknet_4_7_0_clk_i
*679 clknet_4_8_0_clk_i
*680 clknet_4_9_0_clk_i
*681 clknet_5_0__leaf_clk_i
*682 clknet_5_10__leaf_clk_i
*683 clknet_5_11__leaf_clk_i
*684 clknet_5_12__leaf_clk_i
*685 clknet_5_13__leaf_clk_i
*686 clknet_5_14__leaf_clk_i
*687 clknet_5_15__leaf_clk_i
*688 clknet_5_16__leaf_clk_i
*689 clknet_5_17__leaf_clk_i
*690 clknet_5_18__leaf_clk_i
*691 clknet_5_19__leaf_clk_i
*692 clknet_5_1__leaf_clk_i
*693 clknet_5_20__leaf_clk_i
*694 clknet_5_21__leaf_clk_i
*695 clknet_5_22__leaf_clk_i
*696 clknet_5_23__leaf_clk_i
*697 clknet_5_24__leaf_clk_i
*698 clknet_5_25__leaf_clk_i
*699 clknet_5_26__leaf_clk_i
*700 clknet_5_27__leaf_clk_i
*701 clknet_5_28__leaf_clk_i
*702 clknet_5_29__leaf_clk_i
*703 clknet_5_2__leaf_clk_i
*704 clknet_5_30__leaf_clk_i
*705 clknet_5_31__leaf_clk_i
*706 clknet_5_3__leaf_clk_i
*707 clknet_5_4__leaf_clk_i
*708 clknet_5_5__leaf_clk_i
*709 clknet_5_6__leaf_clk_i
*710 clknet_5_7__leaf_clk_i
*711 clknet_5_8__leaf_clk_i
*712 clknet_5_9__leaf_clk_i
*713 i_ctrl_regs\.config_ctrl_r\[0\]
*714 i_ctrl_regs\.config_ctrl_r\[10\]
*715 i_ctrl_regs\.config_ctrl_r\[11\]
*716 i_ctrl_regs\.config_ctrl_r\[12\]
*717 i_ctrl_regs\.config_ctrl_r\[13\]
*718 i_ctrl_regs\.config_ctrl_r\[14\]
*719 i_ctrl_regs\.config_ctrl_r\[15\]
*720 i_ctrl_regs\.config_ctrl_r\[16\]
*721 i_ctrl_regs\.config_ctrl_r\[17\]
*722 i_ctrl_regs\.config_ctrl_r\[18\]
*723 i_ctrl_regs\.config_ctrl_r\[1\]
*724 i_ctrl_regs\.config_ctrl_r\[2\]
*725 i_ctrl_regs\.config_ctrl_r\[3\]
*726 i_ctrl_regs\.config_ctrl_r\[4\]
*727 i_ctrl_regs\.config_ctrl_r\[5\]
*728 i_ctrl_regs\.config_ctrl_r\[6\]
*729 i_ctrl_regs\.config_ctrl_r\[7\]
*730 i_ctrl_regs\.config_ctrl_r\[8\]
*731 i_ctrl_regs\.config_ctrl_r\[9\]
*732 i_xorshift32\.out\[0\]
*733 i_xorshift32\.out\[10\]
*734 i_xorshift32\.out\[11\]
*735 i_xorshift32\.out\[12\]
*736 i_xorshift32\.out\[13\]
*737 i_xorshift32\.out\[14\]
*738 i_xorshift32\.out\[15\]
*739 i_xorshift32\.out\[16\]
*740 i_xorshift32\.out\[17\]
*741 i_xorshift32\.out\[18\]
*742 i_xorshift32\.out\[19\]
*743 i_xorshift32\.out\[1\]
*744 i_xorshift32\.out\[20\]
*745 i_xorshift32\.out\[21\]
*746 i_xorshift32\.out\[22\]
*747 i_xorshift32\.out\[23\]
*748 i_xorshift32\.out\[24\]
*749 i_xorshift32\.out\[25\]
*750 i_xorshift32\.out\[26\]
*751 i_xorshift32\.out\[27\]
*752 i_xorshift32\.out\[28\]
*753 i_xorshift32\.out\[29\]
*754 i_xorshift32\.out\[2\]
*755 i_xorshift32\.out\[30\]
*756 i_xorshift32\.out\[31\]
*757 i_xorshift32\.out\[3\]
*758 i_xorshift32\.out\[4\]
*759 i_xorshift32\.out\[5\]
*760 i_xorshift32\.out\[6\]
*761 i_xorshift32\.out\[7\]
*762 i_xorshift32\.out\[8\]
*763 i_xorshift32\.out\[9\]
*764 net
*765 net1
*766 net10
*767 net100
*768 net101
*769 net102
*770 net103
*771 net104
*772 net105
*773 net106
*774 net107
*775 net108
*776 net109
*777 net11
*778 net110
*779 net111
*780 net112
*781 net113
*782 net114
*783 net115
*784 net116
*785 net117
*786 net118
*787 net119
*788 net12
*789 net120
*790 net121
*791 net122
*792 net123
*793 net124
*794 net125
*795 net126
*796 net127
*797 net128
*798 net129
*799 net13
*800 net130
*801 net131
*802 net132
*803 net133
*804 net134
*805 net135
*806 net136
*807 net137
*808 net138
*809 net139
*810 net14
*811 net140
*812 net141
*813 net142
*814 net143
*815 net144
*816 net145
*817 net146
*818 net147
*819 net148
*820 net149
*821 net15
*822 net150
*823 net151
*824 net152
*825 net153
*826 net154
*827 net155
*828 net156
*829 net157
*830 net158
*831 net159
*832 net16
*833 net160
*834 net161
*835 net162
*836 net163
*837 net164
*838 net165
*839 net166
*840 net167
*841 net168
*842 net169
*843 net17
*844 net170
*845 net171
*846 net172
*847 net173
*848 net174
*849 net175
*850 net176
*851 net177
*852 net178
*853 net179
*854 net18
*855 net180
*856 net181
*857 net182
*858 net183
*859 net184
*860 net185
*861 net186
*862 net187
*863 net188
*864 net189
*865 net19
*866 net190
*867 net191
*868 net192
*869 net193
*870 net194
*871 net195
*872 net196
*873 net197
*874 net198
*875 net199
*876 net2
*877 net20
*878 net200
*879 net201
*880 net202
*881 net203
*882 net204
*883 net205
*884 net206
*885 net207
*886 net208
*887 net209
*888 net21
*889 net210
*890 net211
*891 net212
*892 net213
*893 net214
*894 net215
*895 net216
*896 net217
*897 net218
*898 net219
*899 net22
*900 net220
*901 net221
*902 net222
*903 net223
*904 net224
*905 net225
*906 net226
*907 net227
*908 net228
*909 net229
*910 net23
*911 net230
*912 net231
*913 net232
*914 net233
*915 net234
*916 net235
*917 net236
*918 net237
*919 net238
*920 net239
*921 net24
*922 net240
*923 net241
*924 net242
*925 net243
*926 net244
*927 net245
*928 net246
*929 net247
*930 net248
*931 net249
*932 net25
*933 net250
*934 net251
*935 net252
*936 net253
*937 net254
*938 net255
*939 net256
*940 net257
*941 net258
*942 net259
*943 net26
*944 net260
*945 net261
*946 net262
*947 net263
*948 net264
*949 net265
*950 net266
*951 net267
*952 net268
*953 net269
*954 net27
*955 net270
*956 net271
*957 net272
*958 net273
*959 net274
*960 net275
*961 net276
*962 net277
*963 net278
*964 net279
*965 net28
*966 net280
*967 net281
*968 net282
*969 net283
*970 net284
*971 net285
*972 net286
*973 net287
*974 net288
*975 net289
*976 net29
*977 net290
*978 net291
*979 net292
*980 net293
*981 net294
*982 net295
*983 net296
*984 net297
*985 net298
*986 net299
*987 net3
*988 net30
*989 net300
*990 net301
*991 net302
*992 net303
*993 net304
*994 net305
*995 net306
*996 net307
*997 net308
*998 net309
*999 net31
*1000 net310
*1001 net311
*1002 net312
*1003 net313
*1004 net314
*1005 net315
*1006 net316
*1007 net317
*1008 net318
*1009 net319
*1010 net32
*1011 net320
*1012 net321
*1013 net322
*1014 net323
*1015 net324
*1016 net325
*1017 net326
*1018 net327
*1019 net328
*1020 net329
*1021 net33
*1022 net330
*1023 net331
*1024 net332
*1025 net333
*1026 net334
*1027 net335
*1028 net336
*1029 net337
*1030 net338
*1031 net339
*1032 net34
*1033 net340
*1034 net341
*1035 net342
*1036 net343
*1037 net344
*1038 net345
*1039 net346
*1040 net347
*1041 net348
*1042 net349
*1043 net35
*1044 net350
*1045 net351
*1046 net352
*1047 net353
*1048 net354
*1049 net355
*1050 net356
*1051 net357
*1052 net358
*1053 net359
*1054 net36
*1055 net360
*1056 net361
*1057 net362
*1058 net363
*1059 net364
*1060 net365
*1061 net366
*1062 net367
*1063 net368
*1064 net369
*1065 net37
*1066 net370
*1067 net371
*1068 net372
*1069 net373
*1070 net374
*1071 net375
*1072 net376
*1073 net377
*1074 net378
*1075 net379
*1076 net38
*1077 net380
*1078 net381
*1079 net382
*1080 net383
*1081 net384
*1082 net385
*1083 net386
*1084 net387
*1085 net388
*1086 net389
*1087 net39
*1088 net390
*1089 net391
*1090 net392
*1091 net393
*1092 net4
*1093 net40
*1094 net41
*1095 net42
*1096 net43
*1097 net44
*1098 net45
*1099 net46
*1100 net47
*1101 net48
*1102 net49
*1103 net5
*1104 net50
*1105 net51
*1106 net52
*1107 net53
*1108 net54
*1109 net55
*1110 net56
*1111 net57
*1112 net58
*1113 net59
*1114 net6
*1115 net60
*1116 net61
*1117 net62
*1118 net63
*1119 net64
*1120 net65
*1121 net66
*1122 net67
*1123 net68
*1124 net69
*1125 net7
*1126 net70
*1127 net71
*1128 net72
*1129 net73
*1130 net74
*1131 net75
*1132 net76
*1133 net77
*1134 net78
*1135 net79
*1136 net8
*1137 net80
*1138 net81
*1139 net82
*1140 net83
*1141 net84
*1142 net85
*1143 net86
*1144 net87
*1145 net88
*1146 net89
*1147 net9
*1148 net90
*1149 net91
*1150 net92
*1151 net93
*1152 net94
*1153 net95
*1154 net96
*1155 net97
*1156 net98
*1157 net99
*1158 prng_cnt_r\[0\]
*1159 prng_cnt_r\[1\]
*1160 prng_cnt_r\[2\]
*1161 prng_cnt_r\[3\]
*1162 prng_cnt_r\[4\]
*1163 prng_cnt_r\[5\]
*1164 FILLER_0_0
*1165 FILLER_0_103
*1166 FILLER_0_105
*1167 FILLER_0_111
*1168 FILLER_0_113
*1169 FILLER_0_123
*1170 FILLER_0_130
*1171 FILLER_0_132
*1172 FILLER_0_169
*1173 FILLER_0_176
*1174 FILLER_0_183
*1175 FILLER_0_19
*1176 FILLER_0_190
*1177 FILLER_0_204
*1178 FILLER_0_21
*1179 FILLER_0_227
*1180 FILLER_0_234
*1181 FILLER_0_236
*1182 FILLER_0_242
*1183 FILLER_0_26
*1184 FILLER_0_272
*1185 FILLER_0_274
*1186 FILLER_0_28
*1187 FILLER_0_332
*1188 FILLER_0_339
*1189 FILLER_0_60
*1190 FILLER_0_67
*1191 FILLER_0_7
*1192 FILLER_0_74
*1193 FILLER_0_76
*1194 FILLER_0_82
*1195 FILLER_0_89
*1196 FILLER_0_96
*1197 FILLER_10_104
*1198 FILLER_10_11
*1199 FILLER_10_111
*1200 FILLER_10_118
*1201 FILLER_10_123
*1202 FILLER_10_13
*1203 FILLER_10_130
*1204 FILLER_10_132
*1205 FILLER_10_137
*1206 FILLER_10_139
*1207 FILLER_10_19
*1208 FILLER_10_194
*1209 FILLER_10_21
*1210 FILLER_10_225
*1211 FILLER_10_232
*1212 FILLER_10_236
*1213 FILLER_10_246
*1214 FILLER_10_253
*1215 FILLER_10_26
*1216 FILLER_10_28
*1217 FILLER_10_282
*1218 FILLER_10_332
*1219 FILLER_10_339
*1220 FILLER_10_354
*1221 FILLER_10_37
*1222 FILLER_10_4
*1223 FILLER_10_44
*1224 FILLER_10_51
*1225 FILLER_10_53
*1226 FILLER_10_63
*1227 FILLER_10_65
*1228 FILLER_10_70
*1229 FILLER_10_77
*1230 FILLER_10_83
*1231 FILLER_10_90
*1232 FILLER_10_97
*1233 FILLER_11_0
*1234 FILLER_11_102
*1235 FILLER_11_108
*1236 FILLER_11_11
*1237 FILLER_11_115
*1238 FILLER_11_122
*1239 FILLER_11_129
*1240 FILLER_11_159
*1241 FILLER_11_18
*1242 FILLER_11_187
*1243 FILLER_11_194
*1244 FILLER_11_216
*1245 FILLER_11_226
*1246 FILLER_11_233
*1247 FILLER_11_25
*1248 FILLER_11_251
*1249 FILLER_11_272
*1250 FILLER_11_32
*1251 FILLER_11_332
*1252 FILLER_11_339
*1253 FILLER_11_36
*1254 FILLER_11_7
*1255 FILLER_11_83
*1256 FILLER_11_90
*1257 FILLER_12_123
*1258 FILLER_12_130
*1259 FILLER_12_132
*1260 FILLER_12_150
*1261 FILLER_12_166
*1262 FILLER_12_168
*1263 FILLER_12_182
*1264 FILLER_12_189
*1265 FILLER_12_19
*1266 FILLER_12_196
*1267 FILLER_12_200
*1268 FILLER_12_228
*1269 FILLER_12_235
*1270 FILLER_12_247
*1271 FILLER_12_249
*1272 FILLER_12_26
*1273 FILLER_12_28
*1274 FILLER_12_304
*1275 FILLER_12_332
*1276 FILLER_12_339
*1277 FILLER_12_34
*1278 FILLER_12_4
*1279 FILLER_12_79
*1280 FILLER_12_8
*1281 FILLER_12_86
*1282 FILLER_13_0
*1283 FILLER_13_112
*1284 FILLER_13_116
*1285 FILLER_13_122
*1286 FILLER_13_129
*1287 FILLER_13_133
*1288 FILLER_13_157
*1289 FILLER_13_189
*1290 FILLER_13_19
*1291 FILLER_13_2
*1292 FILLER_13_21
*1293 FILLER_13_225
*1294 FILLER_13_232
*1295 FILLER_13_236
*1296 FILLER_13_26
*1297 FILLER_13_28
*1298 FILLER_13_290
*1299 FILLER_13_292
*1300 FILLER_13_302
*1301 FILLER_13_304
*1302 FILLER_13_332
*1303 FILLER_13_339
*1304 FILLER_13_56
*1305 FILLER_13_83
*1306 FILLER_13_90
*1307 FILLER_14_0
*1308 FILLER_14_105
*1309 FILLER_14_112
*1310 FILLER_14_123
*1311 FILLER_14_130
*1312 FILLER_14_137
*1313 FILLER_14_142
*1314 FILLER_14_151
*1315 FILLER_14_170
*1316 FILLER_14_174
*1317 FILLER_14_19
*1318 FILLER_14_228
*1319 FILLER_14_235
*1320 FILLER_14_26
*1321 FILLER_14_264
*1322 FILLER_14_332
*1323 FILLER_14_334
*1324 FILLER_14_338
*1325 FILLER_14_340
*1326 FILLER_14_354
*1327 FILLER_14_52
*1328 FILLER_14_7
*1329 FILLER_14_82
*1330 FILLER_14_89
*1331 FILLER_14_98
*1332 FILLER_15_0
*1333 FILLER_15_103
*1334 FILLER_15_118
*1335 FILLER_15_125
*1336 FILLER_15_132
*1337 FILLER_15_14
*1338 FILLER_15_149
*1339 FILLER_15_156
*1340 FILLER_15_160
*1341 FILLER_15_174
*1342 FILLER_15_184
*1343 FILLER_15_19
*1344 FILLER_15_191
*1345 FILLER_15_193
*1346 FILLER_15_21
*1347 FILLER_15_215
*1348 FILLER_15_217
*1349 FILLER_15_228
*1350 FILLER_15_235
*1351 FILLER_15_26
*1352 FILLER_15_28
*1353 FILLER_15_300
*1354 FILLER_15_330
*1355 FILLER_15_337
*1356 FILLER_15_56
*1357 FILLER_15_60
*1358 FILLER_15_7
*1359 FILLER_15_95
*1360 FILLER_15_99
*1361 FILLER_16_105
*1362 FILLER_16_112
*1363 FILLER_16_119
*1364 FILLER_16_126
*1365 FILLER_16_133
*1366 FILLER_16_140
*1367 FILLER_16_147
*1368 FILLER_16_154
*1369 FILLER_16_161
*1370 FILLER_16_173
*1371 FILLER_16_180
*1372 FILLER_16_187
*1373 FILLER_16_19
*1374 FILLER_16_21
*1375 FILLER_16_222
*1376 FILLER_16_227
*1377 FILLER_16_234
*1378 FILLER_16_238
*1379 FILLER_16_26
*1380 FILLER_16_261
*1381 FILLER_16_263
*1382 FILLER_16_277
*1383 FILLER_16_283
*1384 FILLER_16_293
*1385 FILLER_16_295
*1386 FILLER_16_30
*1387 FILLER_16_332
*1388 FILLER_16_339
*1389 FILLER_16_4
*1390 FILLER_16_49
*1391 FILLER_16_56
*1392 FILLER_16_63
*1393 FILLER_16_70
*1394 FILLER_16_77
*1395 FILLER_16_84
*1396 FILLER_16_91
*1397 FILLER_16_98
*1398 FILLER_17_0
*1399 FILLER_17_109
*1400 FILLER_17_116
*1401 FILLER_17_123
*1402 FILLER_17_130
*1403 FILLER_17_132
*1404 FILLER_17_14
*1405 FILLER_17_141
*1406 FILLER_17_148
*1407 FILLER_17_155
*1408 FILLER_17_162
*1409 FILLER_17_164
*1410 FILLER_17_170
*1411 FILLER_17_178
*1412 FILLER_17_185
*1413 FILLER_17_192
*1414 FILLER_17_194
*1415 FILLER_17_21
*1416 FILLER_17_228
*1417 FILLER_17_235
*1418 FILLER_17_254
*1419 FILLER_17_26
*1420 FILLER_17_28
*1421 FILLER_17_282
*1422 FILLER_17_284
*1423 FILLER_17_298
*1424 FILLER_17_300
*1425 FILLER_17_332
*1426 FILLER_17_339
*1427 FILLER_17_55
*1428 FILLER_17_59
*1429 FILLER_17_7
*1430 FILLER_17_75
*1431 FILLER_17_84
*1432 FILLER_17_91
*1433 FILLER_17_98
*1434 FILLER_18_103
*1435 FILLER_18_109
*1436 FILLER_18_11
*1437 FILLER_18_113
*1438 FILLER_18_123
*1439 FILLER_18_130
*1440 FILLER_18_132
*1441 FILLER_18_142
*1442 FILLER_18_146
*1443 FILLER_18_168
*1444 FILLER_18_19
*1445 FILLER_18_196
*1446 FILLER_18_200
*1447 FILLER_18_228
*1448 FILLER_18_235
*1449 FILLER_18_237
*1450 FILLER_18_26
*1451 FILLER_18_265
*1452 FILLER_18_28
*1453 FILLER_18_293
*1454 FILLER_18_295
*1455 FILLER_18_332
*1456 FILLER_18_339
*1457 FILLER_18_4
*1458 FILLER_18_56
*1459 FILLER_18_58
*1460 FILLER_18_86
*1461 FILLER_18_96
*1462 FILLER_19_0
*1463 FILLER_19_104
*1464 FILLER_19_123
*1465 FILLER_19_130
*1466 FILLER_19_132
*1467 FILLER_19_152
*1468 FILLER_19_159
*1469 FILLER_19_177
*1470 FILLER_19_19
*1471 FILLER_19_194
*1472 FILLER_19_196
*1473 FILLER_19_2
*1474 FILLER_19_21
*1475 FILLER_19_228
*1476 FILLER_19_235
*1477 FILLER_19_241
*1478 FILLER_19_243
*1479 FILLER_19_26
*1480 FILLER_19_267
*1481 FILLER_19_28
*1482 FILLER_19_290
*1483 FILLER_19_317
*1484 FILLER_19_332
*1485 FILLER_19_339
*1486 FILLER_19_56
*1487 FILLER_19_86
*1488 FILLER_1_0
*1489 FILLER_1_121
*1490 FILLER_1_125
*1491 FILLER_1_130
*1492 FILLER_1_132
*1493 FILLER_1_138
*1494 FILLER_1_180
*1495 FILLER_1_187
*1496 FILLER_1_19
*1497 FILLER_1_2
*1498 FILLER_1_21
*1499 FILLER_1_225
*1500 FILLER_1_232
*1501 FILLER_1_239
*1502 FILLER_1_26
*1503 FILLER_1_267
*1504 FILLER_1_269
*1505 FILLER_1_28
*1506 FILLER_1_297
*1507 FILLER_1_330
*1508 FILLER_1_337
*1509 FILLER_1_56
*1510 FILLER_1_66
*1511 FILLER_1_68
*1512 FILLER_1_7
*1513 FILLER_1_80
*1514 FILLER_1_87
*1515 FILLER_1_9
*1516 FILLER_1_96
*1517 FILLER_20_0
*1518 FILLER_20_105
*1519 FILLER_20_123
*1520 FILLER_20_130
*1521 FILLER_20_132
*1522 FILLER_20_138
*1523 FILLER_20_147
*1524 FILLER_20_179
*1525 FILLER_20_184
*1526 FILLER_20_19
*1527 FILLER_20_191
*1528 FILLER_20_198
*1529 FILLER_20_21
*1530 FILLER_20_221
*1531 FILLER_20_228
*1532 FILLER_20_235
*1533 FILLER_20_246
*1534 FILLER_20_248
*1535 FILLER_20_26
*1536 FILLER_20_272
*1537 FILLER_20_28
*1538 FILLER_20_283
*1539 FILLER_20_285
*1540 FILLER_20_300
*1541 FILLER_20_332
*1542 FILLER_20_339
*1543 FILLER_20_39
*1544 FILLER_20_53
*1545 FILLER_20_60
*1546 FILLER_20_64
*1547 FILLER_20_70
*1548 FILLER_20_74
*1549 FILLER_20_84
*1550 FILLER_20_91
*1551 FILLER_20_98
*1552 FILLER_21_0
*1553 FILLER_21_104
*1554 FILLER_21_111
*1555 FILLER_21_118
*1556 FILLER_21_125
*1557 FILLER_21_132
*1558 FILLER_21_14
*1559 FILLER_21_154
*1560 FILLER_21_158
*1561 FILLER_21_168
*1562 FILLER_21_177
*1563 FILLER_21_183
*1564 FILLER_21_19
*1565 FILLER_21_21
*1566 FILLER_21_228
*1567 FILLER_21_235
*1568 FILLER_21_251
*1569 FILLER_21_26
*1570 FILLER_21_295
*1571 FILLER_21_30
*1572 FILLER_21_332
*1573 FILLER_21_339
*1574 FILLER_21_47
*1575 FILLER_21_54
*1576 FILLER_21_61
*1577 FILLER_21_68
*1578 FILLER_21_7
*1579 FILLER_21_75
*1580 FILLER_21_82
*1581 FILLER_21_97
*1582 FILLER_22_103
*1583 FILLER_22_11
*1584 FILLER_22_110
*1585 FILLER_22_117
*1586 FILLER_22_124
*1587 FILLER_22_131
*1588 FILLER_22_137
*1589 FILLER_22_144
*1590 FILLER_22_151
*1591 FILLER_22_158
*1592 FILLER_22_162
*1593 FILLER_22_168
*1594 FILLER_22_177
*1595 FILLER_22_18
*1596 FILLER_22_183
*1597 FILLER_22_187
*1598 FILLER_22_193
*1599 FILLER_22_200
*1600 FILLER_22_228
*1601 FILLER_22_235
*1602 FILLER_22_25
*1603 FILLER_22_331
*1604 FILLER_22_338
*1605 FILLER_22_340
*1606 FILLER_22_39
*1607 FILLER_22_4
*1608 FILLER_22_44
*1609 FILLER_22_51
*1610 FILLER_22_58
*1611 FILLER_22_62
*1612 FILLER_22_72
*1613 FILLER_22_96
*1614 FILLER_23_0
*1615 FILLER_23_100
*1616 FILLER_23_107
*1617 FILLER_23_114
*1618 FILLER_23_121
*1619 FILLER_23_128
*1620 FILLER_23_132
*1621 FILLER_23_142
*1622 FILLER_23_154
*1623 FILLER_23_161
*1624 FILLER_23_168
*1625 FILLER_23_175
*1626 FILLER_23_181
*1627 FILLER_23_188
*1628 FILLER_23_19
*1629 FILLER_23_199
*1630 FILLER_23_206
*1631 FILLER_23_21
*1632 FILLER_23_212
*1633 FILLER_23_228
*1634 FILLER_23_235
*1635 FILLER_23_237
*1636 FILLER_23_247
*1637 FILLER_23_259
*1638 FILLER_23_26
*1639 FILLER_23_263
*1640 FILLER_23_28
*1641 FILLER_23_325
*1642 FILLER_23_332
*1643 FILLER_23_339
*1644 FILLER_23_358
*1645 FILLER_23_50
*1646 FILLER_23_57
*1647 FILLER_23_61
*1648 FILLER_23_7
*1649 FILLER_23_70
*1650 FILLER_24_105
*1651 FILLER_24_109
*1652 FILLER_24_123
*1653 FILLER_24_130
*1654 FILLER_24_132
*1655 FILLER_24_139
*1656 FILLER_24_143
*1657 FILLER_24_163
*1658 FILLER_24_19
*1659 FILLER_24_21
*1660 FILLER_24_210
*1661 FILLER_24_217
*1662 FILLER_24_228
*1663 FILLER_24_235
*1664 FILLER_24_26
*1665 FILLER_24_268
*1666 FILLER_24_270
*1667 FILLER_24_28
*1668 FILLER_24_284
*1669 FILLER_24_286
*1670 FILLER_24_304
*1671 FILLER_24_332
*1672 FILLER_24_339
*1673 FILLER_24_4
*1674 FILLER_24_56
*1675 FILLER_24_63
*1676 FILLER_24_70
*1677 FILLER_24_77
*1678 FILLER_24_84
*1679 FILLER_24_91
*1680 FILLER_24_98
*1681 FILLER_25_0
*1682 FILLER_25_104
*1683 FILLER_25_111
*1684 FILLER_25_123
*1685 FILLER_25_130
*1686 FILLER_25_132
*1687 FILLER_25_138
*1688 FILLER_25_145
*1689 FILLER_25_152
*1690 FILLER_25_162
*1691 FILLER_25_171
*1692 FILLER_25_178
*1693 FILLER_25_18
*1694 FILLER_25_185
*1695 FILLER_25_187
*1696 FILLER_25_205
*1697 FILLER_25_218
*1698 FILLER_25_220
*1699 FILLER_25_226
*1700 FILLER_25_233
*1701 FILLER_25_237
*1702 FILLER_25_246
*1703 FILLER_25_248
*1704 FILLER_25_26
*1705 FILLER_25_28
*1706 FILLER_25_303
*1707 FILLER_25_332
*1708 FILLER_25_339
*1709 FILLER_25_64
*1710 FILLER_25_7
*1711 FILLER_25_71
*1712 FILLER_25_78
*1713 FILLER_25_82
*1714 FILLER_25_97
*1715 FILLER_26_0
*1716 FILLER_26_102
*1717 FILLER_26_109
*1718 FILLER_26_116
*1719 FILLER_26_123
*1720 FILLER_26_130
*1721 FILLER_26_132
*1722 FILLER_26_14
*1723 FILLER_26_141
*1724 FILLER_26_180
*1725 FILLER_26_187
*1726 FILLER_26_21
*1727 FILLER_26_228
*1728 FILLER_26_235
*1729 FILLER_26_247
*1730 FILLER_26_252
*1731 FILLER_26_254
*1732 FILLER_26_28
*1733 FILLER_26_332
*1734 FILLER_26_339
*1735 FILLER_26_48
*1736 FILLER_26_63
*1737 FILLER_26_7
*1738 FILLER_26_70
*1739 FILLER_26_77
*1740 FILLER_26_84
*1741 FILLER_26_86
*1742 FILLER_26_95
*1743 FILLER_27_106
*1744 FILLER_27_11
*1745 FILLER_27_110
*1746 FILLER_27_116
*1747 FILLER_27_118
*1748 FILLER_27_123
*1749 FILLER_27_13
*1750 FILLER_27_130
*1751 FILLER_27_132
*1752 FILLER_27_149
*1753 FILLER_27_176
*1754 FILLER_27_19
*1755 FILLER_27_207
*1756 FILLER_27_209
*1757 FILLER_27_214
*1758 FILLER_27_228
*1759 FILLER_27_235
*1760 FILLER_27_26
*1761 FILLER_27_268
*1762 FILLER_27_270
*1763 FILLER_27_281
*1764 FILLER_27_33
*1765 FILLER_27_332
*1766 FILLER_27_339
*1767 FILLER_27_4
*1768 FILLER_27_44
*1769 FILLER_27_69
*1770 FILLER_27_76
*1771 FILLER_27_99
*1772 FILLER_28_0
*1773 FILLER_28_100
*1774 FILLER_28_107
*1775 FILLER_28_122
*1776 FILLER_28_129
*1777 FILLER_28_136
*1778 FILLER_28_143
*1779 FILLER_28_145
*1780 FILLER_28_180
*1781 FILLER_28_184
*1782 FILLER_28_19
*1783 FILLER_28_198
*1784 FILLER_28_205
*1785 FILLER_28_209
*1786 FILLER_28_228
*1787 FILLER_28_230
*1788 FILLER_28_234
*1789 FILLER_28_251
*1790 FILLER_28_26
*1791 FILLER_28_263
*1792 FILLER_28_278
*1793 FILLER_28_28
*1794 FILLER_28_330
*1795 FILLER_28_337
*1796 FILLER_28_356
*1797 FILLER_28_358
*1798 FILLER_28_51
*1799 FILLER_28_53
*1800 FILLER_28_86
*1801 FILLER_28_93
*1802 FILLER_29_0
*1803 FILLER_29_104
*1804 FILLER_29_123
*1805 FILLER_29_130
*1806 FILLER_29_137
*1807 FILLER_29_144
*1808 FILLER_29_151
*1809 FILLER_29_156
*1810 FILLER_29_163
*1811 FILLER_29_177
*1812 FILLER_29_181
*1813 FILLER_29_186
*1814 FILLER_29_19
*1815 FILLER_29_197
*1816 FILLER_29_21
*1817 FILLER_29_228
*1818 FILLER_29_235
*1819 FILLER_29_239
*1820 FILLER_29_26
*1821 FILLER_29_28
*1822 FILLER_29_281
*1823 FILLER_29_283
*1824 FILLER_29_316
*1825 FILLER_29_330
*1826 FILLER_29_337
*1827 FILLER_29_69
*1828 FILLER_29_7
*1829 FILLER_29_76
*1830 FILLER_29_83
*1831 FILLER_29_90
*1832 FILLER_29_97
*1833 FILLER_2_0
*1834 FILLER_2_123
*1835 FILLER_2_130
*1836 FILLER_2_134
*1837 FILLER_2_146
*1838 FILLER_2_172
*1839 FILLER_2_182
*1840 FILLER_2_184
*1841 FILLER_2_19
*1842 FILLER_2_21
*1843 FILLER_2_222
*1844 FILLER_2_228
*1845 FILLER_2_235
*1846 FILLER_2_26
*1847 FILLER_2_291
*1848 FILLER_2_303
*1849 FILLER_2_305
*1850 FILLER_2_319
*1851 FILLER_2_330
*1852 FILLER_2_337
*1853 FILLER_2_92
*1854 FILLER_30_106
*1855 FILLER_30_11
*1856 FILLER_30_122
*1857 FILLER_30_129
*1858 FILLER_30_136
*1859 FILLER_30_143
*1860 FILLER_30_150
*1861 FILLER_30_165
*1862 FILLER_30_167
*1863 FILLER_30_18
*1864 FILLER_30_204
*1865 FILLER_30_206
*1866 FILLER_30_223
*1867 FILLER_30_228
*1868 FILLER_30_235
*1869 FILLER_30_246
*1870 FILLER_30_25
*1871 FILLER_30_274
*1872 FILLER_30_284
*1873 FILLER_30_299
*1874 FILLER_30_32
*1875 FILLER_30_332
*1876 FILLER_30_339
*1877 FILLER_30_39
*1878 FILLER_30_4
*1879 FILLER_30_46
*1880 FILLER_30_53
*1881 FILLER_30_78
*1882 FILLER_30_85
*1883 FILLER_30_89
*1884 FILLER_30_99
*1885 FILLER_31_0
*1886 FILLER_31_106
*1887 FILLER_31_120
*1888 FILLER_31_127
*1889 FILLER_31_131
*1890 FILLER_31_14
*1891 FILLER_31_141
*1892 FILLER_31_148
*1893 FILLER_31_150
*1894 FILLER_31_180
*1895 FILLER_31_187
*1896 FILLER_31_194
*1897 FILLER_31_198
*1898 FILLER_31_21
*1899 FILLER_31_212
*1900 FILLER_31_214
*1901 FILLER_31_227
*1902 FILLER_31_234
*1903 FILLER_31_238
*1904 FILLER_31_26
*1905 FILLER_31_28
*1906 FILLER_31_291
*1907 FILLER_31_332
*1908 FILLER_31_339
*1909 FILLER_31_37
*1910 FILLER_31_44
*1911 FILLER_31_51
*1912 FILLER_31_7
*1913 FILLER_31_75
*1914 FILLER_31_82
*1915 FILLER_31_89
*1916 FILLER_32_0
*1917 FILLER_32_100
*1918 FILLER_32_11
*1919 FILLER_32_114
*1920 FILLER_32_121
*1921 FILLER_32_128
*1922 FILLER_32_132
*1923 FILLER_32_142
*1924 FILLER_32_149
*1925 FILLER_32_156
*1926 FILLER_32_167
*1927 FILLER_32_174
*1928 FILLER_32_180
*1929 FILLER_32_19
*1930 FILLER_32_209
*1931 FILLER_32_21
*1932 FILLER_32_221
*1933 FILLER_32_223
*1934 FILLER_32_228
*1935 FILLER_32_235
*1936 FILLER_32_26
*1937 FILLER_32_268
*1938 FILLER_32_28
*1939 FILLER_32_332
*1940 FILLER_32_339
*1941 FILLER_32_356
*1942 FILLER_32_358
*1943 FILLER_32_7
*1944 FILLER_33_100
*1945 FILLER_33_104
*1946 FILLER_33_110
*1947 FILLER_33_117
*1948 FILLER_33_124
*1949 FILLER_33_131
*1950 FILLER_33_146
*1951 FILLER_33_153
*1952 FILLER_33_160
*1953 FILLER_33_165
*1954 FILLER_33_167
*1955 FILLER_33_181
*1956 FILLER_33_19
*1957 FILLER_33_191
*1958 FILLER_33_225
*1959 FILLER_33_232
*1960 FILLER_33_236
*1961 FILLER_33_26
*1962 FILLER_33_267
*1963 FILLER_33_28
*1964 FILLER_33_302
*1965 FILLER_33_304
*1966 FILLER_33_332
*1967 FILLER_33_339
*1968 FILLER_33_4
*1969 FILLER_33_42
*1970 FILLER_33_49
*1971 FILLER_33_60
*1972 FILLER_33_62
*1973 FILLER_33_73
*1974 FILLER_33_79
*1975 FILLER_33_86
*1976 FILLER_33_93
*1977 FILLER_34_0
*1978 FILLER_34_103
*1979 FILLER_34_110
*1980 FILLER_34_123
*1981 FILLER_34_130
*1982 FILLER_34_132
*1983 FILLER_34_137
*1984 FILLER_34_144
*1985 FILLER_34_151
*1986 FILLER_34_153
*1987 FILLER_34_158
*1988 FILLER_34_177
*1989 FILLER_34_184
*1990 FILLER_34_19
*1991 FILLER_34_212
*1992 FILLER_34_228
*1993 FILLER_34_235
*1994 FILLER_34_257
*1995 FILLER_34_26
*1996 FILLER_34_263
*1997 FILLER_34_28
*1998 FILLER_34_332
*1999 FILLER_34_339
*2000 FILLER_34_35
*2001 FILLER_34_42
*2002 FILLER_34_49
*2003 FILLER_34_51
*2004 FILLER_34_62
*2005 FILLER_34_64
*2006 FILLER_34_7
*2007 FILLER_34_71
*2008 FILLER_34_89
*2009 FILLER_34_96
*2010 FILLER_35_0
*2011 FILLER_35_104
*2012 FILLER_35_111
*2013 FILLER_35_118
*2014 FILLER_35_125
*2015 FILLER_35_132
*2016 FILLER_35_139
*2017 FILLER_35_14
*2018 FILLER_35_141
*2019 FILLER_35_166
*2020 FILLER_35_21
*2021 FILLER_35_221
*2022 FILLER_35_228
*2023 FILLER_35_235
*2024 FILLER_35_247
*2025 FILLER_35_266
*2026 FILLER_35_268
*2027 FILLER_35_28
*2028 FILLER_35_33
*2029 FILLER_35_332
*2030 FILLER_35_339
*2031 FILLER_35_341
*2032 FILLER_35_35
*2033 FILLER_35_44
*2034 FILLER_35_51
*2035 FILLER_35_53
*2036 FILLER_35_7
*2037 FILLER_35_79
*2038 FILLER_36_11
*2039 FILLER_36_112
*2040 FILLER_36_114
*2041 FILLER_36_123
*2042 FILLER_36_130
*2043 FILLER_36_132
*2044 FILLER_36_144
*2045 FILLER_36_151
*2046 FILLER_36_18
*2047 FILLER_36_190
*2048 FILLER_36_227
*2049 FILLER_36_234
*2050 FILLER_36_236
*2051 FILLER_36_25
*2052 FILLER_36_288
*2053 FILLER_36_332
*2054 FILLER_36_339
*2055 FILLER_36_4
*2056 FILLER_36_54
*2057 FILLER_36_97
*2058 FILLER_37_0
*2059 FILLER_37_102
*2060 FILLER_37_109
*2061 FILLER_37_123
*2062 FILLER_37_130
*2063 FILLER_37_148
*2064 FILLER_37_155
*2065 FILLER_37_157
*2066 FILLER_37_19
*2067 FILLER_37_225
*2068 FILLER_37_232
*2069 FILLER_37_236
*2070 FILLER_37_26
*2071 FILLER_37_273
*2072 FILLER_37_28
*2073 FILLER_37_332
*2074 FILLER_37_334
*2075 FILLER_37_338
*2076 FILLER_37_340
*2077 FILLER_37_4
*2078 FILLER_37_68
*2079 FILLER_38_0
*2080 FILLER_38_105
*2081 FILLER_38_112
*2082 FILLER_38_116
*2083 FILLER_38_123
*2084 FILLER_38_130
*2085 FILLER_38_132
*2086 FILLER_38_137
*2087 FILLER_38_14
*2088 FILLER_38_144
*2089 FILLER_38_151
*2090 FILLER_38_153
*2091 FILLER_38_184
*2092 FILLER_38_21
*2093 FILLER_38_227
*2094 FILLER_38_234
*2095 FILLER_38_236
*2096 FILLER_38_26
*2097 FILLER_38_277
*2098 FILLER_38_30
*2099 FILLER_38_332
*2100 FILLER_38_339
*2101 FILLER_38_43
*2102 FILLER_38_45
*2103 FILLER_38_7
*2104 FILLER_38_77
*2105 FILLER_38_79
*2106 FILLER_38_84
*2107 FILLER_38_91
*2108 FILLER_38_98
*2109 FILLER_39_100
*2110 FILLER_39_107
*2111 FILLER_39_11
*2112 FILLER_39_114
*2113 FILLER_39_121
*2114 FILLER_39_128
*2115 FILLER_39_135
*2116 FILLER_39_142
*2117 FILLER_39_149
*2118 FILLER_39_18
*2119 FILLER_39_213
*2120 FILLER_39_228
*2121 FILLER_39_230
*2122 FILLER_39_234
*2123 FILLER_39_236
*2124 FILLER_39_246
*2125 FILLER_39_248
*2126 FILLER_39_25
*2127 FILLER_39_32
*2128 FILLER_39_321
*2129 FILLER_39_332
*2130 FILLER_39_339
*2131 FILLER_39_39
*2132 FILLER_39_4
*2133 FILLER_39_46
*2134 FILLER_39_50
*2135 FILLER_39_55
*2136 FILLER_39_62
*2137 FILLER_39_69
*2138 FILLER_39_73
*2139 FILLER_39_79
*2140 FILLER_39_86
*2141 FILLER_39_93
*2142 FILLER_3_0
*2143 FILLER_3_123
*2144 FILLER_3_130
*2145 FILLER_3_134
*2146 FILLER_3_175
*2147 FILLER_3_182
*2148 FILLER_3_184
*2149 FILLER_3_19
*2150 FILLER_3_204
*2151 FILLER_3_206
*2152 FILLER_3_21
*2153 FILLER_3_216
*2154 FILLER_3_228
*2155 FILLER_3_235
*2156 FILLER_3_251
*2157 FILLER_3_26
*2158 FILLER_3_28
*2159 FILLER_3_287
*2160 FILLER_3_331
*2161 FILLER_3_338
*2162 FILLER_3_340
*2163 FILLER_3_356
*2164 FILLER_3_358
*2165 FILLER_3_56
*2166 FILLER_3_64
*2167 FILLER_3_71
*2168 FILLER_3_78
*2169 FILLER_3_88
*2170 FILLER_3_95
*2171 FILLER_4_11
*2172 FILLER_4_123
*2173 FILLER_4_130
*2174 FILLER_4_132
*2175 FILLER_4_141
*2176 FILLER_4_143
*2177 FILLER_4_186
*2178 FILLER_4_19
*2179 FILLER_4_190
*2180 FILLER_4_228
*2181 FILLER_4_235
*2182 FILLER_4_26
*2183 FILLER_4_267
*2184 FILLER_4_283
*2185 FILLER_4_30
*2186 FILLER_4_302
*2187 FILLER_4_304
*2188 FILLER_4_332
*2189 FILLER_4_339
*2190 FILLER_4_4
*2191 FILLER_4_57
*2192 FILLER_4_73
*2193 FILLER_4_80
*2194 FILLER_4_87
*2195 FILLER_4_94
*2196 FILLER_4_98
*2197 FILLER_5_0
*2198 FILLER_5_123
*2199 FILLER_5_130
*2200 FILLER_5_132
*2201 FILLER_5_14
*2202 FILLER_5_142
*2203 FILLER_5_157
*2204 FILLER_5_159
*2205 FILLER_5_179
*2206 FILLER_5_189
*2207 FILLER_5_19
*2208 FILLER_5_191
*2209 FILLER_5_21
*2210 FILLER_5_210
*2211 FILLER_5_221
*2212 FILLER_5_223
*2213 FILLER_5_228
*2214 FILLER_5_235
*2215 FILLER_5_26
*2216 FILLER_5_273
*2217 FILLER_5_28
*2218 FILLER_5_312
*2219 FILLER_5_331
*2220 FILLER_5_338
*2221 FILLER_5_340
*2222 FILLER_5_56
*2223 FILLER_5_7
*2224 FILLER_5_84
*2225 FILLER_5_91
*2226 FILLER_5_98
*2227 FILLER_6_0
*2228 FILLER_6_109
*2229 FILLER_6_116
*2230 FILLER_6_123
*2231 FILLER_6_130
*2232 FILLER_6_134
*2233 FILLER_6_153
*2234 FILLER_6_169
*2235 FILLER_6_176
*2236 FILLER_6_188
*2237 FILLER_6_19
*2238 FILLER_6_204
*2239 FILLER_6_21
*2240 FILLER_6_214
*2241 FILLER_6_218
*2242 FILLER_6_228
*2243 FILLER_6_235
*2244 FILLER_6_26
*2245 FILLER_6_277
*2246 FILLER_6_28
*2247 FILLER_6_282
*2248 FILLER_6_284
*2249 FILLER_6_293
*2250 FILLER_6_309
*2251 FILLER_6_332
*2252 FILLER_6_339
*2253 FILLER_6_74
*2254 FILLER_6_81
*2255 FILLER_6_88
*2256 FILLER_6_95
*2257 FILLER_7_101
*2258 FILLER_7_11
*2259 FILLER_7_120
*2260 FILLER_7_127
*2261 FILLER_7_134
*2262 FILLER_7_136
*2263 FILLER_7_164
*2264 FILLER_7_171
*2265 FILLER_7_18
*2266 FILLER_7_215
*2267 FILLER_7_217
*2268 FILLER_7_228
*2269 FILLER_7_235
*2270 FILLER_7_26
*2271 FILLER_7_28
*2272 FILLER_7_289
*2273 FILLER_7_332
*2274 FILLER_7_339
*2275 FILLER_7_4
*2276 FILLER_7_42
*2277 FILLER_7_53
*2278 FILLER_7_60
*2279 FILLER_7_69
*2280 FILLER_7_76
*2281 FILLER_7_83
*2282 FILLER_7_90
*2283 FILLER_7_97
*2284 FILLER_8_0
*2285 FILLER_8_100
*2286 FILLER_8_106
*2287 FILLER_8_123
*2288 FILLER_8_130
*2289 FILLER_8_132
*2290 FILLER_8_137
*2291 FILLER_8_14
*2292 FILLER_8_149
*2293 FILLER_8_178
*2294 FILLER_8_185
*2295 FILLER_8_189
*2296 FILLER_8_21
*2297 FILLER_8_227
*2298 FILLER_8_234
*2299 FILLER_8_236
*2300 FILLER_8_241
*2301 FILLER_8_243
*2302 FILLER_8_26
*2303 FILLER_8_271
*2304 FILLER_8_28
*2305 FILLER_8_332
*2306 FILLER_8_339
*2307 FILLER_8_350
*2308 FILLER_8_41
*2309 FILLER_8_48
*2310 FILLER_8_52
*2311 FILLER_8_7
*2312 FILLER_8_80
*2313 FILLER_8_87
*2314 FILLER_8_96
*2315 FILLER_9_0
*2316 FILLER_9_106
*2317 FILLER_9_113
*2318 FILLER_9_120
*2319 FILLER_9_127
*2320 FILLER_9_131
*2321 FILLER_9_154
*2322 FILLER_9_156
*2323 FILLER_9_174
*2324 FILLER_9_181
*2325 FILLER_9_19
*2326 FILLER_9_21
*2327 FILLER_9_212
*2328 FILLER_9_219
*2329 FILLER_9_221
*2330 FILLER_9_226
*2331 FILLER_9_233
*2332 FILLER_9_237
*2333 FILLER_9_247
*2334 FILLER_9_26
*2335 FILLER_9_28
*2336 FILLER_9_289
*2337 FILLER_9_294
*2338 FILLER_9_332
*2339 FILLER_9_339
*2340 FILLER_9_345
*2341 FILLER_9_56
*2342 FILLER_9_63
*2343 FILLER_9_7
*2344 _0659_
*2345 _0660_
*2346 _0661_
*2347 _0662_
*2348 _0663_
*2349 _0664_
*2350 _0665_
*2351 _0666_
*2352 _0667_
*2353 _0668_
*2354 _0669_
*2355 _0670_
*2356 _0671_
*2357 _0672_
*2358 _0673_
*2359 _0674_
*2360 _0675_
*2361 _0676_
*2362 _0677_
*2363 _0678_
*2364 _0679_
*2365 _0680_
*2366 _0681_
*2367 _0682_
*2368 _0683_
*2369 _0684_
*2370 _0685_
*2371 _0686_
*2372 _0687_
*2373 _0688_
*2374 _0689_
*2375 _0690_
*2376 _0691_
*2377 _0692_
*2378 _0693_
*2379 _0694_
*2380 _0695_
*2381 _0696_
*2382 _0697_
*2383 _0698_
*2384 _0699_
*2385 _0700_
*2386 _0701_
*2387 _0702_
*2388 _0703_
*2389 _0704_
*2390 _0705_
*2391 _0706_
*2392 _0707_
*2393 _0708_
*2394 _0709_
*2395 _0710_
*2396 _0711_
*2397 _0712_
*2398 _0713_
*2399 _0714_
*2400 _0715_
*2401 _0716_
*2402 _0717_
*2403 _0718_
*2404 _0719_
*2405 _0720_
*2406 _0721_
*2407 _0722_
*2408 _0723_
*2409 _0724_
*2410 _0725_
*2411 _0726_
*2412 _0727_
*2413 _0728_
*2414 _0729_
*2415 _0730_
*2416 _0731_
*2417 _0732_
*2418 _0733_
*2419 _0734_
*2420 _0735_
*2421 _0736_
*2422 _0737_
*2423 _0738_
*2424 _0739_
*2425 _0740_
*2426 _0741_
*2427 _0742_
*2428 _0743_
*2429 _0744_
*2430 _0745_
*2431 _0746_
*2432 _0747_
*2433 _0748_
*2434 _0749_
*2435 _0750_
*2436 _0751_
*2437 _0752_
*2438 _0753_
*2439 _0754_
*2440 _0755_
*2441 _0756_
*2442 _0757_
*2443 _0758_
*2444 _0759_
*2445 _0760_
*2446 _0761_
*2447 _0762_
*2448 _0763_
*2449 _0764_
*2450 _0765_
*2451 _0766_
*2452 _0767_
*2453 _0768_
*2454 _0769_
*2455 _0770_
*2456 _0771_
*2457 _0772_
*2458 _0773_
*2459 _0774_
*2460 _0775_
*2461 _0776_
*2462 _0777_
*2463 _0778_
*2464 _0779_
*2465 _0780_
*2466 _0781_
*2467 _0782_
*2468 _0783_
*2469 _0784_
*2470 _0785_
*2471 _0786_
*2472 _0787_
*2473 _0788_
*2474 _0789_
*2475 _0790_
*2476 _0791_
*2477 _0792_
*2478 _0793_
*2479 _0794_
*2480 _0795_
*2481 _0796_
*2482 _0797_
*2483 _0798_
*2484 _0799_
*2485 _0800_
*2486 _0801_
*2487 _0802_
*2488 _0803_
*2489 _0804_
*2490 _0805_
*2491 _0806_
*2492 _0807_
*2493 _0808_
*2494 _0809_
*2495 _0810_
*2496 _0811_
*2497 _0812_
*2498 _0813_
*2499 _0814_
*2500 _0815_
*2501 _0816_
*2502 _0817_
*2503 _0818_
*2504 _0819_
*2505 _0820_
*2506 _0821_
*2507 _0822_
*2508 _0823_
*2509 _0824_
*2510 _0825_
*2511 _0826_
*2512 _0827_
*2513 _0828_
*2514 _0829_
*2515 _0830_
*2516 _0831_
*2517 _0832_
*2518 _0833_
*2519 _0834_
*2520 _0835_
*2521 _0836_
*2522 _0837_
*2523 _0838_
*2524 _0839_
*2525 _0840_
*2526 _0841_
*2527 _0842_
*2528 _0843_
*2529 _0844_
*2530 _0845_
*2531 _0846_
*2532 _0847_
*2533 _0848_
*2534 _0849_
*2535 _0850_
*2536 _0851_
*2537 _0852_
*2538 _0853_
*2539 _0854_
*2540 _0855_
*2541 _0856_
*2542 _0857_
*2543 _0858_
*2544 _0859_
*2545 _0860_
*2546 _0861_
*2547 _0862_
*2548 _0863_
*2549 _0864_
*2550 _0865_
*2551 _0866_
*2552 _0867_
*2553 _0868_
*2554 _0869_
*2555 _0870_
*2556 _0871_
*2557 _0872_
*2558 _0873_
*2559 _0874_
*2560 _0875_
*2561 _0876_
*2562 _0877_
*2563 _0878_
*2564 _0879_
*2565 _0880_
*2566 _0881_
*2567 _0882_
*2568 _0883_
*2569 _0884_
*2570 _0885_
*2571 _0886_
*2572 _0887_
*2573 _0888_
*2574 _0889_
*2575 _0890_
*2576 _0891_
*2577 _0892_
*2578 _0893_
*2579 _0894_
*2580 _0895_
*2581 _0896_
*2582 _0897_
*2583 _0898_
*2584 _0899_
*2585 _0900_
*2586 _0901_
*2587 _0902_
*2588 _0903_
*2589 _0904_
*2590 _0905_
*2591 _0906_
*2592 _0907_
*2593 _0908_
*2594 _0909_
*2595 _0910_
*2596 _0911_
*2597 _0912_
*2598 _0913_
*2599 _0914_
*2600 _0915_
*2601 _0916_
*2602 _0917_
*2603 _0918_
*2604 _0919_
*2605 _0920_
*2606 _0921_
*2607 _0922_
*2608 _0923_
*2609 _0924_
*2610 _0925_
*2611 _0926_
*2612 _0927_
*2613 _0928_
*2614 _0929_
*2615 _0930_
*2616 _0931_
*2617 _0932_
*2618 _0933_
*2619 _0934_
*2620 _0935_
*2621 _0936_
*2622 _0937_
*2623 _0938_
*2624 _0939_
*2625 _0940_
*2626 _0941_
*2627 _0942_
*2628 _0943_
*2629 _0944_
*2630 _0945_
*2631 _0946_
*2632 _0947_
*2633 _0948_
*2634 _0949_
*2635 _0950_
*2636 _0951_
*2637 _0952_
*2638 _0953_
*2639 _0954_
*2640 _0955_
*2641 _0956_
*2642 _0957_
*2643 _0958_
*2644 _0959_
*2645 _0960_
*2646 _0961_
*2647 _0962_
*2648 _0963_
*2649 _0964_
*2650 _0965_
*2651 _0966_
*2652 _0967_
*2653 _0968_
*2654 _0969_
*2655 _0970_
*2656 _0971_
*2657 _0972_
*2658 _0973_
*2659 _0974_
*2660 _0975_
*2661 _0976_
*2662 _0977_
*2663 _0978_
*2664 _0979_
*2665 _0980_
*2666 _0981_
*2667 _0982_
*2668 _0983_
*2669 _0984_
*2670 _0985_
*2671 _0986_
*2672 _0987_
*2673 _0988_
*2674 _0989_
*2675 _0990_
*2676 _0991_
*2677 _0992_
*2678 _0993_
*2679 _0994_
*2680 _0995_
*2681 _0996_
*2682 _0997_
*2683 _0998_
*2684 _0999_
*2685 _1000_
*2686 _1001_
*2687 _1002_
*2688 _1003_
*2689 _1004_
*2690 _1005_
*2691 _1006_
*2692 _1007_
*2693 _1008_
*2694 _1009_
*2695 _1010_
*2696 _1011_
*2697 _1012_
*2698 _1013_
*2699 _1014_
*2700 _1015_
*2701 _1016_
*2702 _1017_
*2703 _1018_
*2704 _1019_
*2705 _1020_
*2706 _1021_
*2707 _1022_
*2708 _1023_
*2709 _1024_
*2710 _1025_
*2711 _1026_
*2712 _1027_
*2713 _1028_
*2714 _1029_
*2715 _1030_
*2716 _1031_
*2717 _1032_
*2718 _1033_
*2719 _1034_
*2720 _1035_
*2721 _1036_
*2722 _1037_
*2723 _1038_
*2724 _1039_
*2725 _1040_
*2726 _1041_
*2727 _1042_
*2728 _1043_
*2729 _1044_
*2730 _1045_
*2731 _1046_
*2732 _1047_
*2733 _1048_
*2734 _1049_
*2735 _1050_
*2736 _1051_
*2737 _1052_
*2738 _1053_
*2739 _1054_
*2740 _1055_
*2741 _1056_
*2742 _1057_
*2743 _1058_
*2744 _1059_
*2745 _1060_
*2746 _1061_
*2747 _1062_
*2748 _1063_
*2749 _1064_
*2750 _1065_
*2751 _1066_
*2752 _1067_
*2753 _1068_
*2754 _1069_
*2755 _1070_
*2756 _1071_
*2757 _1072_
*2758 _1073_
*2759 _1074_
*2760 _1075_
*2761 _1076_
*2762 _1077_
*2763 _1078_
*2764 _1079_
*2765 _1080_
*2766 _1081_
*2767 _1082_
*2768 _1083_
*2769 _1084_
*2770 _1085_
*2771 _1086_
*2772 _1087_
*2773 _1088_
*2774 _1089_
*2775 _1090_
*2776 _1091_
*2777 _1092_
*2778 _1093_
*2779 _1094_
*2780 _1095_
*2781 _1096_
*2782 _1097_
*2783 _1098_
*2784 _1099_
*2785 _1100_
*2786 _1101_
*2787 _1102_
*2788 _1103_
*2789 _1104_
*2790 _1105_
*2791 _1106_
*2792 _1107_
*2793 _1108_
*2794 _1109_
*2795 _1110_
*2796 _1111_
*2797 _1112_
*2798 _1113_
*2799 _1114_
*2800 _1115_
*2801 _1116_
*2802 _1117_
*2803 _1118_
*2804 _1119_
*2805 _1120_
*2806 _1121_
*2807 _1122_
*2808 _1123_
*2809 _1124_
*2810 _1125_
*2811 _1126_
*2812 _1127_
*2813 _1128_
*2814 _1129_
*2815 _1130_
*2816 _1131_
*2817 _1132_
*2818 _1133_
*2819 _1134_
*2820 _1135_
*2821 _1136_
*2822 _1137_
*2823 _1138_
*2824 _1139_
*2825 _1140_
*2826 _1141_
*2827 _1142_
*2828 _1143_
*2829 _1144_
*2830 _1145_
*2831 _1146_
*2832 _1147_
*2833 _1148_
*2834 _1149_
*2835 _1150_
*2836 _1151_
*2837 _1152_
*2838 _1153_
*2839 _1154_
*2840 _1155_
*2841 _1156_
*2842 _1157_
*2843 _1158_
*2844 _1159_
*2845 _1160_
*2846 _1161_
*2847 _1162_
*2848 _1163_
*2849 _1164_
*2850 _1165_
*2851 _1166_
*2852 _1167_
*2853 _1168_
*2854 _1169_
*2855 _1170_
*2856 _1171_
*2857 _1172_
*2858 _1173_
*2859 _1174_
*2860 _1175_
*2861 _1176_
*2862 _1177_
*2863 _1178_
*2864 _1179_
*2865 _1180_
*2866 _1181_
*2867 _1182_
*2868 _1183_
*2869 _1184_
*2870 _1185_
*2871 _1186_
*2872 _1187_
*2873 _1188_
*2874 _1189_
*2875 _1190_
*2876 _1191_
*2877 _1192_
*2878 _1193_
*2879 _1194_
*2880 _1195_
*2881 _1196_
*2882 _1197_
*2883 _1198_
*2884 _1199_
*2885 _1200_
*2886 _1201_
*2887 _1202_
*2888 _1203_
*2889 _1204_
*2890 _1205_
*2891 _1206_
*2892 _1207_
*2893 _1208_
*2894 _1209_
*2895 _1210_
*2896 _1211_
*2897 _1212_
*2898 _1213_
*2899 _1214_
*2900 _1215_
*2901 _1216_
*2902 _1217_
*2903 _1218_
*2904 _1219_
*2905 _1220_
*2906 _1221_
*2907 _1222_
*2908 _1223_
*2909 _1224_
*2910 _1225_
*2911 _1226_
*2912 _1227_
*2913 _1228_
*2914 _1229_
*2915 _1230_
*2916 _1231_
*2917 _1232_
*2918 _1233_
*2919 _1234_
*2920 _1235_
*2921 _1236_
*2922 _1236__227
*2923 _1237_
*2924 _1237__225
*2925 _1238_
*2926 _1238__223
*2927 _1239_
*2928 _1239__221
*2929 _1240_
*2930 _1240__219
*2931 _1241_
*2932 _1241__217
*2933 _1242_
*2934 _1242__215
*2935 _1243_
*2936 _1243__213
*2937 _1244_
*2938 _1244__211
*2939 _1245_
*2940 _1245__209
*2941 _1246_
*2942 _1246__207
*2943 _1247_
*2944 _1247__205
*2945 _1248_
*2946 _1248__203
*2947 _1249_
*2948 _1249__201
*2949 _1250_
*2950 _1250__199
*2951 _1251_
*2952 _1251__197
*2953 _1252_
*2954 _1252__195
*2955 _1253_
*2956 _1253__193
*2957 _1254_
*2958 _1254__191
*2959 _1255_
*2960 _1255__189
*2961 _1256_
*2962 _1256__187
*2963 _1257_
*2964 _1257__185
*2965 _1258_
*2966 _1258__183
*2967 _1259_
*2968 _1259__181
*2969 _1260_
*2970 _1260__179
*2971 _1261_
*2972 _1261__177
*2973 _1262_
*2974 _1262__175
*2975 _1263_
*2976 _1263__173
*2977 _1264_
*2978 _1264__171
*2979 _1265_
*2980 _1265__169
*2981 _1266_
*2982 _1266__167
*2983 _1267_
*2984 _1267__165
*2985 _1268_
*2986 _1268__163
*2987 _1269_
*2988 _1269__161
*2989 _1270_
*2990 _1270__159
*2991 _1271_
*2992 _1271__157
*2993 _1272_
*2994 _1272__155
*2995 _1273_
*2996 _1273__153
*2997 _1274_
*2998 _1274__151
*2999 _1275_
*3000 _1275__149
*3001 _1276_
*3002 _1276__147
*3003 _1277_
*3004 _1277__145
*3005 _1278_
*3006 _1278__143
*3007 _1279_
*3008 _1279__141
*3009 _1280_
*3010 _1280__139
*3011 _1281_
*3012 _1281__137
*3013 _1282_
*3014 _1282__135
*3015 _1283_
*3016 _1283__133
*3017 _1284_
*3018 _1284__131
*3019 _1285_
*3020 _1285__129
*3021 _1286_
*3022 _1286__127
*3023 _1287_
*3024 _1287__125
*3025 _1288_
*3026 _1288__123
*3027 _1289_
*3028 _1289__121
*3029 _1290_
*3030 _1290__119
*3031 _1291_
*3032 _1291__117
*3033 _1292_
*3034 _1292__115
*3035 _1293_
*3036 _1293__113
*3037 _1294_
*3038 _1294__232
*3039 _1295_
*3040 _1295__226
*3041 _1296_
*3042 _1296__222
*3043 _1297_
*3044 _1297__218
*3045 _1298_
*3046 _1298__214
*3047 _1299_
*3048 _1299__210
*3049 _1300_
*3050 _1300__206
*3051 _1301_
*3052 _1301__202
*3053 _1302_
*3054 _1302__198
*3055 _1303_
*3056 _1303__194
*3057 _1304_
*3058 _1304__190
*3059 _1305_
*3060 _1305__186
*3061 _1306_
*3062 _1306__182
*3063 _1307_
*3064 _1307__178
*3065 _1308_
*3066 _1308__174
*3067 _1309_
*3068 _1309__170
*3069 _1310_
*3070 _1310__166
*3071 _1311_
*3072 _1311__162
*3073 _1312_
*3074 _1312__158
*3075 _1313_
*3076 _1313__154
*3077 _1314_
*3078 _1314__150
*3079 _1315_
*3080 _1315__146
*3081 _1316_
*3082 _1316__142
*3083 _1317_
*3084 _1317__138
*3085 _1318_
*3086 _1318__134
*3087 _1319_
*3088 _1319__130
*3089 _1320_
*3090 _1320__126
*3091 _1321_
*3092 _1321__122
*3093 _1322_
*3094 _1322__118
*3095 _1323_
*3096 _1323__114
*3097 _1324_
*3098 _1324__231
*3099 _1325_
*3100 _1325__220
*3101 _1326_
*3102 _1326__212
*3103 _1327_
*3104 _1327__204
*3105 _1328_
*3106 _1328__196
*3107 _1329_
*3108 _1329__188
*3109 _1330_
*3110 _1330__180
*3111 _1331_
*3112 _1331__172
*3113 _1332_
*3114 _1332__164
*3115 _1333_
*3116 _1333__156
*3117 _1334_
*3118 _1334__148
*3119 _1335_
*3120 _1335__140
*3121 _1336_
*3122 _1336__132
*3123 _1337_
*3124 _1337__124
*3125 _1338_
*3126 _1338__116
*3127 _1339_
*3128 _1339__224
*3129 _1340_
*3130 _1340__208
*3131 _1341_
*3132 _1341__192
*3133 _1342_
*3134 _1342__176
*3135 _1343_
*3136 _1343__160
*3137 _1344_
*3138 _1344__144
*3139 _1345_
*3140 _1345__128
*3141 _1346_
*3142 _1346__233
*3143 _1347_
*3144 _1347__200
*3145 _1348_
*3146 _1348__168
*3147 _1349_
*3148 _1349__136
*3149 _1350_
*3150 _1350__216
*3151 _1351_
*3152 _1351__152
*3153 _1352_
*3154 _1352__120
*3155 _1353_
*3156 _1353__184
*3157 _1354_
*3158 _1354__230
*3159 _1355_
*3160 _1355__229
*3161 _1356_
*3162 _1356__228
*3163 _1478_
*3164 _1479_
*3165 _1480_
*3166 _1481_
*3167 _1482_
*3168 _1483_
*3169 clkbuf_0_clk_i
*3170 clkbuf_4_0_0_clk_i
*3171 clkbuf_4_10_0_clk_i
*3172 clkbuf_4_11_0_clk_i
*3173 clkbuf_4_12_0_clk_i
*3174 clkbuf_4_13_0_clk_i
*3175 clkbuf_4_14_0_clk_i
*3176 clkbuf_4_15_0_clk_i
*3177 clkbuf_4_1_0_clk_i
*3178 clkbuf_4_2_0_clk_i
*3179 clkbuf_4_3_0_clk_i
*3180 clkbuf_4_4_0_clk_i
*3181 clkbuf_4_5_0_clk_i
*3182 clkbuf_4_6_0_clk_i
*3183 clkbuf_4_7_0_clk_i
*3184 clkbuf_4_8_0_clk_i
*3185 clkbuf_4_9_0_clk_i
*3186 clkbuf_5_0__f_clk_i
*3187 clkbuf_5_10__f_clk_i
*3188 clkbuf_5_11__f_clk_i
*3189 clkbuf_5_12__f_clk_i
*3190 clkbuf_5_13__f_clk_i
*3191 clkbuf_5_14__f_clk_i
*3192 clkbuf_5_15__f_clk_i
*3193 clkbuf_5_16__f_clk_i
*3194 clkbuf_5_17__f_clk_i
*3195 clkbuf_5_18__f_clk_i
*3196 clkbuf_5_19__f_clk_i
*3197 clkbuf_5_1__f_clk_i
*3198 clkbuf_5_20__f_clk_i
*3199 clkbuf_5_21__f_clk_i
*3200 clkbuf_5_22__f_clk_i
*3201 clkbuf_5_23__f_clk_i
*3202 clkbuf_5_24__f_clk_i
*3203 clkbuf_5_25__f_clk_i
*3204 clkbuf_5_26__f_clk_i
*3205 clkbuf_5_27__f_clk_i
*3206 clkbuf_5_28__f_clk_i
*3207 clkbuf_5_29__f_clk_i
*3208 clkbuf_5_2__f_clk_i
*3209 clkbuf_5_30__f_clk_i
*3210 clkbuf_5_31__f_clk_i
*3211 clkbuf_5_3__f_clk_i
*3212 clkbuf_5_4__f_clk_i
*3213 clkbuf_5_5__f_clk_i
*3214 clkbuf_5_6__f_clk_i
*3215 clkbuf_5_7__f_clk_i
*3216 clkbuf_5_8__f_clk_i
*3217 clkbuf_5_9__f_clk_i
*3218 clkload0
*3219 clkload1
*3220 clkload2
*3221 clkload3
*3222 clkload4
*3223 clkload5
*3224 clkload6
*3225 fanout100
*3226 fanout101
*3227 fanout102
*3228 fanout103
*3229 fanout104
*3230 fanout105
*3231 fanout106
*3232 fanout107
*3233 fanout108
*3234 fanout109
*3235 fanout110
*3236 fanout111
*3237 fanout112
*3238 fanout59
*3239 fanout60
*3240 fanout61
*3241 fanout62
*3242 fanout63
*3243 fanout64
*3244 fanout65
*3245 fanout66
*3246 fanout67
*3247 fanout68
*3248 fanout69
*3249 fanout70
*3250 fanout71
*3251 fanout72
*3252 fanout73
*3253 fanout74
*3254 fanout75
*3255 fanout76
*3256 fanout77
*3257 fanout78
*3258 fanout79
*3259 fanout80
*3260 fanout81
*3261 fanout82
*3262 fanout83
*3263 fanout84
*3264 fanout85
*3265 fanout86
*3266 fanout87
*3267 fanout88
*3268 fanout89
*3269 fanout90
*3270 fanout91
*3271 fanout92
*3272 fanout93
*3273 fanout94
*3274 fanout95
*3275 fanout96
*3276 fanout97
*3277 fanout98
*3278 fanout99
*3279 hold234
*3280 hold235
*3281 hold236
*3282 hold237
*3283 hold238
*3284 hold239
*3285 hold240
*3286 hold241
*3287 hold242
*3288 hold243
*3289 hold244
*3290 hold245
*3291 hold246
*3292 hold247
*3293 hold248
*3294 hold249
*3295 hold250
*3296 hold251
*3297 hold252
*3298 hold253
*3299 hold254
*3300 hold255
*3301 hold256
*3302 hold257
*3303 hold258
*3304 hold259
*3305 hold260
*3306 hold261
*3307 hold262
*3308 hold263
*3309 hold264
*3310 hold265
*3311 hold266
*3312 hold267
*3313 hold268
*3314 hold269
*3315 hold270
*3316 hold271
*3317 hold272
*3318 hold273
*3319 hold274
*3320 hold275
*3321 hold276
*3322 hold277
*3323 hold278
*3324 hold279
*3325 hold280
*3326 hold281
*3327 hold282
*3328 hold283
*3329 hold284
*3330 hold285
*3331 hold286
*3332 hold287
*3333 hold288
*3334 hold289
*3335 hold290
*3336 hold291
*3337 hold292
*3338 hold293
*3339 hold294
*3340 hold295
*3341 hold296
*3342 hold297
*3343 hold298
*3344 hold299
*3345 hold300
*3346 hold301
*3347 hold302
*3348 hold303
*3349 hold304
*3350 hold305
*3351 hold306
*3352 hold307
*3353 hold308
*3354 hold309
*3355 hold310
*3356 hold311
*3357 hold312
*3358 hold313
*3359 hold314
*3360 hold315
*3361 hold316
*3362 hold317
*3363 hold318
*3364 hold319
*3365 hold320
*3366 hold321
*3367 hold322
*3368 hold323
*3369 hold324
*3370 hold325
*3371 hold326
*3372 hold327
*3373 hold328
*3374 hold329
*3375 hold330
*3376 hold331
*3377 hold332
*3378 hold333
*3379 hold334
*3380 hold335
*3381 hold336
*3382 hold337
*3383 hold338
*3384 hold339
*3385 hold340
*3386 hold341
*3387 hold342
*3388 hold343
*3389 hold344
*3390 hold345
*3391 hold346
*3392 hold347
*3393 hold348
*3394 hold349
*3395 hold350
*3396 hold351
*3397 hold352
*3398 hold353
*3399 hold354
*3400 hold355
*3401 hold356
*3402 hold357
*3403 hold358
*3404 hold359
*3405 hold360
*3406 hold361
*3407 hold362
*3408 hold363
*3409 hold364
*3410 hold365
*3411 hold366
*3412 hold367
*3413 hold368
*3414 hold369
*3415 hold370
*3416 hold371
*3417 hold372
*3418 hold373
*3419 hold374
*3420 hold375
*3421 hold376
*3422 hold377
*3423 hold378
*3424 hold379
*3425 hold380
*3426 hold381
*3427 hold382
*3428 hold383
*3429 hold384
*3430 hold385
*3431 hold386
*3432 hold387
*3433 hold388
*3434 hold389
*3435 hold390
*3436 hold391
*3437 hold392
*3438 hold393
*3439 hold394
*3440 input1
*3441 input10
*3442 input11
*3443 input12
*3444 input13
*3445 input2
*3446 input3
*3447 input4
*3448 input5
*3449 input6
*3450 input7
*3451 input8
*3452 input9
*3453 output14
*3454 output15
*3455 output16
*3456 output17
*3457 output18
*3458 output19
*3459 output20
*3460 output21
*3461 output22
*3462 output23
*3463 output24
*3464 output25
*3465 output26
*3466 output27
*3467 output28
*3468 output29
*3469 output30
*3470 output31
*3471 output32
*3472 output33
*3473 output34
*3474 output35
*3475 output36
*3476 output37
*3477 output38
*3478 output39
*3479 output40
*3480 output41
*3481 output42
*3482 output43
*3483 output44
*3484 output45
*3485 output46
*3486 output47
*3487 output48
*3488 output49
*3489 output50
*3490 output51
*3491 output52
*3492 output53
*3493 output54
*3494 output55
*3495 output56
*3496 output57
*3497 output58

*PORTS
adr_i[0] I
adr_i[1] I
clk_i I
config_o[0] O
config_o[10] O
config_o[11] O
config_o[12] O
config_o[13] O
config_o[14] O
config_o[15] O
config_o[16] O
config_o[17] O
config_o[18] O
config_o[19] O
config_o[1] O
config_o[20] O
config_o[21] O
config_o[22] O
config_o[23] O
config_o[24] O
config_o[25] O
config_o[26] O
config_o[27] O
config_o[28] O
config_o[29] O
config_o[2] O
config_o[30] O
config_o[31] O
config_o[3] O
config_o[4] O
config_o[5] O
config_o[6] O
config_o[7] O
config_o[8] O
config_o[9] O
din_i[0] I
din_i[1] I
din_i[2] I
din_i[3] I
din_i[4] I
din_i[5] I
din_i[6] I
din_i[7] I
en_i I
en_load_o[0] O
en_load_o[1] O
en_load_o[2] O
en_ros_o[0] O
en_ros_o[1] O
en_ros_o[2] O
en_ros_o[3] O
rst_in I
sel_load_src_o[0] O
sel_load_src_o[1] O
sel_load_src_o[2] O
sel_load_src_o[3] O
sel_load_src_o[4] O
sel_load_src_o[5] O
we_i I

*D_NET *3 0.000711456
*CONN
*P adr_i[0] I
*I *3440:A I *D sg13cmos5l_buf_1
*CAP
1 adr_i[0] 0.000243189
2 *3440:A 0.000243189
3 *3440:A *1103:20 0
4 *3440:A *1125:8 0.000112328
5 *3440:A *1147:16 0.000112749
*RES
1 adr_i[0] *3440:A 42.9252 
*END

*D_NET *4 0.000897764
*CONN
*P adr_i[1] I
*I *3445:A I *D sg13cmos5l_buf_1
*CAP
1 adr_i[1] 0.000327657
2 *3445:A 0
3 *4:13 0.000327657
4 *4:13 *1103:12 0.000242451
*RES
1 adr_i[1] *4:13 43.8934 
2 *4:13 *3445:A 40 
*END

*D_NET *5 0.018621
*CONN
*P clk_i I
*I *3169:A I *D sg13cmos5l_buf_8
*CAP
1 clk_i 0.00500618
2 *3169:A 0.00011711
3 *5:30 0.00128974
4 *5:28 0.00210183
5 *5:18 0.00297456
6 *5:6 0.00705154
7 *3169:A *766:43 0
8 *3169:A *1129:22 0
9 *3169:A *1129:50 8.00842e-05
10 *5:6 *2389:A1 0
11 *5:6 *2391:B_N 0
12 *5:6 *2412:B 0
13 *5:6 *2632:A 0
14 *5:6 *2916:A 0
15 *5:6 *3153:RESET_B 0
16 *5:6 *3155:D 0
17 *5:6 *3330:A 0
18 *5:6 *146:8 0
19 *5:6 *188:8 0
20 *5:6 *190:10 0
21 *5:6 *194:16 0
22 *5:6 *210:65 0
23 *5:6 *331:36 0
24 *5:6 *718:12 0
25 *5:6 *730:12 0
26 *5:6 *820:10 0
27 *5:6 *1159:12 0
28 *5:6 *1159:19 0
29 *5:6 *1160:14 0
30 *5:6 *1160:38 0
31 *5:18 *2609:A0 0
32 *5:18 *2609:A1 0
33 *5:18 *2609:S 0
34 *5:18 *3211:A 0
35 *5:18 *3214:A 0
36 *5:18 *3237:A 0
37 *5:18 *3406:A 0
38 *5:18 *3414:A 0
39 *5:18 *706:8 0
40 *5:18 *743:8 0
41 *5:18 *766:63 0
42 *5:18 *788:32 0
43 *5:18 *1147:46 0
44 *5:18 *1157:18 0
45 *5:18 *1157:31 0
46 *5:28 *2528:B 0
47 *5:28 *3214:A 0
48 *5:28 *709:8 0
49 *5:28 *741:18 0
50 *5:28 *763:12 0
51 *5:28 *801:10 0
52 *5:28 *1129:22 0
53 *5:30 *3141:CLK 0
54 *5:30 *3215:A 0
55 *5:30 *664:19 0
56 *5:30 *741:18 0
57 *5:30 *766:43 0
58 *5:30 *766:55 0
59 *5:30 *1129:22 0
*RES
1 clk_i *5:6 47.1637 
2 *5:6 *5:18 40.0176 
3 *5:18 *5:28 47.9104 
4 *5:28 *5:30 10.4854 
5 *5:30 *3169:A 21.3184 
*END

*D_NET *6 0.00201324
*CONN
*P config_o[0] O
*I *3453:X O *D sg13cmos5l_buf_1
*CAP
1 config_o[0] 0.000917923
2 *3453:X 0.000917923
3 config_o[0] config_o[1] 0
4 config_o[0] config_o[2] 0
5 config_o[0] sel_load_src_o[4] 0
6 config_o[0] sel_load_src_o[5] 0
7 config_o[0] *3475:A 0
8 config_o[0] *31:10 0
9 config_o[0] *58:12 0.000177399
10 config_o[0] *810:16 0
*RES
1 *3453:X config_o[0] 48.652 
*END

*D_NET *7 0.000709139
*CONN
*P config_o[10] O
*I *3454:X O *D sg13cmos5l_buf_1
*CAP
1 config_o[10] 0.000242339
2 *3454:X 0.000242339
3 config_o[10] config_o[11] 0
4 config_o[10] config_o[9] 0
5 config_o[10] *265:16 0.000111946
6 config_o[10] *266:18 0.000112514
*RES
1 *3454:X config_o[10] 42.9252 
*END

*D_NET *8 0.00080324
*CONN
*P config_o[11] O
*I *3455:X O *D sg13cmos5l_buf_1
*CAP
1 config_o[11] 0.000256733
2 *3455:X 0.000256733
3 config_o[11] config_o[12] 0
4 config_o[11] *265:16 0.000144833
5 config_o[11] *266:18 0.000144942
6 config_o[10] config_o[11] 0
*RES
1 *3455:X config_o[11] 43.1415 
*END

*D_NET *9 0.00162005
*CONN
*P config_o[12] O
*I *3456:X O *D sg13cmos5l_buf_1
*CAP
1 config_o[12] 0.000462996
2 *3456:X 0.000462996
3 config_o[12] config_o[13] 0
4 config_o[12] *2514:C 0.000177273
5 config_o[12] *265:16 0.000468929
6 config_o[12] *266:18 4.78521e-05
7 config_o[12] *283:22 0
8 config_o[11] config_o[12] 0
*RES
1 *3456:X config_o[12] 45.3045 
*END

*D_NET *10 0.00104105
*CONN
*P config_o[13] O
*I *3457:X O *D sg13cmos5l_buf_1
*CAP
1 config_o[13] 0.000448746
2 *3457:X 0.000448746
3 config_o[13] config_o[14] 0
4 config_o[13] *283:22 1.54008e-05
5 config_o[13] *284:8 0.00012816
6 config_o[13] *610:48 0
7 config_o[13] *793:12 0
8 config_o[12] config_o[13] 0
*RES
1 *3457:X config_o[13] 44.9852 
*END

*D_NET *11 0.000857624
*CONN
*P config_o[14] O
*I *3458:X O *D sg13cmos5l_buf_1
*CAP
1 config_o[14] 0.000300676
2 *3458:X 0.000300676
3 config_o[14] config_o[15] 0
4 config_o[14] *2373:S 0
5 config_o[14] *2513:B 4.78192e-05
6 config_o[14] *283:22 8.02924e-05
7 config_o[14] *843:12 0.00012816
8 config_o[14] *919:14 0
9 config_o[13] config_o[14] 0
*RES
1 *3458:X config_o[14] 43.6977 
*END

*D_NET *12 0.00559594
*CONN
*P config_o[15] O
*I *3459:X O *D sg13cmos5l_buf_1
*CAP
1 config_o[15] 1.66622e-05
2 *3459:X 0.0003332
3 *12:14 0.00135416
4 *12:10 0.0016707
5 *12:10 *2490:A 0
6 *12:10 *14:12 0
7 *12:10 *910:22 0
8 *12:14 *2487:B 0
9 *12:14 *13:12 0.00222121
10 config_o[14] config_o[15] 0
*RES
1 *3459:X *12:10 43.0488 
2 *12:10 *12:14 36.5418 
3 *12:14 config_o[15] 20.1957 
*END

*D_NET *13 0.00668935
*CONN
*P config_o[16] O
*I *3460:X O *D sg13cmos5l_buf_1
*CAP
1 config_o[16] 4.18561e-05
2 *3460:X 0.000121787
3 *13:12 0.00171309
4 *13:8 0.00179303
5 *13:8 config_o[26] 0.000393821
6 *13:8 config_o[27] 0
7 *13:12 config_o[20] 0
8 *13:12 config_o[21] 0.000404554
9 *13:12 *2487:B 0
10 *13:12 *15:16 0
11 *13:12 *778:14 0
12 *13:12 *778:31 0
13 *12:14 *13:12 0.00222121
*RES
1 *3460:X *13:8 41.8334 
2 *13:8 *13:12 37.6233 
3 *13:12 config_o[16] 20.4429 
*END

*D_NET *14 0.00600658
*CONN
*P config_o[17] O
*I *3461:X O *D sg13cmos5l_buf_1
*CAP
1 config_o[17] 0.00011249
2 *3461:X 0.00189509
3 *14:12 0.00200758
4 config_o[17] config_o[18] 0
5 config_o[17] *18:24 0.000128663
6 *14:12 config_o[20] 0
7 *14:12 *2487:B 0.000145042
8 *14:12 *2490:A 0
9 *14:12 *3235:A 0
10 *14:12 *3291:A 0
11 *14:12 *3350:A 0
12 *14:12 *3459:A 0
13 *14:12 *15:16 0.00171772
14 *14:12 *910:22 0
15 *14:12 *1127:106 0
16 *14:12 *1127:116 0
17 *12:10 *14:12 0
*RES
1 *3461:X *14:12 38.8902 
2 *14:12 config_o[17] 21.4317 
*END

*D_NET *15 0.00821232
*CONN
*P config_o[18] O
*I *3462:X O *D sg13cmos5l_buf_1
*CAP
1 config_o[18] 0.000110108
2 *3462:X 0.00202065
3 *15:16 0.00213076
4 *15:16 config_o[20] 0.000534523
5 *15:16 *2589:B 0
6 *15:16 *778:14 0.000663945
7 *15:16 *778:31 0.000616
8 *15:16 *778:79 0.000370859
9 *15:16 *866:10 4.77537e-05
10 *15:16 *910:22 0
11 config_o[17] config_o[18] 0
12 *13:12 *15:16 0
13 *14:12 *15:16 0.00171772
*RES
1 *3462:X *15:16 42.0008 
2 *15:16 config_o[18] 21.1845 
*END

*D_NET *16 0.0106528
*CONN
*P config_o[19] O
*I *3463:X O *D sg13cmos5l_buf_1
*CAP
1 config_o[19] 0.001174
2 *3463:X 0.000690565
3 *16:26 0.00322584
4 *16:20 0.00274241
5 config_o[19] *2364:A1 0
6 config_o[19] *609:39 0.00108481
7 config_o[19] *778:10 0
8 config_o[19] *779:46 0
9 *16:20 *2509:A 0
10 *16:20 *2509:B 4.78195e-05
11 *16:20 *3203:A 0
12 *16:20 *78:10 0
13 *16:20 *251:30 0.000111121
14 *16:20 *263:43 0
15 *16:20 *281:16 0.000144833
16 *16:20 *609:28 8.03692e-05
17 *16:20 *664:152 0
18 *16:20 *854:14 0
19 *16:20 *912:14 0.000660227
20 *16:26 *2370:A1 0.000111749
21 *16:26 *3203:A 0
22 *16:26 *3205:A 0
23 *16:26 *3310:A 8.02598e-05
24 *16:26 *3367:A 0.000498818
25 *16:26 *259:10 0
26 *16:26 *664:152 0
27 *16:26 *664:293 0
28 *16:26 *779:27 0
29 *16:26 *843:12 0
30 *16:26 *854:14 0
31 *16:26 *905:28 0
32 *16:26 *1021:8 0
*RES
1 *3463:X *16:20 47.9516 
2 *16:20 *16:26 38.2207 
3 *16:26 config_o[19] 31.4639 
*END

*D_NET *17 0.0028454
*CONN
*P config_o[1] O
*I *3464:X O *D sg13cmos5l_buf_1
*CAP
1 config_o[1] 0.000890842
2 *3464:X 0.000890842
3 config_o[1] config_o[2] 0
4 config_o[1] sel_load_src_o[4] 0.000112535
5 config_o[1] sel_load_src_o[5] 0
6 config_o[1] *2345:B 0.000145052
7 config_o[1] *2554:B 0
8 config_o[1] *3475:A 0.000112552
9 config_o[1] *3480:A 8.0276e-05
10 config_o[1] *31:10 0
11 config_o[1] *771:94 0.000538173
12 config_o[1] *1094:32 7.51285e-05
13 config_o[0] config_o[1] 0
*RES
1 *3464:X config_o[1] 49.5275 
*END

*D_NET *18 0.01796
*CONN
*P config_o[20] O
*I *3465:X O *D sg13cmos5l_buf_1
*CAP
1 config_o[20] 0.000622736
2 *3465:X 0.000744096
3 *18:24 0.00335924
4 *18:14 0.0034806
5 *18:14 *2471:A 4.77425e-05
6 *18:14 *2499:B 0
7 *18:14 *2965:CLK 0.000112426
8 *18:14 *3465:A 0
9 *18:14 *220:45 0
10 *18:14 *773:20 0
11 *18:14 *857:10 0.000208878
12 *18:24 *2359:S 0.000767122
13 *18:24 *2471:A 0.000181695
14 *18:24 *3039:RESET_B 0.000446767
15 *18:24 *3235:A 0
16 *18:24 *20:18 0.00605526
17 *18:24 *125:8 0.00023464
18 *18:24 *186:26 0
19 *18:24 *322:8 0.000288675
20 *18:24 *325:10 0
21 *18:24 *606:8 0.000534469
22 *18:24 *609:28 0
23 *18:24 *609:51 0
24 *18:24 *740:99 0
25 *18:24 *775:93 0
26 *18:24 *920:10 0
27 *18:24 *930:8 0.000212456
28 *18:24 *1138:74 0
29 config_o[17] *18:24 0.000128663
30 *13:12 config_o[20] 0
31 *14:12 config_o[20] 0
32 *15:16 config_o[20] 0.000534523
*RES
1 *3465:X *18:14 46.9937 
2 *18:14 *18:24 38.0276 
3 *18:24 config_o[20] 46.0152 
*END

*D_NET *19 0.0114918
*CONN
*P config_o[21] O
*I *3466:X O *D sg13cmos5l_buf_1
*CAP
1 config_o[21] 0.00027551
2 *3466:X 5.84131e-05
3 *19:10 0.00367016
4 *19:8 0.00345306
5 config_o[21] *778:14 0.000404663
6 *19:8 *294:59 0
7 *19:8 *773:20 8.01174e-05
8 *19:10 config_o[22] 0
9 *19:10 config_o[23] 0
10 *19:10 *2519:A 0.00012816
11 *19:10 *3292:A 0.000553246
12 *19:10 *87:8 0
13 *19:10 *124:10 0
14 *19:10 *268:8 0
15 *19:10 *613:27 0.000287256
16 *19:10 *618:8 0
17 *19:10 *750:52 0
18 *19:10 *750:60 0
19 *19:10 *778:20 0
20 *19:10 *782:10 0.00012816
21 *19:10 *910:12 0
22 *19:10 *938:10 0
23 *19:10 *943:18 0.00204845
24 *13:12 config_o[21] 0.000404554
*RES
1 *3466:X *19:8 40.5356 
2 *19:8 *19:10 36.1942 
3 *19:10 config_o[21] 43.3887 
*END

*D_NET *20 0.022818
*CONN
*P config_o[22] O
*I *3467:X O *D sg13cmos5l_buf_1
*CAP
1 config_o[22] 0.000588282
2 *3467:X 0.000806707
3 *20:24 0.00144913
4 *20:18 0.00322283
5 *20:12 0.00316869
6 config_o[22] *268:8 0
7 config_o[22] *618:8 0.000234727
8 config_o[22] *910:12 0
9 config_o[22] *927:14 0
10 *20:12 *614:12 0
11 *20:12 *637:37 0.000984326
12 *20:12 *745:96 4.77299e-05
13 *20:12 *748:8 0.000499521
14 *20:12 *1021:20 0
15 *20:18 *2498:B 0
16 *20:18 *3039:RESET_B 0.000448209
17 *20:18 *3196:A 0.000767329
18 *20:18 *186:26 0
19 *20:18 *680:14 0.0011927
20 *20:18 *874:10 0.000288088
21 *20:18 *877:18 0
22 *20:18 *1134:95 0.00182684
23 *20:24 *2364:A0 0.000176572
24 *20:24 *2584:A0 0.000884287
25 *20:24 *3285:A 0
26 *20:24 *609:51 0
27 *20:24 *775:87 0.000176786
28 *20:24 *910:12 0
29 *20:24 *1013:10 0
30 *20:24 *1134:82 0
31 *18:24 *20:18 0.00605526
32 *19:10 config_o[22] 0
*RES
1 *3467:X *20:12 48.5593 
2 *20:12 *20:18 35.3805 
3 *20:18 *20:24 48.5387 
4 *20:24 config_o[22] 6.0255 
*END

*D_NET *21 0.0179429
*CONN
*P config_o[23] O
*I *3468:X O *D sg13cmos5l_buf_1
*CAP
1 config_o[23] 0.00222067
2 *3468:X 0.000158812
3 *21:18 0.00337697
4 *21:8 0.00131511
5 config_o[23] config_o[24] 0
6 config_o[23] *3350:A 0.000531237
7 config_o[23] *124:10 0.00246863
8 config_o[23] *640:51 0
9 config_o[23] *650:8 0.000925387
10 config_o[23] *701:22 0
11 config_o[23] *778:20 0
12 config_o[23] *916:22 0.00018128
13 config_o[23] *926:28 0
14 config_o[23] *938:10 0.000554163
15 config_o[23] *1127:34 0.000659726
16 *21:8 *3145:RESET_B 0.000240437
17 *21:8 *1129:50 0.000272894
18 *21:8 *1144:47 0
19 *21:18 *2963:RESET_B 8.01612e-05
20 *21:18 *2967:CLK 0.00116994
21 *21:18 *3135:CLK 0.000288502
22 *21:18 *614:26 0.00119337
23 *21:18 *695:10 0.00133119
24 *21:18 *695:12 0.000159183
25 *21:18 *745:90 0
26 *21:18 *780:45 8.00842e-05
27 *21:18 *938:10 0.000340704
28 *21:18 *943:18 0.000394441
29 *21:18 *1021:34 0
30 *19:10 config_o[23] 0
*RES
1 *3468:X *21:8 41.8334 
2 *21:8 *21:18 37.6233 
3 *21:18 config_o[23] 48.1293 
*END

*D_NET *22 0.0129508
*CONN
*P config_o[24] O
*I *3469:X O *D sg13cmos5l_buf_1
*CAP
1 config_o[24] 0.00350269
2 *3469:X 0.000389915
3 *22:14 0.00445052
4 *22:8 0.00133775
5 config_o[24] *2367:A1 0.000500312
6 config_o[24] *2590:A0 0.000160219
7 config_o[24] *275:10 0
8 config_o[24] *324:8 0
9 config_o[24] *701:22 0
10 config_o[24] *744:42 0.000662388
11 config_o[24] *744:54 0
12 config_o[24] *776:67 0.000234224
13 config_o[24] *926:28 0
14 config_o[24] *993:8 0.000234311
15 config_o[24] *994:10 0
16 config_o[24] *999:16 0
17 config_o[24] *1127:34 0
18 config_o[24] *1127:106 0
19 config_o[24] *1138:97 0
20 *22:8 *988:14 0.00113782
21 *22:8 *1127:10 0.000340704
22 config_o[23] config_o[24] 0
*RES
1 *3469:X *22:8 45.2942 
2 *22:8 *22:14 45.5105 
3 *22:14 config_o[24] 34.4226 
*END

*D_NET *23 0.0159773
*CONN
*P config_o[25] O
*I *3470:X O *D sg13cmos5l_buf_1
*CAP
1 config_o[25] 0.00319102
2 *3470:X 0.000233641
3 *23:10 0.00342467
4 config_o[25] config_o[26] 0
5 config_o[25] *3372:A 0
6 config_o[25] *269:41 0
7 config_o[25] *294:86 0.000877107
8 config_o[25] *320:12 2.20966e-05
9 config_o[25] *612:21 0
10 config_o[25] *635:50 0.000825003
11 config_o[25] *744:60 0
12 config_o[25] *778:51 0.000287256
13 config_o[25] *780:64 0
14 config_o[25] *861:18 0.00109016
15 config_o[25] *877:30 0
16 config_o[25] *901:22 0
17 config_o[25] *901:26 0.00338094
18 config_o[25] *905:10 0
19 config_o[25] *943:14 0.000659727
20 config_o[25] *976:22 0.00012816
21 config_o[25] *1134:31 0
22 config_o[25] *1134:39 0.00156931
23 config_o[25] *1134:53 0
24 *23:10 *25:14 0
25 *23:10 *290:10 0.000288184
26 *23:10 *294:86 0
27 *23:10 *901:22 0
*RES
1 *3470:X *23:10 42.8943 
2 *23:10 config_o[25] 41.1588 
*END

*D_NET *24 0.0150555
*CONN
*P config_o[26] O
*I *3471:X O *D sg13cmos5l_buf_1
*CAP
1 config_o[26] 0.00400448
2 *3471:X 0
3 *24:6 0.00400448
4 config_o[26] config_o[27] 0
5 config_o[26] *25:14 0.00322742
6 config_o[26] *29:16 0.00342527
7 config_o[26] *749:56 0
8 config_o[26] *764:14 0
9 config_o[26] *776:77 0
10 config_o[26] *850:8 0
11 config_o[26] *877:30 0
12 config_o[26] *888:30 0
13 config_o[25] config_o[26] 0
14 *13:8 config_o[26] 0.000393821
*RES
1 *3471:X *24:6 40 
2 *24:6 config_o[26] 45.3612 
*END

*D_NET *25 0.017866
*CONN
*P config_o[27] O
*I *3472:X O *D sg13cmos5l_buf_1
*CAP
1 config_o[27] 0.00074524
2 *3472:X 7.6384e-05
3 *25:14 0.00344896
4 *25:8 0.00278011
5 config_o[27] config_o[28] 0
6 config_o[27] *2366:A1 0
7 config_o[27] *2374:A1 0
8 config_o[27] *126:14 0.000236081
9 config_o[27] *620:8 0
10 config_o[27] *778:31 0
11 config_o[27] *778:35 0
12 config_o[27] *861:12 0
13 config_o[27] *888:30 0
14 config_o[27] *994:10 0
15 *25:8 *225:53 0
16 *25:8 *1129:50 0
17 *25:14 *2594:A0 0.000181192
18 *25:14 *3206:A 0.0016148
19 *25:14 *3207:A 0.000393736
20 *25:14 *647:14 0.000714418
21 *25:14 *695:38 0.000341216
22 *25:14 *701:8 0.00145737
23 *25:14 *744:60 0
24 *25:14 *764:14 0
25 *25:14 *773:24 0
26 *25:14 *773:28 0
27 *25:14 *780:64 0
28 *25:14 *877:30 0.00167024
29 *25:14 *905:10 0.000978834
30 *25:14 *943:14 0
31 config_o[26] config_o[27] 0
32 config_o[26] *25:14 0.00322742
33 *13:8 config_o[27] 0
34 *23:10 *25:14 0
*RES
1 *3472:X *25:8 40.7519 
2 *25:8 *25:14 40.479 
3 *25:14 config_o[27] 47.5911 
*END

*D_NET *26 0.014912
*CONN
*P config_o[28] O
*I *3473:X O *D sg13cmos5l_buf_1
*CAP
1 config_o[28] 0.0057192
2 *3473:X 0.00016816
3 *26:10 0.00588736
4 config_o[28] config_o[29] 0
5 config_o[28] *118:8 0.000128247
6 config_o[28] *179:8 0.000395896
7 config_o[28] *285:22 0
8 config_o[28] *286:18 0
9 config_o[28] *747:44 0
10 config_o[28] *755:10 0
11 config_o[28] *755:16 0
12 config_o[28] *756:66 0.000447684
13 config_o[28] *778:31 0
14 config_o[28] *778:35 0
15 config_o[28] *844:14 0
16 config_o[28] *866:10 0
17 config_o[28] *899:26 0
18 config_o[28] *989:10 0.000712343
19 config_o[28] *1002:10 0.000449332
20 config_o[28] *1032:8 0
21 config_o[28] *1037:10 0.000875444
22 config_o[28] *1127:68 0.000128355
23 *26:10 *2910:A1 0
24 *26:10 *901:16 0
25 config_o[27] config_o[28] 0
*RES
1 *3473:X *26:10 41.5656 
2 *26:10 config_o[28] 50.0429 
*END

*D_NET *27 0.0165547
*CONN
*P config_o[29] O
*I *3474:X O *D sg13cmos5l_buf_1
*CAP
1 config_o[29] 0.00166024
2 *3474:X 0
3 *27:10 0.00485936
4 *27:6 0.00319912
5 config_o[29] config_o[30] 0
6 config_o[29] *2375:A1 0
7 config_o[29] *3224:A 0
8 config_o[29] *277:8 0
9 config_o[29] *286:18 0.0022023
10 config_o[29] *705:12 0
11 config_o[29] *778:79 0.000234311
12 config_o[29] *791:18 0
13 config_o[29] *917:18 0
14 config_o[29] *1127:87 0
15 *27:10 *3043:CLK 0
16 *27:10 *3047:D 0.000714004
17 *27:10 *127:10 0.000395067
18 *27:10 *277:8 0.000128248
19 *27:10 *317:12 0.00264016
20 *27:10 *623:14 0
21 *27:10 *655:25 0.000181608
22 *27:10 *702:12 0
23 *27:10 *755:16 0
24 *27:10 *755:31 0
25 *27:10 *773:65 0.000340288
26 *27:10 *791:18 0
27 *27:10 *896:14 0
28 *27:10 *1032:16 0
29 *27:10 *1043:10 0
30 config_o[28] config_o[29] 0
*RES
1 *3474:X *27:6 40 
2 *27:6 *27:10 33.2072 
3 *27:10 config_o[29] 19.6013 
*END

*D_NET *28 0.0027914
*CONN
*P config_o[2] O
*I *3475:X O *D sg13cmos5l_buf_1
*CAP
1 config_o[2] 0.000858914
2 *3475:X 8.34357e-05
3 *28:8 0.000942349
4 config_o[2] config_o[3] 0
5 config_o[2] config_o[5] 0.000307435
6 config_o[2] *31:10 0
7 config_o[2] *771:102 0.000599262
8 *28:8 sel_load_src_o[3] 0
9 *28:8 sel_load_src_o[4] 0
10 config_o[0] config_o[2] 0
11 config_o[1] config_o[2] 0
*RES
1 *3475:X *28:8 40.8446 
2 *28:8 config_o[2] 49.3215 
*END

*D_NET *29 0.0230376
*CONN
*P config_o[30] O
*I *3476:X O *D sg13cmos5l_buf_1
*CAP
1 config_o[30] 0.00195679
2 *3476:X 0.000779584
3 *29:20 0.0026442
4 *29:16 0.00282045
5 *29:12 0.00291262
6 config_o[30] config_o[31] 0
7 config_o[30] *3043:CLK 0
8 config_o[30] *269:66 0
9 config_o[30] *270:10 0
10 config_o[30] *277:8 0
11 config_o[30] *317:20 0.000873929
12 config_o[30] *317:35 0.00303569
13 config_o[30] *837:10 0
14 config_o[30] *917:18 0
15 config_o[30] *1043:10 0.00161804
16 *29:12 *30:12 0
17 *29:12 *285:12 0
18 *29:12 *591:10 0
19 *29:12 *592:10 8.0216e-05
20 *29:12 *755:16 0.000466477
21 *29:12 *901:16 0
22 *29:12 *1065:12 0
23 *29:12 *1076:22 0
24 *29:16 *2910:A1 0
25 *29:16 *2914:A2 0
26 *29:16 *291:12 0
27 *29:16 *294:71 0.001403
28 *29:16 *321:10 0
29 *29:16 *465:30 0
30 *29:16 *470:37 0
31 *29:16 *591:10 0
32 *29:16 *592:10 0
33 *29:16 *597:8 0
34 *29:16 *749:56 0
35 *29:16 *756:14 0.00034162
36 *29:16 *756:52 0
37 *29:16 *773:57 0.000181279
38 *29:16 *995:39 0
39 *29:20 *2369:A0 0
40 *29:20 *2520:C 0
41 *29:20 *3031:CLK 0
42 *29:20 *287:26 0.000498425
43 *29:20 *647:8 0
44 *29:20 *647:14 0
45 *29:20 *702:14 0
46 config_o[26] *29:16 0.00342527
47 config_o[29] config_o[30] 0
*RES
1 *3476:X *29:12 48.1267 
2 *29:12 *29:16 46.3062 
3 *29:16 *29:20 26.592 
4 *29:20 config_o[30] 26.1517 
*END

*D_NET *30 0.0189235
*CONN
*P config_o[31] O
*I *3477:X O *D sg13cmos5l_buf_1
*CAP
1 config_o[31] 0.00303371
2 *3477:X 0.00105471
3 *30:20 0.00324939
4 *30:12 0.00127039
5 config_o[31] *269:66 0
6 config_o[31] *285:32 0.0052251
7 config_o[31] *287:26 0
8 config_o[31] *289:8 0.000448515
9 config_o[31] *922:12 0
10 config_o[31] *935:8 0
11 config_o[31] *936:8 0.000287256
12 config_o[31] *944:12 0.00311132
13 config_o[31] *1015:8 0
14 config_o[31] *1138:116 0
15 *30:12 *887:14 7.52158e-05
16 *30:12 *1065:12 0
17 *30:12 *1076:22 0
18 *30:20 *290:22 0.000112203
19 *30:20 *887:14 0
20 *30:20 *950:10 0.000447474
21 *30:20 *1076:22 0.000608233
22 config_o[30] config_o[31] 0
23 *29:12 *30:12 0
*RES
1 *3477:X *30:12 49.1155 
2 *30:12 *30:20 43.5741 
3 *30:20 config_o[31] 41.7974 
*END

*D_NET *31 0.00254014
*CONN
*P config_o[3] O
*I *3478:X O *D sg13cmos5l_buf_1
*CAP
1 config_o[3] 0.000222681
2 *3478:X 0.000894537
3 *31:10 0.00111722
4 config_o[3] config_o[4] 0
5 *31:10 config_o[4] 0
6 *31:10 config_o[5] 0
7 *31:10 *2345:B 0
8 *31:10 *3480:A 8.0276e-05
9 *31:10 *248:12 0
10 *31:10 *1093:18 0.000177512
11 *31:10 *1095:42 4.79124e-05
12 *31:10 *1139:138 0
13 config_o[0] *31:10 0
14 config_o[1] *31:10 0
15 config_o[2] config_o[3] 0
16 config_o[2] *31:10 0
*RES
1 *3478:X *31:10 48.24 
2 *31:10 config_o[3] 2.4205 
*END

*D_NET *32 0.00177056
*CONN
*P config_o[4] O
*I *3479:X O *D sg13cmos5l_buf_1
*CAP
1 config_o[4] 0.000531014
2 *3479:X 0.000531014
3 config_o[4] config_o[5] 0.000500037
4 config_o[4] config_o[6] 0.000208491
5 config_o[4] *1095:42 0
6 config_o[3] config_o[4] 0
7 *31:10 config_o[4] 0
*RES
1 *3479:X config_o[4] 46.0461 
*END

*D_NET *33 0.00272225
*CONN
*P config_o[5] O
*I *3480:X O *D sg13cmos5l_buf_1
*CAP
1 config_o[5] 0.000853252
2 *3480:X 0.000853252
3 config_o[5] config_o[6] 0.000208271
4 config_o[5] *771:102 0
5 config_o[2] config_o[5] 0.000307435
6 config_o[4] config_o[5] 0.000500037
7 *31:10 config_o[5] 0
*RES
1 *3480:X config_o[5] 49.5172 
*END

*D_NET *34 0.00187754
*CONN
*P config_o[6] O
*I *3481:X O *D sg13cmos5l_buf_1
*CAP
1 config_o[6] 0.000730388
2 *3481:X 0.000730388
3 config_o[6] config_o[7] 0
4 config_o[6] *2568:B 0
5 config_o[6] *771:110 0
6 config_o[6] *795:10 0
7 config_o[6] *1139:138 0
8 config_o[4] config_o[6] 0.000208491
9 config_o[5] config_o[6] 0.000208271
*RES
1 *3481:X config_o[6] 47.5602 
*END

*D_NET *35 0.000818471
*CONN
*P config_o[7] O
*I *3482:X O *D sg13cmos5l_buf_1
*CAP
1 config_o[7] 0.000361701
2 *3482:X 0.000361701
3 config_o[7] config_o[8] 0
4 config_o[7] *3482:A 1.54556e-05
5 config_o[7] *884:8 0
6 config_o[7] *1097:14 0
7 config_o[7] *1139:138 7.96143e-05
8 config_o[6] config_o[7] 0
*RES
1 *3482:X config_o[7] 44.1303 
*END

*D_NET *36 0.00121053
*CONN
*P config_o[8] O
*I *3483:X O *D sg13cmos5l_buf_1
*CAP
1 config_o[8] 0.000403137
2 *3483:X 0.000403137
3 config_o[8] config_o[9] 0
4 config_o[8] *1097:14 0.000404252
5 config_o[7] config_o[8] 0
*RES
1 *3483:X config_o[8] 44.8719 
*END

*D_NET *37 0.000500484
*CONN
*P config_o[9] O
*I *3484:X O *D sg13cmos5l_buf_1
*CAP
1 config_o[9] 0.000242542
2 *3484:X 0.000242542
3 config_o[9] *2485:A 0
4 config_o[9] *2487:B 0
5 config_o[9] *266:18 1.54008e-05
6 config_o[10] config_o[9] 0
7 config_o[8] config_o[9] 0
*RES
1 *3484:X config_o[9] 42.7089 
*END

*D_NET *38 0.000416733
*CONN
*P din_i[0] I
*I *3446:A I *D sg13cmos5l_buf_1
*CAP
1 din_i[0] 0.000208367
2 *3446:A 0.000208367
*RES
1 din_i[0] *3446:A 42.4926 
*END

*D_NET *39 0.00130165
*CONN
*P din_i[1] I
*I *3447:A I *D sg13cmos5l_buf_1
*CAP
1 din_i[1] 0.000343505
2 *3447:A 0.000343505
3 *3447:A *1125:8 0.00030715
4 *3447:A *1147:16 0.00030749
*RES
1 din_i[1] *3447:A 44.223 
*END

*D_NET *40 0.000443039
*CONN
*P din_i[2] I
*I *3448:A I *D sg13cmos5l_buf_1
*CAP
1 din_i[2] 0.000221519
2 *3448:A 0.000221519
*RES
1 din_i[2] *3448:A 42.4926 
*END

*D_NET *41 0.000416733
*CONN
*P din_i[3] I
*I *3449:A I *D sg13cmos5l_buf_1
*CAP
1 din_i[3] 0.000208367
2 *3449:A 0.000208367
3 *3449:A *1155:32 0
*RES
1 din_i[3] *3449:A 42.4926 
*END

*D_NET *42 0.000643269
*CONN
*P din_i[4] I
*I *3450:A I *D sg13cmos5l_buf_1
*CAP
1 din_i[4] 0.000257609
2 *3450:A 0.000257609
3 *3450:A *1125:8 1.54008e-05
4 *3450:A *1147:16 0.000112651
*RES
1 din_i[4] *3450:A 42.9252 
*END

*D_NET *43 0.000526668
*CONN
*P din_i[5] I
*I *3451:A I *D sg13cmos5l_buf_1
*CAP
1 din_i[5] 0.000239626
2 *3451:A 0.000239626
3 *3451:A *1136:16 4.74163e-05
4 *3451:A *1147:14 0
*RES
1 din_i[5] *3451:A 42.9252 
*END

*D_NET *44 0.000567265
*CONN
*P din_i[6] I
*I *3452:A I *D sg13cmos5l_buf_1
*CAP
1 din_i[6] 0.000283632
2 *3452:A 0.000283632
3 *3452:A *766:12 0
4 *3452:A *1147:14 0
*RES
1 din_i[6] *3452:A 43.3578 
*END

*D_NET *45 0.000582036
*CONN
*P din_i[7] I
*I *3441:A I *D sg13cmos5l_buf_1
*CAP
1 din_i[7] 0.000291018
2 *3441:A 0.000291018
3 *3441:A *766:12 0
*RES
1 din_i[7] *3441:A 43.3578 
*END

*D_NET *46 0.000486078
*CONN
*P en_i I
*I *3442:A I *D sg13cmos5l_buf_1
*CAP
1 en_i 0.000243039
2 *3442:A 0.000243039
*RES
1 en_i *3442:A 42.9252 
*END

*D_NET *47 0.0164715
*CONN
*P en_load_o[0] O
*I *3485:X O *D sg13cmos5l_buf_1
*CAP
1 en_load_o[0] 0.000403016
2 *3485:X 0.00109138
3 *47:10 0.00232835
4 *47:6 0.00301671
5 en_load_o[0] en_load_o[1] 0
6 en_load_o[0] en_ros_o[3] 0
7 en_load_o[0] *55:8 0.000599239
8 *47:6 *2987:CLK 9.62323e-05
9 *47:6 *3003:RESET_B 0
10 *47:6 *3051:CLK 0.000952088
11 *47:6 *3067:RESET_B 0
12 *47:6 *3067:D 0
13 *47:6 *3164:A 0
14 *47:6 *3226:A 0
15 *47:6 *675:8 0
16 *47:6 *768:10 0
17 *47:6 *768:14 0
18 *47:10 en_load_o[2] 0.00156466
19 *47:10 *52:20 0.00290625
20 *47:10 *344:10 0.000448209
21 *47:10 *727:50 0.00306534
22 *47:10 *992:8 0
23 *47:10 *1031:30 0
24 *47:10 *1105:14 0
25 *47:10 *1109:20 0
*RES
1 *3485:X *47:6 30.4854 
2 *47:6 *47:10 48.0366 
3 *47:10 en_load_o[0] 44.9337 
*END

*D_NET *48 0.0127697
*CONN
*P en_load_o[1] O
*I *3486:X O *D sg13cmos5l_buf_1
*CAP
1 en_load_o[1] 0.000861785
2 *3486:X 0.000715374
3 *48:22 0.00234202
4 *48:12 0.00219561
5 en_load_o[1] en_load_o[2] 0
6 en_load_o[1] *715:10 0.000980384
7 en_load_o[1] *715:35 0
8 en_load_o[1] *1000:10 0.00012816
9 en_load_o[1] *1001:10 0
10 en_load_o[1] *1101:12 0.000711511
11 en_load_o[1] *1108:24 0
12 *48:12 en_ros_o[0] 1.55212e-05
13 *48:12 *3164:A 0
14 *48:12 *768:14 0
15 *48:12 *838:12 0
16 *48:12 *1099:20 0
17 *48:12 *1100:26 0.00124939
18 *48:12 *1108:8 0
19 *48:22 en_ros_o[0] 0.00130201
20 *48:22 en_ros_o[1] 0
21 *48:22 *2619:A0 0.000176521
22 *48:22 *2619:A1 0
23 *48:22 *3069:CLK 0
24 *48:22 *3071:RESET_B 0
25 *48:22 *331:42 0.00079034
26 *48:22 *683:12 0
27 *48:22 *838:12 0.00130109
28 en_load_o[0] en_load_o[1] 0
*RES
1 *3486:X *48:12 47.8795 
2 *48:12 *48:22 38.2413 
3 *48:22 en_load_o[1] 30.5781 
*END

*D_NET *49 0.0122982
*CONN
*P en_load_o[2] O
*I *3487:X O *D sg13cmos5l_buf_1
*CAP
1 en_load_o[2] 0.000652487
2 *3487:X 3.31631e-05
3 *49:14 0.00291876
4 *49:8 0.00229944
5 en_load_o[2] sel_load_src_o[0] 0
6 en_load_o[2] *1109:20 0.00150824
7 *49:8 *2530:A1 0
8 *49:8 *2547:A 0
9 *49:14 *2530:A1 0
10 *49:14 *2989:CLK 0
11 *49:14 *3073:RESET_B 0
12 *49:14 *3073:D 0
13 *49:14 *662:10 0
14 *49:14 *683:6 0.000111156
15 *49:14 *686:10 0.000499958
16 *49:14 *686:21 0
17 *49:14 *771:50 0.000501045
18 *49:14 *771:94 0.00212916
19 *49:14 *817:12 0
20 *49:14 *1047:18 8.00842e-05
21 *49:14 *1101:24 0
22 en_load_o[1] en_load_o[2] 0
23 *47:10 en_load_o[2] 0.00156466
*RES
1 *3487:X *49:8 40.3193 
2 *49:8 *49:14 45.0496 
3 *49:14 en_load_o[2] 30.7532 
*END

*D_NET *50 0.0162013
*CONN
*P en_ros_o[0] O
*I *3488:X O *D sg13cmos5l_buf_1
*CAP
1 en_ros_o[0] 0.00242033
2 *3488:X 0.000228397
3 *50:10 0.00264873
4 en_ros_o[0] en_ros_o[1] 0
5 en_ros_o[0] *3166:A 0.000159598
6 en_ros_o[0] *140:8 0.00210288
7 en_ros_o[0] *714:8 0.000978003
8 en_ros_o[0] *1102:10 0.00459686
9 en_ros_o[0] *1107:24 0
10 en_ros_o[0] *1108:8 0.00174903
11 *50:10 *1066:8 0
12 *48:12 en_ros_o[0] 1.55212e-05
13 *48:22 en_ros_o[0] 0.00130201
*RES
1 *3488:X *50:10 42.1527 
2 *50:10 en_ros_o[0] 41.5914 
*END

*D_NET *51 0.0136746
*CONN
*P en_ros_o[1] O
*I *3489:X O *D sg13cmos5l_buf_1
*CAP
1 en_ros_o[1] 0.00332093
2 *3489:X 6.63507e-05
3 *51:8 0.00338728
4 en_ros_o[1] en_ros_o[2] 0
5 en_ros_o[1] *714:8 0
6 en_ros_o[1] *727:10 0
7 en_ros_o[1] *730:8 0
8 en_ros_o[1] *730:12 0.00323558
9 en_ros_o[1] *769:8 0
10 en_ros_o[1] *838:12 0
11 en_ros_o[1] *847:22 0.000288087
12 en_ros_o[1] *860:8 0
13 en_ros_o[1] *1066:8 0
14 en_ros_o[1] *1100:26 0
15 en_ros_o[1] *1104:12 0.00337639
16 en_ros_o[1] *1107:24 0
17 en_ros_o[1] *1108:8 0
18 *51:8 *2609:A1 0
19 *51:8 *3061:RESET_B 0
20 en_ros_o[0] en_ros_o[1] 0
21 *48:22 en_ros_o[1] 0
*RES
1 *3489:X *51:8 40.5356 
2 *51:8 en_ros_o[1] 44.0634 
*END

*D_NET *52 0.0193523
*CONN
*P en_ros_o[2] O
*I *3490:X O *D sg13cmos5l_buf_1
*CAP
1 en_ros_o[2] 0.00107893
2 *3490:X 2.42427e-05
3 *52:20 0.00314802
4 *52:8 0.00209333
5 en_ros_o[2] en_ros_o[3] 0
6 en_ros_o[2] *3187:A 0
7 en_ros_o[2] *682:32 0.000555909
8 en_ros_o[2] *723:10 0.00252456
9 en_ros_o[2] *834:10 0.00156334
10 en_ros_o[2] *873:14 0.000144702
11 en_ros_o[2] *1104:12 0
12 *52:8 *1031:30 6.37107e-05
13 *52:20 *2537:A 0.000240459
14 *52:20 *3055:RESET_B 0.000370625
15 *52:20 *3187:A 0
16 *52:20 *3394:A 0.000208118
17 *52:20 *715:10 7.89542e-05
18 *52:20 *727:50 0
19 *52:20 *727:56 0
20 *52:20 *828:8 0
21 *52:20 *1031:30 0.00435111
22 en_ros_o[1] en_ros_o[2] 0
23 *47:10 *52:20 0.00290625
*RES
1 *3490:X *52:8 40.3193 
2 *52:8 *52:20 48.8812 
3 *52:20 en_ros_o[2] 37.4688 
*END

*D_NET *53 0.0158949
*CONN
*P en_ros_o[3] O
*I *3491:X O *D sg13cmos5l_buf_1
*CAP
1 en_ros_o[3] 0.00120753
2 *3491:X 0.000158404
3 *53:12 0.00225394
4 *53:8 0.00120481
5 en_ros_o[3] *2620:B 0.000208862
6 en_ros_o[3] *727:64 0
7 en_ros_o[3] *728:36 0
8 en_ros_o[3] *1102:8 7.92329e-05
9 en_ros_o[3] *1105:12 0
10 en_ros_o[3] *1106:10 0.000394248
11 en_ros_o[3] *1106:16 0
12 en_ros_o[3] *1107:24 0.000241902
13 *53:8 *1099:20 0
14 *53:8 *1106:22 0
15 *53:12 *713:29 0
16 *53:12 *1099:20 0.00477904
17 *53:12 *1102:10 0
18 *53:12 *1106:22 0.00536696
19 en_load_o[0] en_ros_o[3] 0
20 en_ros_o[2] en_ros_o[3] 0
*RES
1 *3491:X *53:8 41.1845 
2 *53:8 *53:12 44.823 
3 *53:12 en_ros_o[3] 31.948 
*END

*D_NET *54 0.00051354
*CONN
*P rst_in I
*I *3443:A I *D sg13cmos5l_buf_1
*CAP
1 rst_in 0.00025677
2 *3443:A 0.00025677
3 *3443:A *215:10 0
*RES
1 rst_in *3443:A 43.0282 
*END

*D_NET *55 0.00360481
*CONN
*P sel_load_src_o[0] O
*I *3492:X O *D sg13cmos5l_buf_1
*CAP
1 sel_load_src_o[0] 9.78715e-05
2 *3492:X 0.00112157
3 *55:8 0.00121944
4 sel_load_src_o[0] sel_load_src_o[1] 0
5 *55:8 sel_load_src_o[2] 0.000566695
6 *55:8 *3492:A 0
7 *55:8 *1110:14 0
8 en_load_o[0] *55:8 0.000599239
9 en_load_o[2] sel_load_src_o[0] 0
*RES
1 *3492:X *55:8 32.875 
2 *55:8 sel_load_src_o[0] 21.1845 
*END

*D_NET *56 0.00222492
*CONN
*P sel_load_src_o[1] O
*I *3493:X O *D sg13cmos5l_buf_1
*CAP
1 sel_load_src_o[1] 0.000712528
2 *3493:X 0.000712528
3 sel_load_src_o[1] sel_load_src_o[2] 0
4 sel_load_src_o[1] *3357:A 0.000112441
5 sel_load_src_o[1] *58:12 0.00050022
6 sel_load_src_o[1] *331:63 0
7 sel_load_src_o[1] *715:35 0.0001872
8 sel_load_src_o[1] *1109:20 0
9 sel_load_src_o[1] *1110:14 0
10 sel_load_src_o[0] sel_load_src_o[1] 0
*RES
1 *3493:X sel_load_src_o[1] 47.9001 
*END

*D_NET *57 0.00296803
*CONN
*P sel_load_src_o[2] O
*I *3494:X O *D sg13cmos5l_buf_1
*CAP
1 sel_load_src_o[2] 0.000771265
2 *3494:X 0.000771265
3 sel_load_src_o[2] sel_load_src_o[3] 0
4 sel_load_src_o[2] *58:12 0.000858806
5 sel_load_src_o[2] *1110:14 0
6 sel_load_src_o[1] sel_load_src_o[2] 0
7 *55:8 sel_load_src_o[2] 0.000566695
*RES
1 *3494:X sel_load_src_o[2] 49.5172 
*END

*D_NET *58 0.00326336
*CONN
*P sel_load_src_o[3] O
*I *3495:X O *D sg13cmos5l_buf_1
*CAP
1 sel_load_src_o[3] 0.000136661
2 *3495:X 0.000702852
3 *58:12 0.000839513
4 sel_load_src_o[3] sel_load_src_o[4] 0
5 *58:12 *3496:A 0
6 *58:12 *810:16 0
7 *58:12 *1110:14 4.79124e-05
8 config_o[0] *58:12 0.000177399
9 sel_load_src_o[1] *58:12 0.00050022
10 sel_load_src_o[2] sel_load_src_o[3] 0
11 sel_load_src_o[2] *58:12 0.000858806
12 *28:8 sel_load_src_o[3] 0
*RES
1 *3495:X *58:12 48.5902 
2 *58:12 sel_load_src_o[3] 1.6789 
*END

*D_NET *59 0.00156426
*CONN
*P sel_load_src_o[4] O
*I *3496:X O *D sg13cmos5l_buf_1
*CAP
1 sel_load_src_o[4] 0.000548486
2 *3496:X 0.000548486
3 sel_load_src_o[4] sel_load_src_o[5] 0
4 sel_load_src_o[4] *3475:A 0.000209905
5 sel_load_src_o[4] *3496:A 0
6 sel_load_src_o[4] *3497:A 0
7 sel_load_src_o[4] *810:16 0.000144849
8 sel_load_src_o[4] *1057:29 0
9 config_o[0] sel_load_src_o[4] 0
10 config_o[1] sel_load_src_o[4] 0.000112535
11 sel_load_src_o[3] sel_load_src_o[4] 0
12 *28:8 sel_load_src_o[4] 0
*RES
1 *3496:X sel_load_src_o[4] 46.283 
*END

*D_NET *60 0.00168072
*CONN
*P sel_load_src_o[5] O
*I *3497:X O *D sg13cmos5l_buf_1
*CAP
1 sel_load_src_o[5] 0.000695897
2 *3497:X 0.000695897
3 sel_load_src_o[5] *109:10 8.0046e-05
4 sel_load_src_o[5] *654:12 0.000208878
5 sel_load_src_o[5] *654:24 0
6 sel_load_src_o[5] *771:94 0
7 sel_load_src_o[5] *771:102 0
8 sel_load_src_o[5] *1087:12 0
9 config_o[0] sel_load_src_o[5] 0
10 config_o[1] sel_load_src_o[5] 0
11 sel_load_src_o[4] sel_load_src_o[5] 0
*RES
1 *3497:X sel_load_src_o[5] 46.8495 
*END

*D_NET *61 0.000570541
*CONN
*P we_i I
*I *3444:A I *D sg13cmos5l_buf_1
*CAP
1 we_i 0.00028527
2 *3444:A 0.00028527
3 *3444:A *1114:24 0
4 *3444:A *1147:20 0
*RES
1 we_i *3444:A 43.3578 
*END

*D_NET *62 0.00311867
*CONN
*I *3155:D I *D sg13cmos5l_dfrbpq_1
*I *2411:Y O *D sg13cmos5l_nor2_1
*CAP
1 *3155:D 0.000424465
2 *2411:Y 0.000649614
3 *62:10 0.00107408
4 *3155:D *2412:B 0
5 *3155:D *210:65 0.000552831
6 *62:10 *2410:B 0
7 *62:10 *2410:A 0
8 *62:10 *2411:B 0
9 *62:10 *2413:B 0.000241886
10 *62:10 *2415:B 0
11 *62:10 *2415:C 0
12 *62:10 *2917:A 0.000175799
13 *62:10 *181:16 0
14 *62:10 *214:12 0
15 *62:10 *215:10 0
16 *5:6 *3155:D 0
*RES
1 *2411:Y *62:10 46.1388 
2 *62:10 *3155:D 44.0582 
*END

*D_NET *63 0.00332457
*CONN
*I *3157:D I *D sg13cmos5l_dfrbpq_1
*I *2414:Y O *D sg13cmos5l_nor2_1
*CAP
1 *3157:D 0.000170326
2 *2414:Y 0.000534486
3 *63:10 0.000704812
4 *3157:D *3332:A 2.21754e-05
5 *3157:D *681:18 0.000176521
6 *63:10 *2414:B 0.00014474
7 *63:10 *3279:A 0
8 *63:10 *210:40 0.000177148
9 *63:10 *213:10 0.000872683
10 *63:10 *681:18 0.000128355
11 *63:10 *971:10 0.00039332
*RES
1 *2414:Y *63:10 46.7259 
2 *63:10 *3157:D 41.751 
*END

*D_NET *64 0.00198859
*CONN
*I *3159:D I *D sg13cmos5l_dfrbpq_1
*I *2417:Y O *D sg13cmos5l_nor2_1
*CAP
1 *3159:D 0.000369722
2 *2417:Y 0.000150788
3 *64:8 0.00052051
4 *3159:D *2419:B 0
5 *64:8 *215:10 0.000341205
6 *64:8 *216:12 0.000606364
7 *64:8 *788:8 0
*RES
1 *2417:Y *64:8 42.8222 
2 *64:8 *3159:D 42.3999 
*END

*D_NET *65 0.00179839
*CONN
*I *3161:D I *D sg13cmos5l_dfrbpq_1
*I *2420:Y O *D sg13cmos5l_nor2_1
*CAP
1 *3161:D 0
2 *2420:Y 0.000531801
3 *65:10 0.000531801
4 *65:10 *2420:A 0
5 *65:10 *210:23 0
6 *65:10 *215:10 0
7 *65:10 *215:24 0.000393493
8 *65:10 *216:12 0
9 *65:10 *217:8 0.000341292
10 *65:10 *907:10 0
*RES
1 *2420:Y *65:10 46.4787 
2 *65:10 *3161:D 40 
*END

*D_NET *66 0.00239076
*CONN
*I *2921:D I *D sg13cmos5l_dfrbpq_1
*I *2429:Y O *D sg13cmos5l_nand3_1
*CAP
1 *2921:D 0
2 *2429:Y 0.000104
3 *66:18 0.000462589
4 *66:10 0.000566589
5 *66:10 *2429:A 7.52158e-05
6 *66:10 *1095:42 0.000234726
7 *66:18 *2429:C 0
8 *66:18 *2432:C 0.00012816
9 *66:18 *2456:A 0.000176685
10 *66:18 *2921:RESET_B 1.54008e-05
11 *66:18 *228:8 0.000627397
12 *66:18 *1103:41 0
*RES
1 *2429:Y *66:10 41.4111 
2 *66:10 *66:18 45.0573 
3 *66:18 *2921:D 40 
*END

*D_NET *67 0.00166978
*CONN
*I *2923:D I *D sg13cmos5l_dfrbpq_1
*I *2432:Y O *D sg13cmos5l_nand3_1
*CAP
1 *2923:D 0.000149359
2 *2432:Y 9.78165e-05
3 *67:8 0.000247176
4 *2923:D *659:20 0.000176405
5 *67:8 *732:37 0.000499557
6 *67:8 *1103:41 0.00049947
*RES
1 *2432:Y *67:8 42.3278 
2 *67:8 *2923:D 41.1845 
*END

*D_NET *68 0.00195019
*CONN
*I *2925:D I *D sg13cmos5l_dfrbpq_1
*I *2435:Y O *D sg13cmos5l_nand3_1
*CAP
1 *2925:D 7.82743e-05
2 *2435:Y 0.000446971
3 *68:12 0.000525245
4 *2925:D *633:10 0.000144742
5 *2925:D *657:26 0.000144742
6 *68:12 *2435:A 0
7 *68:12 *2556:B 0.000110829
8 *68:12 *183:22 0
9 *68:12 *1135:33 0.000499383
*RES
1 *2435:Y *68:12 44.4187 
2 *68:12 *2925:D 40.9682 
*END

*D_NET *69 0.000223466
*CONN
*I *2927:D I *D sg13cmos5l_dfrbpq_1
*I *2438:Y O *D sg13cmos5l_nand3_1
*CAP
1 *2927:D 0.000111733
2 *2438:Y 0.000111733
3 *2927:D *2438:B 0
4 *2927:D *664:188 0
5 *2927:D *1114:96 0
*RES
1 *2438:Y *2927:D 41.133 
*END

*D_NET *70 0.000453885
*CONN
*I *2929:D I *D sg13cmos5l_dfrbpq_1
*I *2441:Y O *D sg13cmos5l_nand3_1
*CAP
1 *2929:D 0.000226943
2 *2441:Y 0.000226943
3 *2929:D *2453:A 0
4 *2929:D *2456:B 0
5 *2929:D *3011:RESET_B 0
*RES
1 *2441:Y *2929:D 42.2145 
*END

*D_NET *71 0.000348652
*CONN
*I *2931:D I *D sg13cmos5l_dfrbpq_1
*I *2444:Y O *D sg13cmos5l_nand3_1
*CAP
1 *2931:D 0.000150455
2 *2444:Y 0.000150455
3 *2931:D *767:47 4.77425e-05
*RES
1 *2444:Y *2931:D 41.5965 
*END

*D_NET *72 0.000548017
*CONN
*I *2933:D I *D sg13cmos5l_dfrbpq_1
*I *2447:Y O *D sg13cmos5l_nand3_1
*CAP
1 *2933:D 0.00020233
2 *2447:Y 0.00020233
3 *2933:D *2445:B 0
4 *2933:D *2447:B 0
5 *2933:D *767:66 0.000143358
6 *2933:D *1136:54 0
*RES
1 *2447:Y *2933:D 42.0291 
*END

*D_NET *73 0.000815797
*CONN
*I *2935:D I *D sg13cmos5l_dfrbpq_1
*I *2450:Y O *D sg13cmos5l_nand3_1
*CAP
1 *2935:D 0
2 *2450:Y 0.00020168
3 *73:10 0.00020168
4 *73:10 *2450:C 0
5 *73:10 *891:10 0.000235141
6 *73:10 *952:22 0.000177295
*RES
1 *2450:Y *73:10 42.5235 
2 *73:10 *2935:D 40 
*END

*D_NET *74 0.000656112
*CONN
*I *3303:A I *D sg13cmos5l_dlygate4sd3_1
*I *2454:Y O *D sg13cmos5l_nand3_1
*CAP
1 *3303:A 0.000320328
2 *2454:Y 0.000320328
3 *3303:A *2439:A 0
4 *3303:A *2441:B 1.54556e-05
5 *3303:A *242:12 0
6 *3303:A *1125:37 0
*RES
1 *2454:Y *3303:A 42.9561 
*END

*D_NET *75 0.000659162
*CONN
*I *3309:A I *D sg13cmos5l_dlygate4sd3_1
*I *2457:Y O *D sg13cmos5l_nand3_1
*CAP
1 *3309:A 0.000188935
2 *2457:Y 0.000188935
3 *3309:A *241:14 1.54008e-05
4 *3309:A *636:34 0
5 *3309:A *1095:28 0.000265892
*RES
1 *2457:Y *3309:A 41.9673 
*END

*D_NET *76 0.00239222
*CONN
*I *3319:A I *D sg13cmos5l_dlygate4sd3_1
*I *2461:Y O *D sg13cmos5l_nand3_1
*CAP
1 *3319:A 0
2 *2461:Y 0.000698993
3 *76:10 0.000698993
4 *76:10 *3021:RESET_B 1.54008e-05
5 *76:10 *116:12 0.000978833
6 *76:10 *734:107 0
7 *76:10 *795:10 0
*RES
1 *2461:Y *76:10 47.1894 
2 *76:10 *3319:A 40 
*END

*D_NET *77 0.000740524
*CONN
*I *3289:A I *D sg13cmos5l_dlygate4sd3_1
*I *2464:Y O *D sg13cmos5l_nand3_1
*CAP
1 *3289:A 0.000249289
2 *2464:Y 0.000249289
3 *3289:A *635:27 0.000241946
4 *3289:A *642:10 0
5 *3289:A *882:10 0
*RES
1 *2464:Y *3289:A 42.7089 
*END

*D_NET *78 0.00170543
*CONN
*I *2945:D I *D sg13cmos5l_dfrbpq_1
*I *2467:Y O *D sg13cmos5l_nand3_1
*CAP
1 *2945:D 5.26946e-05
2 *2467:Y 0.000269275
3 *78:10 0.000321969
4 *2945:D *2479:A 8.01612e-05
5 *2945:D *259:18 0
6 *78:10 *251:30 0.000175826
7 *78:10 *259:18 0.000235141
8 *78:10 *260:10 0.000175716
9 *78:10 *800:12 0.000394653
10 *16:20 *78:10 0
*RES
1 *2467:Y *78:10 43.5123 
2 *78:10 *2945:D 40.5356 
*END

*D_NET *79 0.00188976
*CONN
*I *3297:A I *D sg13cmos5l_dlygate4sd3_1
*I *2470:Y O *D sg13cmos5l_nand3_1
*CAP
1 *3297:A 6.97285e-05
2 *2470:Y 0.000382702
3 *79:8 0.00045243
4 *3297:A *638:27 0.000112635
5 *79:8 *263:37 0
6 *79:8 *780:23 0
7 *79:8 *802:8 0.000872268
*RES
1 *2470:Y *79:8 45.047 
2 *79:8 *3297:A 40.7519 
*END

*D_NET *80 0.00169012
*CONN
*I *2949:D I *D sg13cmos5l_dfrbpq_1
*I *2473:Y O *D sg13cmos5l_nand3_1
*CAP
1 *2949:D 0.000138003
2 *2473:Y 0.000297397
3 *80:8 0.0004354
4 *2949:D *637:37 0
5 *2949:D *1021:20 0
6 *80:8 *255:8 0
7 *80:8 *736:80 0
8 *80:8 *738:35 0.000819325
*RES
1 *2473:Y *80:8 43.811 
2 *80:8 *2949:D 41.1845 
*END

*D_NET *81 0.00312942
*CONN
*I *2951:D I *D sg13cmos5l_dfrbpq_1
*I *2476:Y O *D sg13cmos5l_nand3_1
*CAP
1 *2951:D 0.00051579
2 *2476:Y 0.00014605
3 *81:8 0.00066184
4 *2951:D *2359:A0 0
5 *2951:D *2359:S 0.000273655
6 *2951:D *3196:A 0
7 *2951:D *638:27 0
8 *81:8 *736:80 0.00076579
9 *81:8 *1144:55 0.000766292
*RES
1 *2476:Y *81:8 43.5638 
2 *81:8 *2951:D 44.429 
*END

*D_NET *82 0.00217849
*CONN
*I *2953:D I *D sg13cmos5l_dfrbpq_1
*I *2479:Y O *D sg13cmos5l_nand3_1
*CAP
1 *2953:D 0.000264952
2 *2479:Y 0.000334379
3 *82:12 0.000599331
4 *2953:D *251:30 0.000466536
5 *2953:D *640:34 0.00046555
6 *82:12 *2479:B 0
7 *82:12 *2479:A 0
8 *82:12 *3173:A 0
9 *82:12 *251:30 0
10 *82:12 *259:18 0
11 *82:12 *260:10 0
12 *82:12 *664:152 0
13 *82:12 *800:12 4.77425e-05
*RES
1 *2479:Y *82:12 42.7775 
2 *82:12 *2953:D 43.1312 
*END

*D_NET *83 0.00127672
*CONN
*I *3305:A I *D sg13cmos5l_dlygate4sd3_1
*I *2482:Y O *D sg13cmos5l_nand3_1
*CAP
1 *3305:A 5.75792e-05
2 *2482:Y 0.000481571
3 *83:12 0.000539151
4 *3305:A *2510:B 0
5 *3305:A *609:28 4.77425e-05
6 *83:12 *2955:CLK 7.55443e-05
7 *83:12 *664:126 0
8 *83:12 *736:80 7.51285e-05
9 *83:12 *933:8 0
10 *83:12 *1144:55 0
*RES
1 *2482:Y *83:12 45.1603 
2 *83:12 *3305:A 40.6695 
*END

*D_NET *84 0.000635746
*CONN
*I *3326:A I *D sg13cmos5l_dlygate4sd3_1
*I *2486:Y O *D sg13cmos5l_nand3_1
*CAP
1 *3326:A 0.000312675
2 *2486:Y 0.000312675
3 *3326:A *2486:A 0
4 *3326:A *282:32 1.03955e-05
*RES
1 *2486:Y *3326:A 42.6342 
*END

*D_NET *85 0.000252403
*CONN
*I *3323:A I *D sg13cmos5l_dlygate4sd3_1
*I *2489:Y O *D sg13cmos5l_nand3_1
*CAP
1 *3323:A 0.000126201
2 *2489:Y 0.000126201
3 *3323:A *2489:B 0
4 *3323:A *3204:A 0
5 *3323:A *3205:A 0
*RES
1 *2489:Y *3323:A 41.0986 
*END

*D_NET *86 0.00326231
*CONN
*I *3311:A I *D sg13cmos5l_dlygate4sd3_1
*I *2493:Y O *D sg13cmos5l_nand3_1
*CAP
1 *3311:A 0.000665095
2 *2493:Y 0.000665095
3 *3311:A *2371:S 3.39041e-05
4 *3311:A *270:22 0
5 *3311:A *776:46 0.000143171
6 *3311:A *776:67 0.000595522
7 *3311:A *852:10 0.000950905
8 *3311:A *1127:68 0.000208615
*RES
1 *2493:Y *3311:A 47.4572 
*END

*D_NET *87 0.00211888
*CONN
*I *3293:A I *D sg13cmos5l_dlygate4sd3_1
*I *2496:Y O *D sg13cmos5l_nand3_1
*CAP
1 *3293:A 0.000350887
2 *2496:Y 0.000113727
3 *87:8 0.000464614
4 *3293:A *780:45 0
5 *3293:A *789:14 0.000466038
6 *3293:A *943:14 0.000434941
7 *87:8 *750:52 0.000288675
8 *19:10 *87:8 0
*RES
1 *2496:Y *87:8 41.339 
2 *87:8 *3293:A 43.914 
*END

*D_NET *88 0.000376205
*CONN
*I *3295:A I *D sg13cmos5l_dlygate4sd3_1
*I *2499:Y O *D sg13cmos5l_nand3_1
*CAP
1 *3295:A 4.25262e-05
2 *2499:Y 6.53601e-05
3 *88:8 0.000107886
4 *3295:A *3250:A 8.0216e-05
5 *3295:A *294:52 8.0216e-05
6 *88:8 *741:145 0
7 *88:8 *748:38 0
*RES
1 *2499:Y *88:8 40.5974 
2 *88:8 *3295:A 40.5356 
*END

*D_NET *89 0.000583311
*CONN
*I *3301:A I *D sg13cmos5l_dlygate4sd3_1
*I *2502:Y O *D sg13cmos5l_nand3_1
*CAP
1 *3301:A 0.000171558
2 *2502:Y 0.000171558
3 *3301:A *2502:B 0.000240196
*RES
1 *2502:Y *3301:A 41.6171 
*END

*D_NET *90 0.00222348
*CONN
*I *3283:A I *D sg13cmos5l_dlygate4sd3_1
*I *2505:Y O *D sg13cmos5l_nand3_1
*CAP
1 *3283:A 0.000180336
2 *2505:Y 0.000502746
3 *90:12 0.000683082
4 *90:12 *2505:A 0.000712342
5 *90:12 *2581:B 0
6 *90:12 *3033:RESET_B 0
7 *90:12 *888:26 0.000144976
*RES
1 *2505:Y *90:12 45.3766 
2 *90:12 *3283:A 41.4008 
*END

*D_NET *91 0.00122512
*CONN
*I *3281:A I *D sg13cmos5l_dlygate4sd3_1
*I *2508:Y O *D sg13cmos5l_nand3_1
*CAP
1 *3281:A 0.000167022
2 *2508:Y 6.37758e-05
3 *91:8 0.000230797
4 *3281:A *888:26 0.000240196
5 *91:8 *251:14 0.000235153
6 *91:8 *848:12 0.000288174
*RES
1 *2508:Y *91:8 41.339 
2 *91:8 *3281:A 41.6171 
*END

*D_NET *92 0.000728326
*CONN
*I *3291:A I *D sg13cmos5l_dlygate4sd3_1
*I *2511:Y O *D sg13cmos5l_nand3_1
*CAP
1 *3291:A 0.0001419
2 *2511:Y 0.000118166
3 *92:8 0.000260066
4 *3291:A *1127:116 0.000208195
5 *14:12 *3291:A 0
*RES
1 *2511:Y *92:8 41.0918 
2 *92:8 *3291:A 41.4008 
*END

*D_NET *93 0.000242599
*CONN
*I *3285:A I *D sg13cmos5l_dlygate4sd3_1
*I *2514:Y O *D sg13cmos5l_nand3_1
*CAP
1 *3285:A 0.0001213
2 *2514:Y 0.0001213
3 *3285:A *2486:A 0
4 *3285:A *1013:10 0
5 *20:24 *3285:A 0
*RES
1 *2514:Y *3285:A 41.3493 
*END

*D_NET *94 0.000726323
*CONN
*I *3299:A I *D sg13cmos5l_dlygate4sd3_1
*I *2517:Y O *D sg13cmos5l_nand3_1
*CAP
1 *3299:A 0.000363162
2 *2517:Y 0.000363162
3 *3299:A *776:114 0
*RES
1 *2517:Y *3299:A 44.1406 
*END

*D_NET *95 0.00291382
*CONN
*I *3287:A I *D sg13cmos5l_dlygate4sd3_1
*I *2520:Y O *D sg13cmos5l_nand3_1
*CAP
1 *3287:A 0.000518124
2 *2520:Y 0.000381617
3 *95:12 0.000899741
4 *3287:A *2979:D 0
5 *3287:A *3207:A 0
6 *3287:A *269:66 0
7 *3287:A *277:22 0
8 *3287:A *837:10 0
9 *3287:A *896:14 0.00014391
10 *95:12 *791:18 0
11 *95:12 *841:14 0
12 *95:12 *844:14 0.000827056
13 *95:12 *1134:14 0
14 *95:12 *1138:116 0.000143369
*RES
1 *2520:Y *95:12 45.0985 
2 *95:12 *3287:A 44.7792 
*END

*D_NET *96 0.000248602
*CONN
*I *3313:A I *D sg13cmos5l_dlygate4sd3_1
*I *2523:Y O *D sg13cmos5l_nand3_1
*CAP
1 *3313:A 0.000124301
2 *2523:Y 0.000124301
3 *3313:A *290:22 0
*RES
1 *2523:Y *3313:A 41.3802 
*END

*D_NET *97 0.00316015
*CONN
*I *3307:A I *D sg13cmos5l_dlygate4sd3_1
*I *2526:Y O *D sg13cmos5l_nand3_1
*CAP
1 *3307:A 0.000762525
2 *2526:Y 4.59293e-05
3 *97:8 0.000808454
4 *3307:A *2595:B 0
5 *3307:A *317:8 0.00069039
6 *3307:A *773:78 0
7 *3307:A *784:10 0
8 *3307:A *950:10 7.91347e-05
9 *3307:A *1003:10 0.000305181
10 *97:8 *328:12 0.000234311
11 *97:8 *749:56 0.000234224
*RES
1 *2526:Y *97:8 41.0918 
2 *97:8 *3307:A 47.4572 
*END

*D_NET *98 0.00255399
*CONN
*I *2985:D I *D sg13cmos5l_dfrbpq_1
*I *2531:X O *D sg13cmos5l_and2_1
*CAP
1 *2985:D 9.18945e-05
2 *2531:X 0.000428665
3 *98:10 0.00052056
4 *2985:D *2548:A1 0
5 *2985:D *3389:A 0.000144157
6 *98:10 *2548:A1 0
7 *98:10 *187:14 0.000181695
8 *98:10 *663:12 4.75151e-05
9 *98:10 *663:14 0
10 *98:10 *1137:89 0.0011395
*RES
1 *2531:X *98:10 46.6023 
2 *98:10 *2985:D 40.9682 
*END

*D_NET *99 0.00109797
*CONN
*I *2987:D I *D sg13cmos5l_dfrbpq_1
*I *2533:X O *D sg13cmos5l_and2_1
*CAP
1 *2987:D 0
2 *2533:X 0.000245593
3 *99:8 0.000245593
4 *99:8 *1031:30 0.00060678
5 *99:8 *1105:14 0
*RES
1 *2533:X *99:8 42.8222 
2 *99:8 *2987:D 40 
*END

*D_NET *100 0.00224088
*CONN
*I *2989:D I *D sg13cmos5l_dfrbpq_1
*I *2535:X O *D sg13cmos5l_and2_1
*CAP
1 *2989:D 0.00025724
2 *2535:X 0.00063505
3 *100:12 0.00089229
4 *2989:D *657:26 0
5 *2989:D *658:18 4.77425e-05
6 *100:12 *2433:A 0
7 *100:12 *2535:A 0
8 *100:12 *2535:B 2.29896e-05
9 *100:12 *658:18 0.000181279
10 *100:12 *658:28 0.000129077
11 *100:12 *664:230 0
12 *100:12 *678:8 7.52149e-05
13 *100:12 *1027:27 0
*RES
1 *2535:X *100:12 46.2727 
2 *100:12 *2989:D 42.1836 
*END

*D_NET *101 0.000832452
*CONN
*I *2991:D I *D sg13cmos5l_dfrbpq_1
*I *2537:X O *D sg13cmos5l_and2_1
*CAP
1 *2991:D 0.000416226
2 *2537:X 0.000416226
3 *2991:D *2537:B 0
4 *2991:D *2603:A0 0
5 *2991:D *828:8 0
6 *2991:D *1137:101 0
*RES
1 *2537:X *2991:D 43.8316 
*END

*D_NET *102 0.000103623
*CONN
*I *2993:D I *D sg13cmos5l_dfrbpq_1
*I *2539:X O *D sg13cmos5l_and2_1
*CAP
1 *2993:D 5.18117e-05
2 *2539:X 5.18117e-05
3 *2993:D *2539:B 0
4 *2993:D *1125:58 0
*RES
1 *2539:X *2993:D 40.5974 
*END

*D_NET *103 0.000391069
*CONN
*I *2995:D I *D sg13cmos5l_dfrbpq_1
*I *2541:X O *D sg13cmos5l_and2_1
*CAP
1 *2995:D 0.000195535
2 *2541:X 0.000195535
3 *2995:D *2541:B 0
4 *2995:D *1052:40 0
5 *2995:D *1137:16 0
*RES
1 *2541:X *2995:D 41.7819 
*END

*D_NET *104 0.000980699
*CONN
*I *2997:D I *D sg13cmos5l_dfrbpq_1
*I *2543:X O *D sg13cmos5l_and2_1
*CAP
1 *2997:D 0.000128385
2 *2543:X 0.000119855
3 *104:8 0.00024824
4 *2997:D *2609:A0 0.00024211
5 *2997:D *1157:31 0.00024211
6 *104:8 *302:10 0
7 *104:8 *706:32 0
8 *104:8 *1031:36 0
*RES
1 *2543:X *104:8 41.339 
2 *104:8 *2997:D 41.6171 
*END

*D_NET *105 0.00118855
*CONN
*I *2999:D I *D sg13cmos5l_dfrbpq_1
*I *2545:X O *D sg13cmos5l_and2_1
*CAP
1 *2999:D 0
2 *2545:X 0.00040153
3 *105:10 0.00040153
4 *105:10 *2545:B 0.000144234
5 *105:10 *2609:A0 0
6 *105:10 *187:14 0
7 *105:10 *766:63 0.000241259
8 *105:10 *1092:45 0
*RES
1 *2545:X *105:10 43.9449 
2 *105:10 *2999:D 40 
*END

*D_NET *106 9.45957e-05
*CONN
*I *3001:D I *D sg13cmos5l_dfrbpq_1
*I *2547:X O *D sg13cmos5l_and2_1
*CAP
1 *3001:D 4.72978e-05
2 *2547:X 4.72978e-05
3 *3001:D *3355:A 0
*RES
1 *2547:X *3001:D 40.5974 
*END

*D_NET *107 9.45957e-05
*CONN
*I *3003:D I *D sg13cmos5l_dfrbpq_1
*I *2549:X O *D sg13cmos5l_and2_1
*CAP
1 *3003:D 4.72978e-05
2 *2549:X 4.72978e-05
3 *3003:D *2987:RESET_B 0
*RES
1 *2549:X *3003:D 40.5974 
*END

*D_NET *108 0.0022891
*CONN
*I *3005:D I *D sg13cmos5l_dfrbpq_1
*I *2552:X O *D sg13cmos5l_and2_1
*CAP
1 *3005:D 0.000112498
2 *2552:X 0.000443061
3 *108:10 0.000555558
4 *3005:D *307:12 0.000144877
5 *108:10 *2345:B 0
6 *108:10 *622:8 0
7 *108:10 *634:29 0
8 *108:10 *1094:32 0.00103311
*RES
1 *2552:X *108:10 45.5517 
2 *108:10 *3005:D 40.9682 
*END

*D_NET *109 0.00173257
*CONN
*I *3007:D I *D sg13cmos5l_dfrbpq_1
*I *2554:X O *D sg13cmos5l_and2_1
*CAP
1 *3007:D 0.0001217
2 *2554:X 0.00064837
3 *109:10 0.00077007
4 *3007:D *3007:RESET_B 0
5 *109:10 *634:8 0
6 *109:10 *654:24 0
7 *109:10 *811:8 0
8 *109:10 *813:14 0.000112388
9 *109:10 *1087:12 0
10 sel_load_src_o[5] *109:10 8.0046e-05
*RES
1 *2554:X *109:10 45.7989 
2 *109:10 *3007:D 40.9682 
*END

*D_NET *110 0.000409282
*CONN
*I *3009:D I *D sg13cmos5l_dfrbpq_1
*I *2556:X O *D sg13cmos5l_and2_1
*CAP
1 *3009:D 2.82604e-05
2 *2556:X 2.38903e-05
3 *110:8 5.21507e-05
4 *3009:D *2556:B 0
5 *3009:D *924:8 4.77425e-05
6 *110:8 *1103:64 0.000128576
7 *110:8 *1129:130 0.000128662
*RES
1 *2556:X *110:8 40.5974 
2 *110:8 *3009:D 40.3193 
*END

*D_NET *111 0.00264796
*CONN
*I *3011:D I *D sg13cmos5l_dfrbpq_1
*I *2558:X O *D sg13cmos5l_and2_1
*CAP
1 *3011:D 5.01279e-05
2 *2558:X 0.000498518
3 *111:10 0.000548646
4 *3011:D *2428:A 7.99779e-05
5 *3011:D *600:21 0
6 *111:10 *2431:A 0
7 *111:10 *2456:A 0.00028745
8 *111:10 *3258:A 0.000175938
9 *111:10 *222:12 0
10 *111:10 *294:31 0.000606278
11 *111:10 *663:37 0.000401019
12 *111:10 *684:32 0
*RES
1 *2558:X *111:10 46.0152 
2 *111:10 *3011:D 40.5356 
*END

*D_NET *112 0.00151235
*CONN
*I *3013:D I *D sg13cmos5l_dfrbpq_1
*I *2560:X O *D sg13cmos5l_and2_1
*CAP
1 *3013:D 0.000354937
2 *2560:X 0.000184077
3 *112:8 0.000539014
4 *3013:D *3115:CLK 0
5 *3013:D *225:53 0
6 *3013:D *737:8 0
7 *3013:D *751:27 0.00024211
8 *3013:D *751:46 0.000112018
9 *3013:D *952:10 8.01933e-05
10 *112:8 *774:25 0
11 *112:8 *952:10 0
*RES
1 *2560:X *112:8 41.5862 
2 *112:8 *3013:D 43.6977 
*END

*D_NET *113 0.0021611
*CONN
*I *3015:D I *D sg13cmos5l_dfrbpq_1
*I *2562:X O *D sg13cmos5l_and2_1
*CAP
1 *3015:D 0
2 *2562:X 0.0006876
3 *113:12 0.0006876
4 *113:12 *254:22 7.52158e-05
5 *113:12 *263:14 0.000395068
6 *113:12 *637:8 7.52158e-05
7 *113:12 *680:22 0.000240404
8 *113:12 *762:117 0
9 *113:12 *774:49 0
10 *113:12 *780:23 0
*RES
1 *2562:X *113:12 46.7671 
2 *113:12 *3015:D 40 
*END

*D_NET *114 0.00163977
*CONN
*I *3017:D I *D sg13cmos5l_dfrbpq_1
*I *2564:X O *D sg13cmos5l_and2_1
*CAP
1 *3017:D 0.000390838
2 *2564:X 0.000340402
3 *114:8 0.00073124
4 *3017:D *2467:C 0
5 *3017:D *2563:A0 0
6 *3017:D *2563:A1 0
7 *3017:D *3402:A 0.000177295
8 *3017:D *241:37 0
9 *3017:D *640:30 0
10 *114:8 *252:10 0
11 *114:8 *664:164 0
12 *114:8 *1010:22 0
*RES
1 *2564:X *114:8 43.5638 
2 *114:8 *3017:D 43.3475 
*END

*D_NET *115 9.45957e-05
*CONN
*I *3019:D I *D sg13cmos5l_dfrbpq_1
*I *2566:X O *D sg13cmos5l_and2_1
*CAP
1 *3019:D 4.72978e-05
2 *2566:X 4.72978e-05
3 *3019:D *3403:A 0
*RES
1 *2566:X *3019:D 40.5974 
*END

*D_NET *116 0.0022798
*CONN
*I *3021:D I *D sg13cmos5l_dfrbpq_1
*I *2568:X O *D sg13cmos5l_and2_1
*CAP
1 *3021:D 0
2 *2568:X 0.000650485
3 *116:12 0.000650485
4 *116:12 *2354:A1 0
5 *116:12 *957:8 0
6 *116:12 *1139:138 0
7 *76:10 *116:12 0.000978833
*RES
1 *2568:X *116:12 46.5508 
2 *116:12 *3021:D 40 
*END

*D_NET *117 0.00166424
*CONN
*I *3023:D I *D sg13cmos5l_dfrbpq_1
*I *2570:X O *D sg13cmos5l_and2_1
*CAP
1 *3023:D 0.000735877
2 *2570:X 0.000735877
3 *3023:D *2489:A 0.000144582
4 *3023:D *3023:RESET_B 0
5 *3023:D *610:10 4.79014e-05
6 *3023:D *779:23 0
*RES
1 *2570:X *3023:D 46.3139 
*END

*D_NET *118 0.00101487
*CONN
*I *3025:D I *D sg13cmos5l_dfrbpq_1
*I *2573:X O *D sg13cmos5l_and2_1
*CAP
1 *3025:D 0.000146097
2 *2573:X 2.50753e-05
3 *118:8 0.000171173
4 *3025:D *2977:D 0.000240459
5 *3025:D *915:20 0.000175655
6 *118:8 *1032:8 0.00012816
7 config_o[28] *118:8 0.000128247
*RES
1 *2573:X *118:8 40.5974 
2 *118:8 *3025:D 41.6171 
*END

*D_NET *119 0.00106875
*CONN
*I *3027:D I *D sg13cmos5l_dfrbpq_1
*I *2575:X O *D sg13cmos5l_and2_1
*CAP
1 *3027:D 0
2 *2575:X 0.000219687
3 *119:8 0.000219687
4 *119:8 *2496:C 0.000341621
5 *119:8 *2496:A 0
6 *119:8 *691:28 0.000287758
*RES
1 *2575:X *119:8 42.8222 
2 *119:8 *3027:D 40 
*END

*D_NET *120 0.00136243
*CONN
*I *3029:D I *D sg13cmos5l_dfrbpq_1
*I *2577:X O *D sg13cmos5l_and2_1
*CAP
1 *3029:D 0.000399859
2 *2577:X 0.000399859
3 *3029:D *3029:RESET_B 0.000191761
4 *3029:D *225:53 0
5 *3029:D *290:10 0
6 *3029:D *290:22 0
7 *3029:D *695:38 0.000370954
8 *3029:D *1018:10 0
*RES
1 *2577:X *3029:D 44.5114 
*END

*D_NET *121 0.00204391
*CONN
*I *3031:D I *D sg13cmos5l_dfrbpq_1
*I *2579:X O *D sg13cmos5l_and2_1
*CAP
1 *3031:D 0.000222487
2 *2579:X 0.000605201
3 *121:12 0.000827688
4 *3031:D *329:14 0
5 *121:12 *2578:A0 0
6 *121:12 *2579:B 0
7 *121:12 *2594:A0 0
8 *121:12 *2963:RESET_B 0
9 *121:12 *294:71 0.000388532
10 *121:12 *321:10 0
11 *121:12 *901:22 0
12 *121:12 *976:22 0
*RES
1 *2579:X *121:12 45.7474 
2 *121:12 *3031:D 41.6171 
*END

*D_NET *122 0.00148409
*CONN
*I *3033:D I *D sg13cmos5l_dfrbpq_1
*I *2581:X O *D sg13cmos5l_and2_1
*CAP
1 *3033:D 0
2 *2581:X 0.000267015
3 *122:8 0.000267015
4 *122:8 *748:38 0.000767537
5 *122:8 *778:57 0.000182525
6 *122:8 *1134:110 0
*RES
1 *2581:X *122:8 43.5638 
2 *122:8 *3033:D 40 
*END

*D_NET *123 0.000854104
*CONN
*I *3035:D I *D sg13cmos5l_dfrbpq_1
*I *2583:X O *D sg13cmos5l_and2_1
*CAP
1 *3035:D 0.000185166
2 *2583:X 0.000185166
3 *3035:D *2971:RESET_B 0
4 *3035:D *3207:A 0.000209544
5 *3035:D *899:22 0.000274228
*RES
1 *2583:X *3035:D 42.1836 
*END

*D_NET *124 0.00416442
*CONN
*I *3037:D I *D sg13cmos5l_dfrbpq_1
*I *2585:X O *D sg13cmos5l_and2_1
*CAP
1 *3037:D 0
2 *2585:X 0
3 *124:10 0.000847896
4 *124:6 0.000847896
5 config_o[23] *124:10 0.00246863
6 *19:10 *124:10 0
*RES
1 *2585:X *124:6 40 
2 *124:6 *124:10 31.4742 
3 *124:10 *3037:D 20 
*END

*D_NET *125 0.00226626
*CONN
*I *3039:D I *D sg13cmos5l_dfrbpq_1
*I *2587:X O *D sg13cmos5l_and2_1
*CAP
1 *3039:D 0.000670933
2 *2587:X 9.53918e-05
3 *125:8 0.000766325
4 *3039:D *3039:RESET_B 0
5 *3039:D *639:10 0.00014474
6 *3039:D *700:32 0.000209457
7 *3039:D *880:10 0
8 *3039:D *912:32 0
9 *3039:D *926:28 0
10 *3039:D *1134:97 0.000144773
11 *125:8 *1138:74 0
12 *18:24 *125:8 0.00023464
*RES
1 *2587:X *125:8 41.0918 
2 *125:8 *3039:D 46.077 
*END

*D_NET *126 0.00542864
*CONN
*I *3041:D I *D sg13cmos5l_dfrbpq_1
*I *2589:X O *D sg13cmos5l_and2_1
*CAP
1 *3041:D 0
2 *2589:X 0.000474558
3 *126:14 0.0011777
4 *126:8 0.00165226
5 *126:8 *2374:A1 0
6 *126:8 *2516:A 0
7 *126:8 *2516:B 0.000209593
8 *126:8 *3298:A 0
9 *126:8 *3371:A 0.000274463
10 *126:8 *861:12 0.000240802
11 *126:14 *2374:A0 0
12 *126:14 *2374:A1 0
13 *126:14 *3370:A 0
14 *126:14 *318:10 0.000288377
15 *126:14 *752:46 0.000613071
16 *126:14 *776:114 0.000181608
17 *126:14 *888:30 0
18 *126:14 *915:20 8.01172e-05
19 config_o[27] *126:14 0.000236081
*RES
1 *2589:X *126:8 44.6453 
2 *126:8 *126:14 31.7626 
3 *126:14 *3041:D 20 
*END

*D_NET *127 0.00319671
*CONN
*I *3043:D I *D sg13cmos5l_dfrbpq_1
*I *2591:X O *D sg13cmos5l_and2_1
*CAP
1 *3043:D 0
2 *2591:X 0.000560413
3 *127:10 0.000560413
4 *127:10 *3043:CLK 0.000395067
5 *127:10 *3207:A 0.000787739
6 *127:10 *3365:A 0
7 *127:10 *1134:14 0.000498008
8 *27:10 *127:10 0.000395067
*RES
1 *2591:X *127:10 47.1276 
2 *127:10 *3043:D 40 
*END

*D_NET *128 0.00051504
*CONN
*I *3045:D I *D sg13cmos5l_dfrbpq_1
*I *2593:X O *D sg13cmos5l_and2_1
*CAP
1 *3045:D 0.000169659
2 *2593:X 0.000169659
3 *3045:D *3045:RESET_B 0.000175721
4 *3045:D *225:53 0
*RES
1 *2593:X *3045:D 41.5347 
*END

*D_NET *129 0.00354061
*CONN
*I *3047:D I *D sg13cmos5l_dfrbpq_1
*I *2595:X O *D sg13cmos5l_and2_1
*CAP
1 *3047:D 0.000268831
2 *2595:X 0.000898024
3 *129:14 0.00116685
4 *3047:D *623:14 7.52158e-05
5 *3047:D *1043:10 0
6 *129:14 *2526:C 0
7 *129:14 *2526:A 0.000209413
8 *129:14 *2595:B 0
9 *129:14 *3359:A 0.000208271
10 *27:10 *3047:D 0.000714004
*RES
1 *2595:X *129:14 48.0443 
2 *129:14 *3047:D 43.3166 
*END

*D_NET *130 0.00103359
*CONN
*I *3049:D I *D sg13cmos5l_dfrbpq_1
*I *2600:X O *D sg13cmos5l_and2_1
*CAP
1 *3049:D 0.000428551
2 *2600:X 0.000428551
3 *3049:D *2600:B 0
4 *3049:D *3049:RESET_B 0
5 *3049:D *723:10 0.000176482
6 *3049:D *731:8 0
*RES
1 *2600:X *3049:D 44.0479 
*END

*D_NET *131 0.00256915
*CONN
*I *3051:D I *D sg13cmos5l_dfrbpq_1
*I *2602:X O *D sg13cmos5l_and2_1
*CAP
1 *3051:D 0.000133444
2 *2602:X 0.00013514
3 *131:18 0.000652816
4 *131:10 0.000654512
5 *3051:D *2618:B 0.000176521
6 *131:10 *331:36 0.000287256
7 *131:10 *1107:14 0
8 *131:10 *1107:16 0.00028826
9 *131:18 *767:97 0.000241204
*RES
1 *2602:X *131:10 41.8746 
2 *131:10 *131:18 43.6359 
3 *131:18 *3051:D 41.1845 
*END

*D_NET *132 0.000306074
*CONN
*I *3053:D I *D sg13cmos5l_dfrbpq_1
*I *2604:X O *D sg13cmos5l_and2_1
*CAP
1 *3053:D 0
2 *2604:X 2.47029e-05
3 *132:8 2.47029e-05
4 *132:8 *682:32 0.000128334
5 *132:8 *723:10 0.000128334
*RES
1 *2604:X *132:8 40.5974 
2 *132:8 *3053:D 40 
*END

*D_NET *133 0.000495385
*CONN
*I *3055:D I *D sg13cmos5l_dfrbpq_1
*I *2606:X O *D sg13cmos5l_and2_1
*CAP
1 *3055:D 0.000159556
2 *2606:X 0.000159556
3 *3055:D *2603:A0 0.000176274
4 *3055:D *2606:B 0
*RES
1 *2606:X *3055:D 41.5347 
*END

*D_NET *134 0.00175847
*CONN
*I *3057:D I *D sg13cmos5l_dfrbpq_1
*I *2608:X O *D sg13cmos5l_and2_1
*CAP
1 *3057:D 0.000158711
2 *2608:X 0.000586497
3 *134:12 0.000745208
4 *3057:D *771:42 0.000112536
5 *3057:D *1114:56 8.0194e-05
6 *134:12 *2608:B 0
7 *134:12 *3165:A 7.53228e-05
8 *134:12 *664:256 0
9 *134:12 *771:27 0
10 *134:12 *1141:115 0
*RES
1 *2608:X *134:12 44.8204 
2 *134:12 *3057:D 41.4008 
*END

*D_NET *135 0.00120701
*CONN
*I *3059:D I *D sg13cmos5l_dfrbpq_1
*I *2610:X O *D sg13cmos5l_and2_1
*CAP
1 *3059:D 0.000346149
2 *2610:X 0.000346149
3 *3059:D *2612:B 0.000466973
4 *3059:D *2614:B 0
5 *3059:D *3061:RESET_B 4.77425e-05
6 *3059:D *3063:D 0
*RES
1 *2610:X *3059:D 43.4814 
*END

*D_NET *136 0.000386223
*CONN
*I *3061:D I *D sg13cmos5l_dfrbpq_1
*I *2612:X O *D sg13cmos5l_and2_1
*CAP
1 *3061:D 0.000193111
2 *2612:X 0.000193111
3 *3061:D *2609:A1 0
4 *3061:D *2612:A 0
5 *3061:D *2612:B 0
*RES
1 *2612:X *3061:D 41.7819 
*END

*D_NET *137 0.000200338
*CONN
*I *3063:D I *D sg13cmos5l_dfrbpq_1
*I *2614:X O *D sg13cmos5l_and2_1
*CAP
1 *3063:D 0.000100169
2 *2614:X 0.000100169
3 *3063:D *2610:B 0
4 *3059:D *3063:D 0
*RES
1 *2614:X *3063:D 40.9167 
*END

*D_NET *138 0.00219381
*CONN
*I *3065:D I *D sg13cmos5l_dfrbpq_1
*I *2616:X O *D sg13cmos5l_and2_1
*CAP
1 *3065:D 0
2 *2616:X 0.000484596
3 *138:10 0.000484596
4 *138:10 *682:10 0.000446854
5 *138:10 *682:32 0.000128576
6 *138:10 *723:10 0.000554077
7 *138:10 *1100:12 7.9706e-05
8 *138:10 *1108:20 1.54008e-05
*RES
1 *2616:X *138:10 45.7062 
2 *138:10 *3065:D 40 
*END

*D_NET *139 0.000387855
*CONN
*I *3067:D I *D sg13cmos5l_dfrbpq_1
*I *2618:X O *D sg13cmos5l_and2_1
*CAP
1 *3067:D 0.000193927
2 *2618:X 0.000193927
3 *3067:D *2618:B 0
4 *47:6 *3067:D 0
*RES
1 *2618:X *3067:D 41.6171 
*END

*D_NET *140 0.00372932
*CONN
*I *3069:D I *D sg13cmos5l_dfrbpq_1
*I *2620:X O *D sg13cmos5l_and2_1
*CAP
1 *3069:D 0
2 *2620:X 0.000642828
3 *140:8 0.000642828
4 *140:8 *2620:A 0.00034079
5 *140:8 *1102:10 0
6 en_ros_o[0] *140:8 0.00210288
*RES
1 *2620:X *140:8 49.7438 
2 *140:8 *3069:D 40 
*END

*D_NET *141 0.000477292
*CONN
*I *3071:D I *D sg13cmos5l_dfrbpq_1
*I *2622:X O *D sg13cmos5l_and2_1
*CAP
1 *3071:D 0.000182772
2 *2622:X 0.000182772
3 *3071:D *2624:A 0.000111749
*RES
1 *2622:X *3071:D 41.5347 
*END

*D_NET *142 0.00121132
*CONN
*I *3073:D I *D sg13cmos5l_dfrbpq_1
*I *2624:X O *D sg13cmos5l_and2_1
*CAP
1 *3073:D 0.000477667
2 *2624:X 0.000477667
3 *3073:D *2624:B 0.000175826
4 *3073:D *3073:RESET_B 8.01612e-05
5 *3073:D *683:6 0
6 *49:14 *3073:D 0
*RES
1 *2624:X *3073:D 44.9749 
*END

*D_NET *143 0.0003993
*CONN
*I *3075:D I *D sg13cmos5l_dfrbpq_1
*I *2626:X O *D sg13cmos5l_and2_1
*CAP
1 *3075:D 0.00019965
2 *2626:X 0.00019965
3 *3075:D *2626:A 0
4 *3075:D *3075:RESET_B 0
*RES
1 *2626:X *3075:D 41.6171 
*END

*D_NET *144 0.000372452
*CONN
*I *3077:D I *D sg13cmos5l_dfrbpq_1
*I *2628:X O *D sg13cmos5l_and2_1
*CAP
1 *3077:D 0.000186226
2 *2628:X 0.000186226
3 *3077:D *672:16 0
*RES
1 *2628:X *3077:D 41.7819 
*END

*D_NET *145 0.00212434
*CONN
*I *3079:D I *D sg13cmos5l_dfrbpq_1
*I *2630:X O *D sg13cmos5l_and2_1
*CAP
1 *3079:D 0
2 *2630:X 0.000560211
3 *145:12 0.000560211
4 *145:12 *2630:B 0
5 *145:12 *2631:S 0
6 *145:12 *3079:CLK 0.000608527
7 *145:12 *3380:A 0
8 *145:12 *729:20 0
9 *145:12 *816:10 0.000395396
*RES
1 *2630:X *145:12 46.5508 
2 *145:12 *3079:D 40 
*END

*D_NET *146 0.00132936
*CONN
*I *3081:D I *D sg13cmos5l_dfrbpq_1
*I *2632:X O *D sg13cmos5l_and2_1
*CAP
1 *3081:D 0.000316655
2 *2632:X 0.000203105
3 *146:8 0.00051976
4 *3081:D *2386:B 0
5 *3081:D *3081:RESET_B 0
6 *3081:D *194:16 0
7 *3081:D *195:18 4.78521e-05
8 *3081:D *719:10 0.00024199
9 *5:6 *146:8 0
*RES
1 *2632:X *146:8 42.575 
2 *146:8 *3081:D 42.9779 
*END

*D_NET *147 0.000550799
*CONN
*I *3083:D I *D sg13cmos5l_dfrbpq_1
*I *2634:X O *D sg13cmos5l_and2_1
*CAP
1 *3083:D 9.89944e-05
2 *2634:X 9.89944e-05
3 *3083:D *2625:S 0.000176405
4 *3083:D *3083:RESET_B 0.000176405
*RES
1 *2634:X *3083:D 41.1845 
*END

*D_NET *148 0.00143828
*CONN
*I *3085:D I *D sg13cmos5l_dfrbpq_1
*I *2636:X O *D sg13cmos5l_and2_1
*CAP
1 *3085:D 5.69338e-05
2 *2636:X 0.000518372
3 *148:10 0.000575306
4 *3085:D *2633:S 0
5 *148:10 *2636:B 0
6 *148:10 *3085:RESET_B 0
7 *148:10 *721:12 0
8 *148:10 *731:49 0.000287672
*RES
1 *2636:X *148:10 44.4702 
2 *148:10 *3085:D 40.5356 
*END

*D_NET *149 0.0022611
*CONN
*I *3087:D I *D sg13cmos5l_dfrbpq_1
*I *2750:Y O *D sg13cmos5l_nand2b_2
*CAP
1 *3087:D 0.000128804
2 *2750:Y 0.000724241
3 *149:14 0.000853045
4 *3087:D *354:18 4.77425e-05
5 *3087:D *732:14 0.000112618
6 *3087:D *1146:26 0
7 *149:14 *358:10 0.000394653
8 *149:14 *499:26 0
9 *149:14 *798:12 0
10 *149:14 *876:10 0
11 *149:14 *1130:46 0
*RES
1 *2750:Y *149:14 47.21 
2 *149:14 *3087:D 41.1845 
*END

*D_NET *150 0.000284837
*CONN
*I *3089:D I *D sg13cmos5l_dfrbpq_1
*I *2758:Y O *D sg13cmos5l_a21oi_1
*CAP
1 *3089:D 0
2 *2758:Y 0.000142418
3 *150:8 0.000142418
4 *150:8 *187:14 0
5 *150:8 *788:26 0
*RES
1 *2758:Y *150:8 41.339 
2 *150:8 *3089:D 40 
*END

*D_NET *151 0.000737502
*CONN
*I *3091:D I *D sg13cmos5l_dfrbpq_1
*I *2762:Y O *D sg13cmos5l_a21oi_1
*CAP
1 *3091:D 0.000231506
2 *2762:Y 0.000231506
3 *3091:D *2769:A2 0
4 *3091:D *707:28 0.000274491
5 *3091:D *1148:28 0
*RES
1 *2762:Y *3091:D 42.678 
*END

*D_NET *152 0.0017328
*CONN
*I *3093:D I *D sg13cmos5l_dfrbpq_1
*I *2766:Y O *D sg13cmos5l_a21oi_1
*CAP
1 *3093:D 0
2 *2766:Y 0.000180159
3 *152:8 0.000180159
4 *152:8 *2765:B1 0
5 *152:8 *330:12 0
6 *152:8 *476:12 0.000659726
7 *152:8 *1121:46 0.000712758
*RES
1 *2766:Y *152:8 43.5638 
2 *152:8 *3093:D 40 
*END

*D_NET *153 0.00053023
*CONN
*I *3095:D I *D sg13cmos5l_dfrbpq_1
*I *2770:Y O *D sg13cmos5l_a21oi_1
*CAP
1 *3095:D 0.000193361
2 *2770:Y 0.000193361
3 *3095:D *2762:A2 1.54008e-05
4 *3095:D *2770:A1 4.79124e-05
5 *3095:D *2770:A2 0
6 *3095:D *757:31 8.0194e-05
7 *3095:D *1148:28 0
*RES
1 *2770:Y *3095:D 42.3793 
*END

*D_NET *154 0.00076776
*CONN
*I *3097:D I *D sg13cmos5l_dfrbpq_1
*I *2779:Y O *D sg13cmos5l_nand4_1
*CAP
1 *3097:D 0
2 *2779:Y 0.00038388
3 *154:10 0.00038388
4 *154:10 *911:10 0
5 *154:10 *1150:10 0
*RES
1 *2779:Y *154:10 43.3887 
2 *154:10 *3097:D 40 
*END

*D_NET *155 0.00103102
*CONN
*I *3099:D I *D sg13cmos5l_dfrbpq_1
*I *2784:Y O *D sg13cmos5l_a21oi_1
*CAP
1 *3099:D 0
2 *2784:Y 0.000242864
3 *155:10 0.000242864
4 *155:10 *3099:RESET_B 0.000256791
5 *155:10 *209:29 0
6 *155:10 *788:22 0.000288502
7 *155:10 *1156:23 0
*RES
1 *2784:Y *155:10 42.9561 
2 *155:10 *3099:D 40 
*END

*D_NET *156 0.00191839
*CONN
*I *3101:D I *D sg13cmos5l_dfrbpq_1
*I *2791:Y O *D sg13cmos5l_nand4_1
*CAP
1 *3101:D 5.54543e-05
2 *2791:Y 0.000363482
3 *156:8 0.000418936
4 *3101:D *481:31 8.00842e-05
5 *156:8 *2778:B1 0.000712343
6 *156:8 *890:12 0
7 *156:8 *1113:52 0
8 *156:8 *1146:8 0.000288088
*RES
1 *2791:Y *156:8 44.7998 
2 *156:8 *3101:D 40.5356 
*END

*D_NET *157 0.00110585
*CONN
*I *3103:D I *D sg13cmos5l_dfrbpq_1
*I *2797:Y O *D sg13cmos5l_a21oi_1
*CAP
1 *3103:D 0.000203877
2 *2797:Y 0.000349048
3 *157:8 0.000552925
4 *3103:D *1151:99 0
5 *157:8 *881:8 0
6 *157:8 *1125:12 0
*RES
1 *2797:Y *157:8 43.0694 
2 *157:8 *3103:D 41.6171 
*END

*D_NET *158 0.000276919
*CONN
*I *3413:A I *D sg13cmos5l_dlygate4sd3_1
*I *2802:Y O *D sg13cmos5l_a21oi_1
*CAP
1 *3413:A 9.84062e-05
2 *2802:Y 9.84062e-05
3 *3413:A *2800:B 0
4 *3413:A *2802:B1 0
5 *3413:A *1153:48 8.01064e-05
*RES
1 *2802:Y *3413:A 41.133 
*END

*D_NET *159 0.000533778
*CONN
*I *3107:D I *D sg13cmos5l_dfrbpq_1
*I *2807:Y O *D sg13cmos5l_a21oi_1
*CAP
1 *3107:D 0.0001951
2 *2807:Y 0.0001951
3 *3107:D *2804:A 0
4 *3107:D *2807:A2 0.000143577
5 *3107:D *3107:RESET_B 0
6 *3107:D *183:12 0
7 *3107:D *384:24 0
*RES
1 *2807:Y *3107:D 42.0291 
*END

*D_NET *160 0.00118054
*CONN
*I *3109:D I *D sg13cmos5l_dfrbpq_1
*I *2811:X O *D sg13cmos5l_and2_1
*CAP
1 *3109:D 0.000434234
2 *2811:X 0.000434234
3 *3109:D *2755:B 0
4 *3109:D *3273:A 0
5 *3109:D *331:24 0.000312076
*RES
1 *2811:X *3109:D 45.0367 
*END

*D_NET *161 0.00239683
*CONN
*I *3111:D I *D sg13cmos5l_dfrbpq_1
*I *2816:Y O *D sg13cmos5l_nand4_1
*CAP
1 *3111:D 0.000509308
2 *2816:Y 0.00049324
3 *161:10 0.00100255
4 *3111:D *2885:A1 0
5 *3111:D *3143:CLK 0
6 *3111:D *352:32 0
7 *3111:D *464:10 0
8 *3111:D *574:8 0
9 *3111:D *752:65 0
10 *161:10 *2884:B 0.000240978
11 *161:10 *2885:A1 0
12 *161:10 *463:33 0
13 *161:10 *487:73 0.000128662
14 *161:10 *749:20 2.20966e-05
15 *161:10 *1117:131 0
16 *161:10 *1142:104 0
*RES
1 *2816:Y *161:10 45.15 
2 *161:10 *3111:D 44.0974 
*END

*D_NET *162 0.00310063
*CONN
*I *3113:D I *D sg13cmos5l_dfrbpq_1
*I *2822:Y O *D sg13cmos5l_nand3_1
*CAP
1 *3113:D 0.000100945
2 *2822:Y 0.000749414
3 *162:12 0.000850359
4 *3113:D *521:12 0.000144611
5 *3113:D *1145:62 0
6 *162:12 *2833:C 0
7 *162:12 *521:12 0
8 *162:12 *818:10 0.00028745
9 *162:12 *836:10 0
10 *162:12 *1113:24 0
11 *162:12 *1113:46 0
12 *162:12 *1130:20 0.000565284
13 *162:12 *1154:46 0.000144052
14 *162:12 *1154:61 0.00025851
*RES
1 *2822:Y *162:12 48.4357 
2 *162:12 *3113:D 40.9682 
*END

*D_NET *163 0.000143962
*CONN
*I *3115:D I *D sg13cmos5l_dfrbpq_1
*I *2827:X O *D sg13cmos5l_and2_1
*CAP
1 *3115:D 7.1981e-05
2 *2827:X 7.1981e-05
3 *3115:D *3237:A 0
4 *3115:D *780:8 0
*RES
1 *2827:X *3115:D 40.8446 
*END

*D_NET *164 0.00160129
*CONN
*I *3117:D I *D sg13cmos5l_dfrbpq_1
*I *2833:Y O *D sg13cmos5l_nand4_1
*CAP
1 *3117:D 6.47247e-05
2 *2833:Y 0.000209144
3 *164:8 0.000273868
4 *164:8 *3264:A 0.000393822
5 *164:8 *521:12 0.000659727
6 *164:8 *532:10 0
*RES
1 *2833:Y *164:8 43.3166 
2 *164:8 *3117:D 40.5356 
*END

*D_NET *165 0.00170681
*CONN
*I *3437:A I *D sg13cmos5l_dlygate4sd3_1
*I *2838:Y O *D sg13cmos5l_nand4_1
*CAP
1 *3437:A 0
2 *2838:Y 0.000193681
3 *165:10 0.000193681
4 *165:10 *2813:B 0
5 *165:10 *427:24 0.000659726
6 *165:10 *1126:72 0.000659726
*RES
1 *2838:Y *165:10 43.605 
2 *165:10 *3437:A 40 
*END

*D_NET *166 0.00085121
*CONN
*I *3420:A I *D sg13cmos5l_dlygate4sd3_1
*I *2843:Y O *D sg13cmos5l_a21oi_1
*CAP
1 *3420:A 0.000256983
2 *2843:Y 0.000256983
3 *3420:A *2843:B1 0
4 *3420:A *2848:A1 0.000337244
5 *3420:A *466:23 0
6 *3420:A *1124:52 0
*RES
1 *2843:Y *3420:A 42.987 
*END

*D_NET *167 0.000593957
*CONN
*I *3425:A I *D sg13cmos5l_dlygate4sd3_1
*I *2848:Y O *D sg13cmos5l_a21oi_1
*CAP
1 *3425:A 0.000273052
2 *2848:Y 0.000273052
3 *3425:A *543:12 0
4 *3425:A *792:12 4.78524e-05
5 *3425:A *1124:34 0
6 *3425:A *1124:42 0
*RES
1 *2848:Y *3425:A 42.3484 
*END

*D_NET *168 0.000583352
*CONN
*I *3125:D I *D sg13cmos5l_dfrbpq_1
*I *2854:Y O *D sg13cmos5l_nand4_1
*CAP
1 *3125:D 0.000179228
2 *2854:Y 0.000179228
3 *3125:D *2856:B 0.000177093
4 *3125:D *757:72 4.7803e-05
5 *3125:D *1156:46 0
*RES
1 *2854:Y *3125:D 41.7819 
*END

*D_NET *169 0.00152839
*CONN
*I *3127:D I *D sg13cmos5l_dfrbpq_1
*I *2861:Y O *D sg13cmos5l_nand4_1
*CAP
1 *3127:D 0.000168804
2 *2861:Y 0.000271738
3 *169:16 0.000440542
4 *3127:D *2859:B1 7.9407e-05
5 *3127:D *487:52 0
6 *3127:D *555:12 0
7 *3127:D *1118:122 0.000208747
8 *3127:D *1123:51 0
9 *169:16 *2859:A2 0
10 *169:16 *2860:B2 0.000213787
11 *169:16 *209:45 0
12 *169:16 *209:62 0
13 *169:16 *550:8 2.22695e-05
14 *169:16 *553:10 0
15 *169:16 *555:12 2.04394e-05
16 *169:16 *1118:116 0.000102653
*RES
1 *2861:Y *169:16 43.3578 
2 *169:16 *3127:D 41.751 
*END

*D_NET *170 0.00362171
*CONN
*I *3129:D I *D sg13cmos5l_dfrbpq_1
*I *2868:Y O *D sg13cmos5l_nand4_1
*CAP
1 *3129:D 0.000190814
2 *2868:Y 0.000378164
3 *170:10 0.000568978
4 *3129:D *464:22 0.000337353
5 *3129:D *1113:14 0.000337353
6 *170:10 *2865:D 0.00065931
7 *170:10 *561:10 0.000234224
8 *170:10 *1130:20 8.0194e-05
9 *170:10 *1154:71 0.000712342
10 *170:10 *1155:32 0.000122981
*RES
1 *2868:Y *170:10 45.8298 
2 *170:10 *3129:D 42.266 
*END

*D_NET *171 0.000600725
*CONN
*I *3131:D I *D sg13cmos5l_dfrbpq_1
*I *2871:X O *D sg13cmos5l_and2_1
*CAP
1 *3131:D 0.000211734
2 *2871:X 0.000211734
3 *3131:D *756:36 0
4 *3131:D *780:8 0
5 *3131:D *1010:36 0.000177257
*RES
1 *2871:X *3131:D 42.2763 
*END

*D_NET *172 0.000265732
*CONN
*I *3133:D I *D sg13cmos5l_dfrbpq_1
*I *2877:Y O *D sg13cmos5l_nand4_1
*CAP
1 *3133:D 0
2 *2877:Y 8.49999e-05
3 *172:10 8.49999e-05
4 *172:10 *2872:B 4.78195e-05
5 *172:10 *1154:128 4.79124e-05
*RES
1 *2877:Y *172:10 40.9167 
2 *172:10 *3133:D 40 
*END

*D_NET *173 0.000679346
*CONN
*I *3337:A I *D sg13cmos5l_dlygate4sd3_1
*I *2882:Y O *D sg13cmos5l_a21oi_1
*CAP
1 *3337:A 5.0542e-05
2 *2882:Y 0.000200432
3 *173:10 0.000250974
4 *3337:A *2892:B1 0
5 *173:10 *2880:A 0
6 *173:10 *2882:B1 0.000177399
7 *173:10 *746:42 0
8 *173:10 *1120:14 0
9 *173:10 *1120:20 0
*RES
1 *2882:Y *173:10 42.0291 
2 *173:10 *3337:A 40.4476 
*END

*D_NET *174 0.00170448
*CONN
*I *3429:A I *D sg13cmos5l_dlygate4sd3_1
*I *2888:Y O *D sg13cmos5l_nand4_1
*CAP
1 *3429:A 0.000201649
2 *2888:Y 9.99888e-05
3 *174:8 0.000301638
4 *3429:A *1142:119 8.00842e-05
5 *174:8 *2874:A1 7.52158e-05
6 *174:8 *487:58 0.00049947
7 *174:8 *1117:131 0.000446438
*RES
1 *2888:Y *174:8 42.3278 
2 *174:8 *3429:A 41.6171 
*END

*D_NET *175 0.00145591
*CONN
*I *3362:A I *D sg13cmos5l_dlygate4sd3_1
*I *2893:Y O *D sg13cmos5l_a21oi_1
*CAP
1 *3362:A 8.58134e-05
2 *2893:Y 0.000329909
3 *175:10 0.000415722
4 *3362:A *3361:A 0.000144299
5 *3362:A *185:24 0.000111957
6 *175:10 *2663:A 0
7 *175:10 *2892:B1 0
8 *175:10 *185:24 0
9 *175:10 *740:95 0
10 *175:10 *741:145 0.000288184
11 *175:10 *1120:20 8.0023e-05
*RES
1 *2893:Y *175:10 43.3578 
2 *175:10 *3362:A 40.9682 
*END

*D_NET *176 0.000558013
*CONN
*I *3141:D I *D sg13cmos5l_dfrbpq_1
*I *2896:X O *D sg13cmos5l_and2_1
*CAP
1 *3141:D 0.000134589
2 *2896:X 0.000134589
3 *3141:D *2691:A1 0
4 *3141:D *2896:B 0
5 *3141:D *405:16 0.000176674
6 *3141:D *741:80 0.00011216
*RES
1 *2896:X *3141:D 41.5347 
*END

*D_NET *177 0.0013225
*CONN
*I *3143:D I *D sg13cmos5l_dfrbpq_1
*I *2902:Y O *D sg13cmos5l_nand4_1
*CAP
1 *3143:D 6.26207e-05
2 *2902:Y 0.000561022
3 *177:18 0.000623643
4 *177:18 *2901:B1 7.52149e-05
5 *177:18 *2902:B 0
6 *177:18 *483:39 0
*RES
1 *2902:Y *177:18 46.2109 
2 *177:18 *3143:D 40.5356 
*END

*D_NET *178 0.000198031
*CONN
*I *3145:D I *D sg13cmos5l_dfrbpq_1
*I *2905:X O *D sg13cmos5l_and2_1
*CAP
1 *3145:D 0
2 *2905:X 9.90156e-05
3 *178:8 9.90156e-05
4 *178:8 *745:90 0
5 *178:8 *753:18 0
*RES
1 *2905:X *178:8 41.0918 
2 *178:8 *3145:D 40 
*END

*D_NET *179 0.00175876
*CONN
*I *3334:A I *D sg13cmos5l_dlygate4sd3_1
*I *2910:Y O *D sg13cmos5l_a21oi_1
*CAP
1 *3334:A 0.000413437
2 *2910:Y 0.000267996
3 *179:8 0.000681433
4 *3334:A *3147:RESET_B 0
5 *3334:A *3149:RESET_B 0
6 *179:8 *747:44 0
7 *179:8 *755:16 0
8 config_o[28] *179:8 0.000395896
*RES
1 *2910:Y *179:8 42.8222 
2 *179:8 *3334:A 43.3475 
*END

*D_NET *180 0.000217289
*CONN
*I *3353:A I *D sg13cmos5l_dlygate4sd3_1
*I *2915:Y O *D sg13cmos5l_a21oi_1
*CAP
1 *3353:A 0.000108645
2 *2915:Y 0.000108645
3 *3353:A *2915:B1 0
*RES
1 *2915:Y *3353:A 41.133 
*END

*D_NET *181 0.0043303
*CONN
*I *3151:D I *D sg13cmos5l_dfrbpq_1
*I *2916:Y O *D sg13cmos5l_nor2_1
*CAP
1 *3151:D 0.00030205
2 *2916:Y 0.00051838
3 *181:16 0.00082043
4 *3151:D *858:16 0.000369698
5 *3151:D *914:8 4.71556e-05
6 *181:16 *2415:B 0.000228809
7 *181:16 *2916:A 2.20966e-05
8 *181:16 *2917:A 0
9 *181:16 *210:65 4.77534e-05
10 *181:16 *787:12 0
11 *181:16 *858:16 7.51285e-05
12 *181:16 *914:12 7.51285e-05
13 *181:16 *914:25 0.000426112
14 *181:16 *914:27 0.000427969
15 *181:16 *969:8 0
16 *181:16 *969:21 0.000340704
17 *181:16 *969:38 0.000287672
18 *181:16 *970:14 0.000341216
19 *62:10 *181:16 0
*RES
1 *2916:Y *181:16 47.9619 
2 *181:16 *3151:D 42.9149 
*END

*D_NET *182 0.000593051
*CONN
*I *3153:D I *D sg13cmos5l_dfrbpq_1
*I *2918:Y O *D sg13cmos5l_nor2_1
*CAP
1 *3153:D 5.85308e-05
2 *2918:Y 9.41159e-05
3 *182:8 0.000152647
4 *3153:D *3153:RESET_B 0
5 *182:8 *3153:RESET_B 0
6 *182:8 *1159:12 0.000287757
*RES
1 *2918:Y *182:8 41.339 
2 *182:8 *3153:D 40.5356 
*END

*D_NET *183 0.0334431
*CONN
*I *2787:A I *D sg13cmos5l_xnor2_1
*I *2737:A I *D sg13cmos5l_nor4_1
*I *2738:A I *D sg13cmos5l_nand4_1
*I *2346:A1 I *D sg13cmos5l_o21ai_1
*I *2344:Y O *D sg13cmos5l_inv_1
*CAP
1 *2787:A 0
2 *2737:A 2.93975e-05
3 *2738:A 7.85935e-05
4 *2346:A1 6.1037e-05
5 *2344:Y 0.00124656
6 *183:54 0.000953543
7 *183:46 0.00112969
8 *183:42 0.000795334
9 *183:22 0.00361401
10 *183:20 0.00355298
11 *183:18 0.0010585
12 *183:12 0.00179386
13 *2346:A1 *622:12 8.00842e-05
14 *2737:A *2737:B 1.54008e-05
15 *2737:A *2738:B 0
16 *2738:A *2738:B 1.54556e-05
17 *2738:A *395:49 0
18 *2738:A *450:31 0.000181608
19 *2738:A *758:50 0
20 *2738:A *1092:16 0
21 *183:12 *2344:A 0.00030522
22 *183:12 *2804:B 0
23 *183:12 *3107:RESET_B 0
24 *183:12 *384:18 0
25 *183:12 *384:24 0.000563309
26 *183:18 *3121:D 4.77425e-05
27 *183:18 *740:14 0
28 *183:18 *1103:39 0.00311485
29 *183:18 *1120:46 0
30 *183:18 *1124:42 0
31 *183:18 *1124:52 0.000177351
32 *183:18 *1153:31 0.00172294
33 *183:18 *1153:46 0.000532309
34 *183:22 *230:16 0
35 *183:22 *234:12 0.000713173
36 *183:22 *236:12 0.00119295
37 *183:22 *293:29 0.00135038
38 *183:22 *309:10 0
39 *183:22 *622:8 0.000607525
40 *183:22 *664:19 0
41 *183:22 *674:8 0
42 *183:22 *677:20 0
43 *183:22 *741:8 0.000181695
44 *183:22 *767:47 0.000235055
45 *183:22 *876:86 0
46 *183:22 *987:42 0
47 *183:22 *1094:20 0.003371
48 *183:22 *1094:32 0
49 *183:22 *1129:134 0.00204437
50 *183:22 *1135:33 0.000128248
51 *183:42 *759:33 0
52 *183:42 *1092:32 0
53 *183:42 *1136:42 0
54 *183:42 *1150:94 0
55 *183:46 *2714:A 0
56 *183:46 *1092:32 0.0003379
57 *183:54 *2714:B 0.000660161
58 *183:54 *2714:A 0
59 *183:54 *395:49 0
60 *183:54 *450:31 0.000128663
61 *183:54 *451:12 0.000177032
62 *183:54 *452:8 0.000394236
63 *183:54 *495:8 0.000563551
64 *183:54 *733:40 0
65 *183:54 *1092:16 0
66 *183:54 *1092:32 0
67 *183:54 *1146:118 0.000287342
68 *3107:D *183:12 0
69 *68:12 *183:22 0
*RES
1 *2344:Y *183:12 47.3542 
2 *183:12 *183:18 36.9229 
3 *183:18 *183:20 20 
4 *183:20 *183:22 45.0934 
5 *183:22 *2346:A1 40.5356 
6 *2344:Y *183:42 44.0685 
7 *183:42 *183:46 22.9149 
8 *183:46 *183:54 30.1043 
9 *183:54 *2738:A 41.1639 
10 *183:54 *2737:A 40.2225 
11 *183:46 *2787:A 20 
*END

*D_NET *184 0.00176249
*CONN
*I *2346:B1 I *D sg13cmos5l_o21ai_1
*I *2345:Y O *D sg13cmos5l_nand2_1
*CAP
1 *2346:B1 0.00023554
2 *2345:Y 0.000202407
3 *184:8 0.000437947
4 *2346:B1 *2553:S 4.77425e-05
5 *2346:B1 *3318:A 1.54008e-05
6 *2346:B1 *622:12 0.000112426
7 *2346:B1 *634:29 0
8 *2346:B1 *1054:10 0.000370324
9 *184:8 *3005:RESET_B 0.000340704
10 *184:8 *811:8 0
11 *184:8 *1094:32 0
*RES
1 *2345:Y *184:8 42.3278 
2 *184:8 *2346:B1 42.4823 
*END

*D_NET *185 0.0211403
*CONN
*I *2700:A I *D sg13cmos5l_nor3_1
*I *2834:A I *D sg13cmos5l_nor2_1
*I *2362:A1 I *D sg13cmos5l_o21ai_1
*I *2360:Y O *D sg13cmos5l_inv_1
*CAP
1 *2700:A 0
2 *2834:A 0
3 *2362:A1 5.51609e-05
4 *2360:Y 0
5 *185:49 0.00104221
6 *185:43 0.00246861
7 *185:28 0.0022977
8 *185:24 0.00251097
9 *185:16 0.000827371
10 *185:4 0.00198534
11 *2362:A1 *2362:A2 1.54008e-05
12 *185:16 *2663:A 0
13 *185:16 *2892:B1 0.000112453
14 *185:16 *2903:S 4.78028e-05
15 *185:16 *3239:A 0
16 *185:16 *595:14 0.000128576
17 *185:16 *1124:153 0.000261276
18 *185:24 *2663:A 0.000446767
19 *185:24 *3361:A 0
20 *185:24 *746:42 0.000176405
21 *185:28 *740:95 0
22 *185:28 *740:99 0
23 *185:28 *741:145 0.00592483
24 *185:28 *1004:10 0
25 *185:28 *1138:74 0.00050146
26 *185:43 *2360:A 1.54008e-05
27 *185:43 *739:72 0
28 *185:43 *739:93 0
29 *185:49 *3127:CLK 0
30 *185:49 *739:72 0
31 *185:49 *1090:10 0.000273087
32 *185:49 *1148:59 0.000978835
33 *185:49 *1148:74 0.000958638
34 *3362:A *185:24 0.000111957
35 *175:10 *185:24 0
*RES
1 *2360:Y *185:4 20 
2 *185:4 *185:16 45.047 
3 *185:16 *185:24 43.2651 
4 *185:24 *185:28 47.5422 
5 *185:28 *2362:A1 40.5356 
6 *185:4 *185:43 30.7429 
7 *185:43 *185:49 31.33 
8 *185:49 *2834:A 20 
9 *185:43 *2700:A 40 
*END

*D_NET *186 0.00601467
*CONN
*I *2362:B1 I *D sg13cmos5l_o21ai_1
*I *2361:Y O *D sg13cmos5l_nand2_1
*CAP
1 *2362:B1 0
2 *2361:Y 0.00012942
3 *186:26 0.00169147
4 *186:10 0.00182089
5 *186:26 *2356:S 0.000766593
6 *186:26 *2362:A2 0.000306597
7 *186:26 *3304:A 0
8 *186:26 *3310:A 0.000585207
9 *186:26 *281:22 0
10 *186:26 *325:10 0
11 *186:26 *619:8 0
12 *186:26 *664:327 0
13 *186:26 *912:26 0.000714489
14 *186:26 *960:8 0
15 *186:26 *1134:95 0
16 *18:24 *186:26 0
17 *20:18 *186:26 0
*RES
1 *2361:Y *186:10 41.5347 
2 *186:10 *186:26 39.8481 
3 *186:26 *2362:B1 20 
*END

*D_NET *187 0.0313545
*CONN
*I *2379:B I *D sg13cmos5l_and2_1
*I *2381:B I *D sg13cmos5l_and2_1
*I *2385:B I *D sg13cmos5l_and2_1
*I *2384:B I *D sg13cmos5l_and2_1
*I *2383:B I *D sg13cmos5l_and2_1
*I *2382:B I *D sg13cmos5l_and2_1
*I *2380:B I *D sg13cmos5l_and2_1
*I *2378:Y O *D sg13cmos5l_nor2b_1
*CAP
1 *2379:B 0
2 *2381:B 0.000188883
3 *2385:B 0
4 *2384:B 0
5 *2383:B 0
6 *2382:B 0.000358628
7 *2380:B 0
8 *2378:Y 0
9 *187:39 0.000565376
10 *187:37 0.000465772
11 *187:35 0.000538473
12 *187:24 0.000163938
13 *187:20 0.000940193
14 *187:18 0.00263502
15 *187:14 0.0058459
16 *187:10 0.00515647
17 *187:6 0.00107877
18 *2381:B *2381:A 0.000208747
19 *2381:B *1105:12 0
20 *2382:B *3385:A 4.79017e-05
21 *2382:B *1104:10 0
22 *2382:B *1110:14 0
23 *187:10 *3242:A 0
24 *187:10 *3272:A 0
25 *187:10 *209:10 0
26 *187:10 *331:24 0
27 *187:10 *908:8 0
28 *187:10 *967:8 0.000660315
29 *187:10 *968:8 0
30 *187:10 *1118:10 0
31 *187:10 *1163:20 0.000608855
32 *187:14 *2548:A1 0
33 *187:14 *2809:A1 0.000288172
34 *187:14 *3109:CLK 0
35 *187:14 *209:10 0.000128247
36 *187:14 *331:24 0
37 *187:14 *512:10 0.000395483
38 *187:14 *706:10 0
39 *187:14 *706:32 0
40 *187:14 *734:10 0.00226147
41 *187:14 *788:22 0
42 *187:14 *788:26 0
43 *187:14 *794:10 0
44 *187:14 *1092:45 0
45 *187:14 *1092:60 0
46 *187:14 *1119:25 0
47 *187:14 *1137:30 0.000341534
48 *187:14 *1137:54 0.00087443
49 *187:14 *1137:63 0
50 *187:14 *1137:74 0
51 *187:14 *1156:63 0
52 *187:18 *2536:A0 0.000744109
53 *187:18 *2536:A1 0
54 *187:18 *296:10 0.00066014
55 *187:18 *686:10 0.000341534
56 *187:18 *686:27 0
57 *187:18 *716:8 0.00193797
58 *187:18 *815:10 0
59 *187:18 *1035:8 0
60 *187:18 *1057:29 0
61 *187:18 *1105:14 0
62 *187:18 *1114:38 0.000287342
63 *187:18 *1137:74 7.52149e-05
64 *187:18 *1137:89 0.00119304
65 *187:18 *1137:101 0.000340704
66 *187:20 *2379:A 0.000498226
67 *187:20 *2623:A0 9.71568e-05
68 *187:20 *2623:A1 1.54008e-05
69 *187:20 *331:48 8.00842e-05
70 *187:20 *331:63 0.000337693
71 *187:20 *345:10 0
72 *187:20 *1057:29 8.0216e-05
73 *187:24 *2385:A 0
74 *187:24 *728:36 0.000289417
75 *187:24 *1100:12 0.00018211
76 *187:35 *2385:A 0
77 *187:35 *728:36 0.000212127
78 *187:37 *2381:A 4.77425e-05
79 *187:37 *1105:12 0
80 *187:37 *1106:10 0
81 *187:37 *1110:14 0
82 *187:39 *1106:16 0
83 *187:39 *1110:14 0
84 *98:10 *187:14 0.000181695
85 *105:10 *187:14 0
86 *150:8 *187:14 0
*RES
1 *2378:Y *187:6 40 
2 *187:6 *187:10 12.2879 
3 *187:10 *187:14 45.9071 
4 *187:14 *187:18 43.8342 
5 *187:18 *187:20 8.1061 
6 *187:20 *187:24 21.339 
7 *187:24 *2380:B 40 
8 *187:24 *187:35 21.0918 
9 *187:35 *187:37 2.266 
10 *187:37 *187:39 1.8334 
11 *187:39 *2382:B 23.5638 
12 *187:39 *2383:B 20 
13 *187:37 *2384:B 20 
14 *187:35 *2385:B 20 
15 *187:35 *2381:B 21.8334 
16 *187:20 *2379:B 20 
*END

*D_NET *188 0.00164189
*CONN
*I *2387:B I *D sg13cmos5l_nand2_1
*I *2389:A2 I *D sg13cmos5l_o21ai_1
*I *2386:Y O *D sg13cmos5l_nand2b_1
*CAP
1 *2387:B 0.00035159
2 *2389:A2 9.7574e-05
3 *2386:Y 7.01735e-05
4 *188:10 0.000449164
5 *188:8 7.01735e-05
6 *2387:B *2387:A 0
7 *2387:B *2389:B1 0
8 *2387:B *2392:B2 0.000143549
9 *2387:B *2392:C1 0
10 *2387:B *2392:B1 0.000300035
11 *2387:B *189:16 0
12 *2387:B *194:16 7.94055e-05
13 *2389:A2 *2389:B1 8.02269e-05
14 *2389:A2 *2392:C1 0
15 *2389:A2 *194:16 0
16 *188:8 *190:10 0
17 *5:6 *188:8 0
*RES
1 *2386:Y *188:8 40.5974 
2 *188:8 *188:10 20 
3 *188:10 *2389:A2 21.133 
4 *188:10 *2387:B 23.5638 
*END

*D_NET *189 0.00182086
*CONN
*I *2396:A1 I *D sg13cmos5l_a22oi_1
*I *2387:Y O *D sg13cmos5l_nand2_1
*CAP
1 *2396:A1 0.000116437
2 *2387:Y 0.000537538
3 *189:16 0.000653975
4 *2396:A1 *2394:B 0
5 *2396:A1 *2405:A1 0
6 *2396:A1 *196:10 0
7 *189:16 *2391:A 7.88655e-05
8 *189:16 *2392:C1 7.83561e-05
9 *189:16 *2395:A1 1.54008e-05
10 *189:16 *1160:38 0.000340288
11 *2387:B *189:16 0
*RES
1 *2387:Y *189:16 45.6135 
2 *189:16 *2396:A1 40.9682 
*END

*D_NET *190 0.00176503
*CONN
*I *2392:B2 I *D sg13cmos5l_a221oi_1
*I *2389:B1 I *D sg13cmos5l_o21ai_1
*I *2388:Y O *D sg13cmos5l_inv_1
*CAP
1 *2392:B2 9.48612e-05
2 *2389:B1 0.000132131
3 *2388:Y 0.000251774
4 *190:10 0.000478767
5 *2389:B1 *2389:A1 0
6 *2389:B1 *2392:C1 4.79124e-05
7 *2389:B1 *191:10 1.54008e-05
8 *2389:B1 *1160:38 0.000129089
9 *2392:B2 *2392:C1 7.72718e-05
10 *190:10 *2392:A1 7.96263e-05
11 *190:10 *718:12 0
12 *190:10 *719:10 0
13 *190:10 *1160:38 0.000234418
14 *2387:B *2389:B1 0
15 *2387:B *2392:B2 0.000143549
16 *2389:A2 *2389:B1 8.02269e-05
17 *5:6 *190:10 0
18 *188:8 *190:10 0
*RES
1 *2388:Y *190:10 42.6162 
2 *190:10 *2389:B1 41.6686 
3 *190:10 *2392:B2 40.9682 
*END

*D_NET *191 0.00114454
*CONN
*I *2396:A2 I *D sg13cmos5l_a22oi_1
*I *2389:Y O *D sg13cmos5l_o21ai_1
*CAP
1 *2396:A2 0.000114177
2 *2389:Y 0.000221317
3 *191:10 0.000335493
4 *2396:A2 *2391:A 0.00017619
5 *2396:A2 *2396:B1 0
6 *2396:A2 *2396:B2 4.77425e-05
7 *191:10 *2392:C1 0
8 *191:10 *194:16 0.000234224
9 *2389:B1 *191:10 1.54008e-05
*RES
1 *2389:Y *191:10 42.2763 
2 *191:10 *2396:A2 41.1845 
*END

*D_NET *192 0.00101109
*CONN
*I *2392:A1 I *D sg13cmos5l_a221oi_1
*I *2390:Y O *D sg13cmos5l_inv_1
*CAP
1 *2392:A1 0.00036629
2 *2390:Y 0.00036629
3 *2392:A1 *2386:B 0
4 *2392:A1 *2386:A_N 0.000111853
5 *2392:A1 *2392:B1 7.43089e-05
6 *2392:A1 *2392:A2 1.27224e-05
7 *2392:A1 *194:16 0
8 *2392:A1 *719:10 0
9 *190:10 *2392:A1 7.96263e-05
*RES
1 *2390:Y *2392:A1 43.811 
*END

*D_NET *193 0.00145274
*CONN
*I *2392:C1 I *D sg13cmos5l_a221oi_1
*I *2391:Y O *D sg13cmos5l_nor2b_1
*CAP
1 *2392:C1 0.000471869
2 *2391:Y 0.000471869
3 *2392:C1 *2391:A 0.000305467
4 *2387:B *2392:C1 0
5 *2389:B1 *2392:C1 4.79124e-05
6 *2389:A2 *2392:C1 0
7 *2392:B2 *2392:C1 7.72718e-05
8 *189:16 *2392:C1 7.83561e-05
9 *191:10 *2392:C1 0
*RES
1 *2391:Y *2392:C1 45.1603 
*END

*D_NET *194 0.00179725
*CONN
*I *2396:B1 I *D sg13cmos5l_a22oi_1
*I *2392:Y O *D sg13cmos5l_a221oi_1
*CAP
1 *2396:B1 7.51917e-05
2 *2392:Y 0.000610283
3 *194:16 0.000685475
4 *2396:B1 *2394:A_N 0
5 *2396:B1 *2405:A1 4.77425e-05
6 *194:16 *2386:B 0
7 *194:16 *2386:A_N 0
8 *194:16 *2391:B_N 0
9 *194:16 *2392:A2 6.49243e-05
10 *2387:B *194:16 7.94055e-05
11 *2389:A2 *194:16 0
12 *2392:A1 *194:16 0
13 *2396:A2 *2396:B1 0
14 *3081:D *194:16 0
15 *5:6 *194:16 0
16 *191:10 *194:16 0.000234224
*RES
1 *2392:Y *194:16 45.9431 
2 *194:16 *2396:B1 40.7519 
*END

*D_NET *195 0.00384059
*CONN
*I *2395:A1 I *D sg13cmos5l_o21ai_1
*I *2393:Y O *D sg13cmos5l_inv_1
*CAP
1 *2395:A1 7.49388e-05
2 *2393:Y 0.0010323
3 *195:18 0.00072573
4 *195:10 0.00168309
5 *2395:A1 *2387:A 0
6 *2395:A1 *2395:A2 8.00954e-05
7 *195:10 *718:12 0
8 *195:18 *2392:B1 0
9 *195:18 *3081:CLK 0
10 *195:18 *720:22 0.000181192
11 *195:18 *1161:39 0
12 *3081:D *195:18 4.78521e-05
13 *189:16 *2395:A1 1.54008e-05
*RES
1 *2393:Y *195:10 48.4872 
2 *195:10 *195:18 45.8607 
3 *195:18 *2395:A1 40.7519 
*END

*D_NET *196 0.00154826
*CONN
*I *2395:B1 I *D sg13cmos5l_o21ai_1
*I *2394:Y O *D sg13cmos5l_nand2b_1
*CAP
1 *2395:B1 0
2 *2394:Y 0.000550332
3 *196:10 0.000550332
4 *196:10 *2394:B 0
5 *196:10 *2405:A1 0
6 *196:10 *204:12 0
7 *196:10 *665:29 0
8 *196:10 *1161:39 0.000447598
9 *2396:A1 *196:10 0
*RES
1 *2394:Y *196:10 45.6444 
2 *196:10 *2395:B1 40 
*END

*D_NET *197 0.00175593
*CONN
*I *2396:B2 I *D sg13cmos5l_a22oi_1
*I *2395:Y O *D sg13cmos5l_o21ai_1
*CAP
1 *2396:B2 0.000484292
2 *2395:Y 0.000484292
3 *2396:B2 *2391:A 0
4 *2396:B2 *2405:A1 0.000660104
5 *2396:B2 *681:8 7.94957e-05
6 *2396:A2 *2396:B2 4.77425e-05
*RES
1 *2395:Y *2396:B2 45.0264 
*END

*D_NET *198 0.0032941
*CONN
*I *2405:A1 I *D sg13cmos5l_o21ai_1
*I *2396:Y O *D sg13cmos5l_a22oi_1
*CAP
1 *2405:A1 0.000915918
2 *2396:Y 0.000915918
3 *2405:A1 *2405:A2 0.000240306
4 *2405:A1 *665:29 0.000514112
5 *2396:B1 *2405:A1 4.77425e-05
6 *2396:B2 *2405:A1 0.000660104
7 *2396:A1 *2405:A1 0
8 *196:10 *2405:A1 0
*RES
1 *2396:Y *2405:A1 49.27 
*END

*D_NET *199 0.00277861
*CONN
*I *2403:B1 I *D sg13cmos5l_a22oi_1
*I *2401:A2 I *D sg13cmos5l_a21oi_1
*I *2397:Y O *D sg13cmos5l_inv_1
*CAP
1 *2403:B1 0
2 *2401:A2 4.32152e-05
3 *2397:Y 0.000685194
4 *199:23 0.000249789
5 *199:8 0.000978198
6 *2401:A2 *2399:A 1.54008e-05
7 *2401:A2 *201:10 8.0194e-05
8 *2401:A2 *722:24 6.46834e-05
9 *199:8 *2401:B1 0
10 *199:8 *2404:B1 0
11 *199:8 *3099:RESET_B 0
12 *199:8 *3099:CLK 0
13 *199:8 *201:10 0.00022605
14 *199:8 *722:24 8.01933e-05
15 *199:8 *1162:10 0
16 *199:8 *1163:10 0
17 *199:8 *1163:14 0
18 *199:23 *2404:B1 1.54008e-05
19 *199:23 *203:10 0.000340288
*RES
1 *2397:Y *199:8 27.2512 
2 *199:8 *2401:A2 20.5356 
3 *199:8 *199:23 42.3999 
4 *199:23 *2403:B1 20 
*END

*D_NET *200 0.00109264
*CONN
*I *2400:A1 I *D sg13cmos5l_a22oi_1
*I *2398:Y O *D sg13cmos5l_inv_1
*CAP
1 *2400:A1 0.000330381
2 *2398:Y 0.000330381
3 *2400:A1 *2400:B1 4.78524e-05
4 *2400:A1 *665:29 0.000336779
5 *2400:A1 *721:22 4.72443e-05
*RES
1 *2398:Y *2400:A1 43.3063 
*END

*D_NET *201 0.00274853
*CONN
*I *2400:B2 I *D sg13cmos5l_a22oi_1
*I *2404:A1 I *D sg13cmos5l_a21o_1
*I *2399:Y O *D sg13cmos5l_inv_1
*CAP
1 *2400:B2 0.000120846
2 *2404:A1 3.03288e-05
3 *2399:Y 0.000532882
4 *201:10 0.000684057
5 *2400:B2 *2400:B1 0
6 *2400:B2 *202:12 0
7 *2400:B2 *206:8 0.000182524
8 *2400:B2 *1162:16 0.000342035
9 *2404:A1 *2404:B1 4.77425e-05
10 *201:10 *2399:A 0
11 *201:10 *202:12 0
12 *201:10 *204:27 0
13 *201:10 *215:24 0
14 *201:10 *1162:16 0.000501874
15 *201:10 *1163:10 0
16 *2401:A2 *201:10 8.0194e-05
17 *199:8 *201:10 0.00022605
*RES
1 *2399:Y *201:10 45.6753 
2 *201:10 *2404:A1 40.3193 
3 *201:10 *2400:B2 41.8334 
*END

*D_NET *202 0.00183276
*CONN
*I *2401:B1 I *D sg13cmos5l_a21oi_1
*I *2400:Y O *D sg13cmos5l_a22oi_1
*CAP
1 *2401:B1 0.000154228
2 *2400:Y 0.000375975
3 *202:12 0.000530203
4 *2401:B1 *2402:A 0.000240196
5 *2401:B1 *203:10 0.000112426
6 *2401:B1 *722:24 0
7 *202:12 *206:8 0.000182524
8 *202:12 *721:22 0.000237204
9 *202:12 *722:18 0
10 *2400:B2 *202:12 0
11 *199:8 *2401:B1 0
12 *201:10 *202:12 0
*RES
1 *2400:Y *202:12 43.7389 
2 *202:12 *2401:B1 41.6171 
*END

*D_NET *203 0.00307202
*CONN
*I *2405:A2 I *D sg13cmos5l_o21ai_1
*I *2401:Y O *D sg13cmos5l_a21oi_1
*CAP
1 *2405:A2 0.000160014
2 *2401:Y 0.00039337
3 *203:10 0.000553385
4 *2405:A2 *2405:B1 8.0194e-05
5 *203:10 *2399:A 4.77425e-05
6 *203:10 *722:18 0.000797556
7 *203:10 *722:24 0.000346743
8 *2401:B1 *203:10 0.000112426
9 *2405:A1 *2405:A2 0.000240306
10 *199:23 *203:10 0.000340288
*RES
1 *2401:Y *203:10 45.768 
2 *203:10 *2405:A2 41.6171 
*END

*D_NET *204 0.00532067
*CONN
*I *2418:A I *D sg13cmos5l_nor2_1
*I *2416:A I *D sg13cmos5l_xnor2_1
*I *2403:A2 I *D sg13cmos5l_a22oi_1
*I *2402:Y O *D sg13cmos5l_inv_1
*CAP
1 *2418:A 0
2 *2416:A 5.08741e-05
3 *2403:A2 0
4 *2402:Y 0.000291471
5 *204:42 0.000973356
6 *204:27 0.00146514
7 *204:12 0.000732378
8 *2416:A *215:24 8.00842e-05
9 *204:12 *2402:A 0.000295781
10 *204:12 *1161:39 0
11 *204:27 *2402:A 0.000160578
12 *204:27 *2403:B2 0.000111928
13 *204:27 *215:24 9.71003e-05
14 *204:27 *722:24 0.000234224
15 *204:27 *1162:16 0
16 *204:42 *215:16 0.000112426
17 *204:42 *216:12 0
18 *204:42 *788:8 0.000715333
19 *196:10 *204:12 0
20 *201:10 *204:27 0
*RES
1 *2402:Y *204:12 23.2286 
2 *204:12 *2403:A2 20 
3 *204:12 *204:27 45.0058 
4 *204:27 *2416:A 20.5356 
5 *204:27 *204:42 48.858 
6 *204:42 *2418:A 20 
*END

*D_NET *205 0.000685638
*CONN
*I *2404:B1 I *D sg13cmos5l_a21o_1
*I *2403:Y O *D sg13cmos5l_a22oi_1
*CAP
1 *2404:B1 0.000271454
2 *2403:Y 0.000271454
3 *2404:B1 *2403:B2 7.9586e-05
4 *2404:B1 *721:22 0
5 *2404:A1 *2404:B1 4.77425e-05
6 *199:8 *2404:B1 0
7 *199:23 *2404:B1 1.54008e-05
*RES
1 *2403:Y *2404:B1 42.5338 
*END

*D_NET *206 0.00101662
*CONN
*I *2405:B1 I *D sg13cmos5l_o21ai_1
*I *2404:X O *D sg13cmos5l_a21o_1
*CAP
1 *2405:B1 4.73672e-05
2 *2404:X 0.000238322
3 *206:8 0.000285689
4 *206:8 *721:22 0
5 *2400:B2 *206:8 0.000182524
6 *2405:A2 *2405:B1 8.0194e-05
7 *202:12 *206:8 0.000182524
*RES
1 *2404:X *206:8 42.575 
2 *206:8 *2405:B1 40.5356 
*END

*D_NET *207 0.000912499
*CONN
*I *2406:A I *D sg13cmos5l_buf_2
*I *2405:Y O *D sg13cmos5l_o21ai_1
*CAP
1 *2406:A 0.000136678
2 *2405:Y 0.000201794
3 *207:8 0.000338472
4 *2406:A *2404:A2 0
5 *2406:A *665:29 0
6 *2406:A *1163:14 0
7 *207:8 *2400:B1 0.000235556
8 *207:8 *3197:A 0
9 *207:8 *665:8 0
*RES
1 *2405:Y *207:8 42.575 
2 *207:8 *2406:A 41.4008 
*END

*D_NET *208 0.022499
*CONN
*I *2903:S I *D sg13cmos5l_mux2_1
*I *2869:S I *D sg13cmos5l_mux2_1
*I *3243:A I *D sg13cmos5l_buf_1
*I *2406:X O *D sg13cmos5l_buf_2
*CAP
1 *2903:S 0.00157865
2 *2869:S 0
3 *3243:A 4.72978e-05
4 *2406:X 0.000802905
5 *208:31 0.00407762
6 *208:25 0.00464426
7 *208:6 0.0029955
8 *2903:S *2360:A 0
9 *2903:S *2676:A 0
10 *2903:S *2879:A 8.00842e-05
11 *2903:S *2879:B 0
12 *2903:S *2911:A 0.000144899
13 *2903:S *2911:B 0
14 *2903:S *3239:A 0
15 *2903:S *3248:A 4.77425e-05
16 *2903:S *378:12 8.00963e-05
17 *2903:S *465:26 0
18 *2903:S *595:14 0
19 *2903:S *595:30 0
20 *2903:S *734:75 0.000176559
21 *2903:S *739:104 0
22 *2903:S *753:28 0.000207854
23 *2903:S *1115:108 0.000418939
24 *2903:S *1119:121 0
25 *2903:S *1120:20 0
26 *2903:S *1124:10 4.77425e-05
27 *2903:S *1124:34 8.0216e-05
28 *208:6 *2407:A 0
29 *208:6 *3099:CLK 0
30 *208:6 *760:12 0
31 *208:6 *760:21 0
32 *208:6 *1119:8 0
33 *208:6 *1119:12 0
34 *208:6 *1119:14 0
35 *208:6 *1119:46 0.000466956
36 *208:6 *1156:31 0
37 *208:6 *1163:14 0
38 *208:25 *2768:A 0.000207964
39 *208:25 *352:10 4.77425e-05
40 *208:25 *372:25 0
41 *208:25 *478:12 0
42 *208:25 *708:12 7.98779e-05
43 *208:25 *708:36 0.000763553
44 *208:25 *708:55 0.000241401
45 *208:25 *732:31 0
46 *208:25 *758:50 0
47 *208:25 *1115:26 0
48 *208:25 *1119:46 0.00174876
49 *208:25 *1119:57 0.000112552
50 *208:25 *1156:31 0
51 *208:31 *376:10 0
52 *208:31 *376:16 0
53 *208:31 *377:8 0
54 *208:31 *429:25 0.00119828
55 *208:31 *733:32 0
56 *208:31 *763:57 0
57 *208:31 *763:76 0
58 *208:31 *763:89 0
59 *208:31 *766:39 0.00215378
60 *208:31 *1092:16 0
61 *208:31 *1124:34 0
62 *185:16 *2903:S 4.78028e-05
*RES
1 *2406:X *208:6 28.1061 
2 *208:6 *3243:A 20.5974 
3 *208:6 *208:25 41.8051 
4 *208:25 *208:31 46.7182 
5 *208:31 *2869:S 20 
6 *208:31 *2903:S 34.1952 
*END

*D_NET *209 0.0261049
*CONN
*I *2859:A1 I *D sg13cmos5l_a21oi_1
*I *2866:A1 I *D sg13cmos5l_a21oi_1
*I *3242:A I *D sg13cmos5l_buf_1
*I *2407:X O *D sg13cmos5l_buf_1
*CAP
1 *2859:A1 0.000612514
2 *2866:A1 0
3 *3242:A 0.000452701
4 *2407:X 0.000430419
5 *209:62 0.00146362
6 *209:45 0.0006247
7 *209:35 0.0014758
8 *209:33 0.00305962
9 *209:31 0.00305962
10 *209:29 0.000626154
11 *209:10 0.00150927
12 *2859:A1 *2835:D 0.000234224
13 *2859:A1 *2859:A2 3.49866e-06
14 *2859:A1 *534:14 0.000290234
15 *2859:A1 *745:8 4.7725e-05
16 *2859:A1 *1118:122 0
17 *2859:A1 *1123:51 0
18 *2859:A1 *1148:59 0.000288174
19 *3242:A *331:14 0
20 *3242:A *788:12 0
21 *3242:A *967:8 0.000234727
22 *3242:A *1156:23 0
23 *209:10 *3099:CLK 4.75151e-05
24 *209:10 *1156:23 0
25 *209:29 *2762:A2 0.000112426
26 *209:29 *2784:B1 0
27 *209:29 *3099:RESET_B 0
28 *209:29 *757:8 0.000241759
29 *209:29 *757:31 6.46834e-05
30 *209:29 *1116:28 0.00018128
31 *209:29 *1121:76 0
32 *209:33 *2856:B 0
33 *209:33 *3095:RESET_B 0.000661009
34 *209:33 *354:49 0
35 *209:33 *707:20 0.000208999
36 *209:33 *736:8 0.000177207
37 *209:33 *757:31 0
38 *209:33 *757:72 0.000822037
39 *209:33 *759:8 4.77425e-05
40 *209:33 *761:8 0.000207854
41 *209:33 *762:41 0
42 *209:33 *1132:42 0
43 *209:33 *1147:24 0.000112519
44 *209:33 *1148:47 0.00334206
45 *209:33 *1156:31 0
46 *209:45 *2861:B 0.00116887
47 *209:45 *2868:B 0.00076579
48 *209:45 *483:22 0
49 *209:45 *550:8 0
50 *209:45 *556:14 4.77699e-05
51 *209:45 *762:59 0.00177884
52 *209:45 *1148:47 0.000128576
53 *209:45 *1154:61 0
54 *209:62 *552:12 0.000234224
55 *209:62 *736:34 0
56 *209:62 *1088:10 0.000402695
57 *209:62 *1115:16 0
58 *209:62 *1117:66 0
59 *209:62 *1118:116 0
60 *209:62 *1122:53 0.000756811
61 *209:62 *1148:47 5.30319e-05
62 *155:10 *209:29 0
63 *169:16 *209:45 0
64 *169:16 *209:62 0
65 *187:10 *3242:A 0
66 *187:10 *209:10 0
67 *187:14 *209:10 0.000128247
*RES
1 *2407:X *209:10 43.6359 
2 *209:10 *3242:A 44.0376 
3 *209:10 *209:29 46.5714 
4 *209:29 *209:31 20 
5 *209:31 *209:33 31.4665 
6 *209:33 *209:35 20 
7 *209:35 *209:45 31.3506 
8 *209:45 *2866:A1 20 
9 *209:35 *209:62 49.7129 
10 *209:62 *2859:A1 45.1446 
*END

*D_NET *210 0.00727869
*CONN
*I *2417:A I *D sg13cmos5l_nor2_1
*I *2414:A I *D sg13cmos5l_nor2_1
*I *2916:B I *D sg13cmos5l_nor2_1
*I *2918:A I *D sg13cmos5l_nor2_1
*I *2411:A I *D sg13cmos5l_nor2_1
*I *2420:A I *D sg13cmos5l_nor2_1
*I *2408:Y O *D sg13cmos5l_nand2_1
*CAP
1 *2417:A 0
2 *2414:A 0
3 *2916:B 0
4 *2918:A 0.000346798
5 *2411:A 5.50724e-05
6 *2420:A 0.000184924
7 *2408:Y 0.000165797
8 *210:65 0.000446921
9 *210:46 0.00100648
10 *210:40 0.00097433
11 *210:25 0.000997749
12 *210:23 0.000372672
13 *210:10 0.000542288
14 *2411:A *215:10 0
15 *2420:A *215:10 0
16 *2420:A *777:10 0
17 *2420:A *968:8 0
18 *2918:A *2409:A 3.96571e-05
19 *2918:A *2409:B 4.77425e-05
20 *2918:A *2918:B 0
21 *2918:A *211:10 0.000111
22 *210:10 *907:10 0.0004481
23 *210:10 *908:8 0
24 *210:10 *968:8 0
25 *210:25 *215:10 0
26 *210:40 *788:8 0.000394151
27 *210:46 *2409:A 6.46834e-05
28 *210:46 *2409:B 4.77425e-05
29 *210:46 *914:25 7.87737e-05
30 *210:65 *2415:B 0
31 *210:65 *787:12 4.79124e-05
32 *210:65 *969:21 0
33 *210:65 *969:38 0.00012816
34 *3155:D *210:65 0.000552831
35 *5:6 *210:65 0
36 *63:10 *210:40 0.000177148
37 *65:10 *2420:A 0
38 *65:10 *210:23 0
39 *181:16 *210:65 4.77534e-05
*RES
1 *2408:Y *210:10 42.3999 
2 *210:10 *2420:A 42.0806 
3 *210:10 *210:23 21.8334 
4 *210:23 *210:25 1.8334 
5 *210:25 *2411:A 20.5356 
6 *210:25 *210:40 46.2624 
7 *210:40 *210:46 2.0703 
8 *210:46 *2918:A 22.9355 
9 *210:46 *210:65 44.8719 
10 *210:65 *2916:B 20 
11 *210:40 *2414:A 20 
12 *210:23 *2417:A 20 
*END

*D_NET *211 0.00273509
*CONN
*I *2410:B I *D sg13cmos5l_xor2_1
*I *2409:Y O *D sg13cmos5l_nand2_1
*CAP
1 *2410:B 0.000515979
2 *2409:Y 0.000337949
3 *211:10 0.000853927
4 *2410:B *2413:B 0.000241886
5 *2410:B *2917:A 0.000369266
6 *2410:B *2917:B 0.000305088
7 *2410:B *214:12 0
8 *211:10 *1159:12 0
9 *2918:A *211:10 0.000111
10 *62:10 *2410:B 0
*RES
1 *2409:Y *211:10 42.8325 
2 *211:10 *2410:B 45.2942 
*END

*D_NET *212 0.000412606
*CONN
*I *2411:B I *D sg13cmos5l_nor2_1
*I *2410:X O *D sg13cmos5l_xor2_1
*CAP
1 *2411:B 0.000198575
2 *2410:X 0.000198575
3 *2411:B *214:12 1.54556e-05
4 *62:10 *2411:B 0
*RES
1 *2410:X *2411:B 41.751 
*END

*D_NET *213 0.00355026
*CONN
*I *2413:B I *D sg13cmos5l_xor2_1
*I *2412:Y O *D sg13cmos5l_nand3_1
*CAP
1 *2413:B 0.000130761
2 *2412:Y 0.000534754
3 *213:10 0.000665515
4 *213:10 *3279:A 0.00012816
5 *213:10 *3332:A 0
6 *213:10 *823:14 0.000499887
7 *213:10 *858:8 0.000234726
8 *213:10 *972:10 0
9 *2410:B *2413:B 0.000241886
10 *62:10 *2413:B 0.000241886
11 *63:10 *213:10 0.000872683
*RES
1 *2412:Y *213:10 47.2512 
2 *213:10 *2413:B 41.6171 
*END

*D_NET *214 0.00342831
*CONN
*I *3331:A I *D sg13cmos5l_dlygate4sd3_1
*I *2413:X O *D sg13cmos5l_xor2_1
*CAP
1 *3331:A 0.00017051
2 *2413:X 0.000992431
3 *214:12 0.00116294
4 *3331:A *971:10 0
5 *3331:A *972:10 0
6 *214:12 *972:10 0.00108697
7 *2410:B *214:12 0
8 *2411:B *214:12 1.54556e-05
9 *62:10 *214:12 0
*RES
1 *2413:X *214:12 48.5593 
2 *214:12 *3331:A 41.4008 
*END

*D_NET *215 0.00594176
*CONN
*I *2418:B I *D sg13cmos5l_nor2_1
*I *2416:B I *D sg13cmos5l_xnor2_1
*I *2415:Y O *D sg13cmos5l_nand4_1
*CAP
1 *2418:B 0
2 *2416:B 0
3 *2415:Y 0.000872709
4 *215:24 0.000622163
5 *215:16 0.000724292
6 *215:10 0.000974838
7 *215:10 *2415:C 0
8 *215:10 *788:8 0
9 *215:24 *3151:CLK 0
10 *215:24 *216:12 0.00172345
11 *215:24 *217:8 0
12 *215:24 *692:8 0
13 *215:24 *907:10 0
14 *215:24 *1118:10 0
15 *215:24 *1163:10 0
16 *2411:A *215:10 0
17 *2416:A *215:24 8.00842e-05
18 *2420:A *215:10 0
19 *3443:A *215:10 0
20 *62:10 *215:10 0
21 *64:8 *215:10 0.000341205
22 *65:10 *215:10 0
23 *65:10 *215:24 0.000393493
24 *201:10 *215:24 0
25 *204:27 *215:24 9.71003e-05
26 *204:42 *215:16 0.000112426
27 *210:25 *215:10 0
*RES
1 *2415:Y *215:10 49.167 
2 *215:10 *215:16 21.1021 
3 *215:16 *215:24 49.5378 
4 *215:24 *2416:B 20 
5 *215:16 *2418:B 20 
*END

*D_NET *216 0.00361339
*CONN
*I *2417:B I *D sg13cmos5l_nor2_1
*I *2416:Y O *D sg13cmos5l_xnor2_1
*CAP
1 *2417:B 0
2 *2416:Y 0.000641787
3 *216:12 0.000641787
4 *216:12 *3151:CLK 0
5 *216:12 *788:8 0
6 *64:8 *216:12 0.000606364
7 *65:10 *216:12 0
8 *204:42 *216:12 0
9 *215:24 *216:12 0.00172345
*RES
1 *2416:Y *216:12 49.9807 
2 *216:12 *2417:B 40 
*END

*D_NET *217 0.00183568
*CONN
*I *2419:B I *D sg13cmos5l_xnor2_1
*I *2418:Y O *D sg13cmos5l_nor2_1
*CAP
1 *2419:B 0.000609197
2 *2418:Y 0.000137998
3 *217:8 0.000747195
4 *2419:B *2419:A 0
5 *2419:B *3159:RESET_B 0
6 *2419:B *3161:RESET_B 0
7 *2419:B *3328:A 0
8 *2419:B *788:12 0
9 *217:8 *907:10 0
10 *3159:D *2419:B 0
11 *65:10 *217:8 0.000341292
12 *215:24 *217:8 0
*RES
1 *2418:Y *217:8 41.8334 
2 *217:8 *2419:B 45.6444 
*END

*D_NET *218 0.000398087
*CONN
*I *3328:A I *D sg13cmos5l_dlygate4sd3_1
*I *2419:Y O *D sg13cmos5l_xnor2_1
*CAP
1 *3328:A 0.000199044
2 *2419:Y 0.000199044
3 *3328:A *2419:A 0
4 *3328:A *788:12 0
5 *2419:B *3328:A 0
*RES
1 *2419:Y *3328:A 41.751 
*END

*D_NET *219 0.0197145
*CONN
*I *2422:B I *D sg13cmos5l_nor2_1
*I *2425:B I *D sg13cmos5l_or2_1
*I *2421:Y O *D sg13cmos5l_nand2_1
*CAP
1 *2422:B 0
2 *2425:B 0
3 *2421:Y 0
4 *219:51 0.000412026
5 *219:30 0.000458079
6 *219:24 0.0010496
7 *219:18 0.00106829
8 *219:12 0.00320048
9 *219:6 0.00313573
10 *219:12 *293:10 0
11 *219:12 *293:25 0
12 *219:12 *293:29 0.000340288
13 *219:12 *472:10 0
14 *219:12 *478:12 0.00262814
15 *219:12 *500:10 0.00108407
16 *219:12 *501:8 0
17 *219:12 *664:32 0
18 *219:12 *673:8 0
19 *219:12 *673:18 0
20 *219:12 *762:8 0.000181694
21 *219:12 *765:27 0
22 *219:12 *876:10 0
23 *219:12 *881:8 0
24 *219:12 *987:36 0
25 *219:12 *1077:8 0.000128662
26 *219:18 *2847:A1 0.000111658
27 *219:18 *1124:119 0.000111658
28 *219:24 *3123:CLK 0
29 *219:24 *3237:A 0
30 *219:24 *741:63 8.01612e-05
31 *219:24 *987:42 0.00210427
32 *219:24 *1124:119 0.00119715
33 *219:24 *1125:27 0
34 *219:24 *1153:93 0
35 *219:30 *3123:CLK 0.000234224
36 *219:30 *741:18 0.000234224
37 *219:51 *758:125 0.000859056
38 *219:51 *763:36 0.000111476
39 *219:51 *766:55 0
40 *219:51 *767:47 0
41 *219:51 *876:86 0
42 *219:51 *1129:22 0.000111476
43 *219:51 *1136:54 1.50831e-05
44 *219:51 *1146:66 0.000856973
*RES
1 *2421:Y *219:6 40 
2 *219:6 *219:12 33.0939 
3 *219:12 *219:18 40.7519 
4 *219:18 *219:24 33.0913 
5 *219:24 *219:30 41.0918 
6 *219:30 *2425:B 20 
7 *219:30 *219:51 46.5508 
8 *219:51 *2422:B 20 
*END

*D_NET *220 0.0247508
*CONN
*I *2459:A I *D sg13cmos5l_buf_1
*I *2525:B I *D sg13cmos5l_nand2_1
*I *2491:A I *D sg13cmos5l_buf_1
*I *2522:B I *D sg13cmos5l_nand2_1
*I *2423:A I *D sg13cmos5l_buf_1
*I *2422:Y O *D sg13cmos5l_nor2_1
*CAP
1 *2459:A 0.000451058
2 *2525:B 0
3 *2491:A 3.04484e-05
4 *2522:B 0.000409605
5 *2423:A 3.27906e-05
6 *2422:Y 0.000309328
7 *220:83 0.000424369
8 *220:64 0.000705836
9 *220:47 0.000660622
10 *220:45 0.0024587
11 *220:35 0.00290976
12 *220:33 0.00179581
13 *220:10 0.00213793
14 *2423:A *1140:14 0
15 *2423:A *1140:22 0
16 *2423:A *1140:39 4.77425e-05
17 *2459:A *2561:A1 0
18 *2459:A *3015:CLK 0
19 *2459:A *247:8 0
20 *2459:A *742:82 0.00159428
21 *2459:A *751:48 0.00162141
22 *2459:A *1135:80 0
23 *2459:A *1135:95 0
24 *2459:A *1135:108 0
25 *2491:A *269:10 0
26 *2491:A *695:8 4.77866e-05
27 *2491:A *1127:30 1.54008e-05
28 *2522:B *2368:A0 0.000501874
29 *2522:B *2522:A 0
30 *2522:B *3135:CLK 0.000129077
31 *2522:B *225:53 0
32 *2522:B *695:10 0.000554906
33 *2522:B *695:12 0.000181279
34 *2522:B *1021:34 0.00023464
35 *220:10 *710:20 0
36 *220:10 *1140:22 0
37 *220:10 *1146:66 0
38 *220:33 *2350:A1 0
39 *220:33 *294:52 0.00177435
40 *220:33 *611:29 0
41 *220:33 *660:20 0
42 *220:33 *690:16 0
43 *220:33 *690:38 0.000112226
44 *220:33 *710:20 0.000396105
45 *220:33 *963:8 0.000234224
46 *220:33 *1033:30 0.000663018
47 *220:33 *1095:10 0.000208981
48 *220:33 *1140:22 7.52149e-05
49 *220:33 *1146:66 0
50 *220:45 *2471:A 0
51 *220:45 *2473:C 0
52 *220:45 *2949:RESET_B 0
53 *220:45 *637:37 0
54 *220:45 *737:8 0.000499749
55 *220:45 *742:82 0.00034112
56 *220:45 *750:52 0.00027267
57 *220:45 *751:48 0.000341216
58 *220:45 *857:10 0
59 *220:45 *874:10 0
60 *220:45 *965:10 0
61 *220:45 *988:14 0.000144673
62 *220:45 *1128:55 0.000219971
63 *220:64 *2368:A0 0.000394151
64 *220:64 *2967:CLK 7.51285e-05
65 *220:64 *695:10 0.000796726
66 *220:64 *744:42 0
67 *220:83 *269:10 0
68 *220:83 *292:8 0.000607697
69 *220:83 *695:8 0.00019351
70 *220:83 *976:22 4.81157e-05
71 *220:83 *976:26 2.20966e-05
72 *220:83 *999:16 7.52158e-05
73 *18:14 *220:45 0
*RES
1 *2422:Y *220:10 42.6471 
2 *220:10 *2423:A 40.3193 
3 *220:10 *220:33 39.4361 
4 *220:33 *220:35 20 
5 *220:35 *220:45 43.1544 
6 *220:45 *220:47 20 
7 *220:47 *2522:B 45.8607 
8 *220:47 *220:64 24.3775 
9 *220:64 *2491:A 20.3193 
10 *220:64 *220:83 45.356 
11 *220:83 *2525:B 20 
12 *220:35 *2459:A 48.8374 
*END

*D_NET *221 0.00858855
*CONN
*I *3262:A I *D sg13cmos5l_buf_1
*I *2439:B I *D sg13cmos5l_nand2_1
*I *2453:B I *D sg13cmos5l_nand2_1
*I *2423:X O *D sg13cmos5l_buf_1
*CAP
1 *3262:A 0
2 *2439:B 0.000250832
3 *2453:B 3.04664e-05
4 *2423:X 0.00040586
5 *221:38 0.000348567
6 *221:12 0.000281298
7 *221:10 0.0012801
8 *221:6 0.00203453
9 *2439:B *2441:B 0
10 *2439:B *2454:C 0
11 *2439:B *3251:A 0
12 *2439:B *3308:A 1.54008e-05
13 *2453:B *2453:A 0
14 *2453:B *2454:C 0
15 *2453:B *2455:A 0
16 *221:6 *2447:B 0
17 *221:6 *2447:C 4.77425e-05
18 *221:6 *2448:B 0
19 *221:6 *766:95 0.000270196
20 *221:6 *767:47 0
21 *221:6 *1140:39 0
22 *221:10 *224:29 0
23 *221:10 *224:52 0
24 *221:10 *225:31 0.000552831
25 *221:10 *244:8 0.000658566
26 *221:10 *245:14 0.000499799
27 *221:10 *254:10 0
28 *221:10 *628:8 0
29 *221:10 *766:95 7.51285e-05
30 *221:10 *772:27 0.000500215
31 *221:10 *1128:12 0
32 *221:10 *1139:16 0.000181694
33 *221:10 *1139:26 0.000659397
34 *221:38 *225:31 0.00023464
35 *221:38 *237:10 0
36 *221:38 *766:95 0
37 *221:38 *1136:42 0.000181192
38 *221:38 *1147:46 8.00842e-05
*RES
1 *2423:X *221:6 23.5638 
2 *221:6 *221:10 35.4294 
3 *221:10 *221:12 20 
4 *221:12 *2453:B 20.2313 
5 *221:12 *2439:B 22.3999 
6 *221:6 *221:38 43.8934 
7 *221:38 *3262:A 20 
*END

*D_NET *222 0.00342856
*CONN
*I *2429:B I *D sg13cmos5l_nand3_1
*I *2424:Y O *D sg13cmos5l_nand2_1
*CAP
1 *2429:B 6.51273e-05
2 *2424:Y 0.000844194
3 *222:12 0.000909322
4 *2429:B *2429:C 0.000112332
5 *2429:B *2429:A 4.78028e-05
6 *2429:B *2456:A 0
7 *222:12 *2424:A 0.000144785
8 *222:12 *2424:B 8.03692e-05
9 *222:12 *306:35 0
10 *222:12 *600:29 4.68099e-05
11 *222:12 *658:28 0
12 *222:12 *684:32 0
13 *222:12 *770:16 0.000287256
14 *222:12 *953:16 0
15 *222:12 *959:8 0.000503292
16 *222:12 *1125:37 0
17 *222:12 *1125:58 0
18 *222:12 *1140:66 0.00038727
19 *111:10 *222:12 0
*RES
1 *2424:Y *222:12 48.961 
2 *222:12 *2429:B 40.7519 
*END

*D_NET *223 0.00206359
*CONN
*I *2426:A I *D sg13cmos5l_buf_1
*I *2425:X O *D sg13cmos5l_or2_1
*CAP
1 *2426:A 0
2 *2425:X 0.000518616
3 *223:10 0.000518616
4 *223:10 *757:39 0.000818406
5 *223:10 *1129:22 0.000207948
*RES
1 *2425:X *223:10 45.2118 
2 *223:10 *2426:A 40 
*END

*D_NET *224 0.0124544
*CONN
*I *2449:B I *D sg13cmos5l_nand2_1
*I *2483:A I *D sg13cmos5l_buf_1
*I *2451:A I *D sg13cmos5l_buf_1
*I *2427:A I *D sg13cmos5l_buf_1
*I *2446:B I *D sg13cmos5l_nand2_1
*I *2426:X O *D sg13cmos5l_buf_1
*CAP
1 *2449:B 0.000121191
2 *2483:A 0
3 *2451:A 0
4 *2427:A 0.000122196
5 *2446:B 0
6 *2426:X 0.000298373
7 *224:72 0.000847428
8 *224:59 0.00118692
9 *224:52 0.00104976
10 *224:37 0.000463433
11 *224:29 0.00147667
12 *224:18 0.000617582
13 *224:12 0.000369598
14 *2427:A *1094:14 0.000144043
15 *2449:B *2449:A 0
16 *2449:B *2450:C 0.000176482
17 *2449:B *952:10 0.000208912
18 *224:12 *757:39 0.000607109
19 *224:12 *757:49 0.000176048
20 *224:12 *757:55 2.21831e-05
21 *224:12 *758:131 0
22 *224:12 *1140:10 0.000235153
23 *224:18 *2931:RESET_B 0
24 *224:18 *952:22 3.16073e-05
25 *224:29 *225:31 0
26 *224:29 *952:22 6.46834e-05
27 *224:29 *1139:16 5.30319e-05
28 *224:29 *1139:26 0.000659397
29 *224:37 *2349:A1 0.000176161
30 *224:37 *2351:A1 0
31 *224:37 *758:131 0.00012816
32 *224:37 *1094:14 7.91362e-05
33 *224:52 *636:34 0.000337982
34 *224:52 *772:27 0.000340704
35 *224:52 *1139:16 0.000128663
36 *224:59 *631:10 0.000111804
37 *224:59 *636:34 0.000225088
38 *224:72 *636:34 0.000112426
39 *224:72 *637:18 0
40 *224:72 *760:65 0
41 *224:72 *763:105 0.00188245
42 *224:72 *774:40 0
43 *224:72 *1053:8 0
44 *221:10 *224:29 0
45 *221:10 *224:52 0
*RES
1 *2426:X *224:12 44.2024 
2 *224:12 *224:18 20.6695 
3 *224:18 *2446:B 20 
4 *224:18 *224:29 25.4281 
5 *224:29 *224:37 43.296 
6 *224:37 *2427:A 40.9682 
7 *224:29 *224:52 25.5826 
8 *224:52 *2451:A 20 
9 *224:52 *224:59 3.9964 
10 *224:59 *2483:A 20 
11 *224:59 *224:72 49.5069 
12 *224:72 *2449:B 21.4008 
*END

*D_NET *225 0.0193134
*CONN
*I *2521:B I *D sg13cmos5l_nand2_1
*I *2524:B I *D sg13cmos5l_nand2_1
*I *3252:A I *D sg13cmos5l_buf_1
*I *2427:X O *D sg13cmos5l_buf_1
*CAP
1 *2521:B 7.66551e-05
2 *2524:B 0
3 *3252:A 0
4 *2427:X 0.000274089
5 *225:59 8.97237e-05
6 *225:53 0.00517463
7 *225:31 0.00560974
8 *225:18 0.000690117
9 *225:10 0.0012916
10 *225:8 0.000274089
11 *2521:B *3045:RESET_B 0
12 *225:8 *660:39 0
13 *225:8 *963:8 0
14 *225:8 *1146:66 0.000552831
15 *225:18 *2350:A1 1.54008e-05
16 *225:18 *2430:A 0
17 *225:18 *2931:RESET_B 0
18 *225:18 *227:8 0.00012816
19 *225:18 *660:20 0.000241341
20 *225:18 *710:20 0.000466064
21 *225:18 *734:103 0
22 *225:18 *1140:32 0
23 *225:31 *2350:A1 0.000594907
24 *225:31 *2931:RESET_B 4.78028e-05
25 *225:31 *237:10 0.000128247
26 *225:31 *628:8 0.000181608
27 *225:31 *952:22 0
28 *225:31 *1139:26 8.00842e-05
29 *225:53 *2450:C 0
30 *225:53 *2521:A 0
31 *225:53 *2522:A 0
32 *225:53 *2933:RESET_B 0.000209374
33 *225:53 *2981:RESET_B 0
34 *225:53 *2981:D 4.79124e-05
35 *225:53 *3029:RESET_B 0
36 *225:53 *3045:RESET_B 6.99179e-05
37 *225:53 *3115:CLK 0
38 *225:53 *3135:CLK 0.000597428
39 *225:53 *3139:CLK 0
40 *225:53 *3194:A 0.000112558
41 *225:53 *3336:A 0
42 *225:53 *3360:A 0
43 *225:53 *237:10 0
44 *225:53 *290:10 0
45 *225:53 *291:8 0
46 *225:53 *614:18 0
47 *225:53 *664:19 0
48 *225:53 *664:111 0
49 *225:53 *664:115 0
50 *225:53 *689:6 0
51 *225:53 *689:35 0
52 *225:53 *750:18 0
53 *225:53 *751:27 8.00279e-05
54 *225:53 *755:10 0
55 *225:53 *773:57 0
56 *225:53 *841:8 0
57 *225:53 *844:10 0.000530355
58 *225:53 *887:8 0
59 *225:53 *891:10 0.000274765
60 *225:53 *944:12 0
61 *225:53 *952:10 0
62 *225:53 *999:16 0.000371636
63 *225:53 *1004:10 0
64 *225:53 *1018:10 0
65 *225:53 *1021:20 0
66 *225:53 *1021:34 0
67 *225:53 *1129:50 0
68 *225:53 *1144:47 0
69 *225:53 *1147:46 8.00954e-05
70 *225:59 *922:12 0.000234726
71 *225:59 *1076:22 0
72 *2522:B *225:53 0
73 *3013:D *225:53 0
74 *3029:D *225:53 0
75 *3045:D *225:53 0
76 *25:8 *225:53 0
77 *221:10 *225:31 0.000552831
78 *221:38 *225:31 0.00023464
79 *224:29 *225:31 0
*RES
1 *2427:X *225:8 43.0694 
2 *225:8 *225:10 20 
3 *225:10 *225:18 46.9731 
4 *225:18 *3252:A 20 
5 *225:10 *225:31 47.5602 
6 *225:31 *225:53 48.41 
7 *225:53 *225:59 41.0918 
8 *225:59 *2524:B 20 
9 *225:53 *2521:B 21.0918 
*END

*D_NET *226 0.0016653
*CONN
*I *2429:C I *D sg13cmos5l_nand3_1
*I *2428:Y O *D sg13cmos5l_nand2_1
*CAP
1 *2429:C 0.000672493
2 *2428:Y 0.000672493
3 *2429:C *2428:A 0
4 *2429:C *2921:RESET_B 0
5 *2429:C *3011:RESET_B 0.000207986
6 *2429:B *2429:C 0.000112332
7 *66:18 *2429:C 0
*RES
1 *2428:Y *2429:C 46.6641 
*END

*D_NET *227 0.00102888
*CONN
*I *2432:B I *D sg13cmos5l_nand3_1
*I *2430:Y O *D sg13cmos5l_nand2_1
*CAP
1 *2432:B 0
2 *2430:Y 0.00017415
3 *227:8 0.00017415
4 *227:8 *732:37 0.000552415
5 *227:8 *734:103 0
6 *225:18 *227:8 0.00012816
*RES
1 *2430:Y *227:8 42.575 
2 *227:8 *2432:B 40 
*END

*D_NET *228 0.00494211
*CONN
*I *2432:C I *D sg13cmos5l_nand3_1
*I *2431:Y O *D sg13cmos5l_nand2_1
*CAP
1 *2432:C 0.000913932
2 *2431:Y 0.000578087
3 *228:8 0.00149202
4 *2432:C *2923:RESET_B 0.000241132
5 *2432:C *636:10 0.000287845
6 *2432:C *661:18 0.000176564
7 *2432:C *1103:41 0
8 *2432:C *1125:27 0
9 *2432:C *1135:14 0
10 *228:8 *2431:A 0.000272801
11 *228:8 *2431:B 4.74263e-05
12 *228:8 *2456:A 0
13 *228:8 *3258:A 0
14 *228:8 *987:46 0.000176743
15 *66:18 *2432:C 0.00012816
16 *66:18 *228:8 0.000627397
*RES
1 *2431:Y *228:8 45.7268 
2 *228:8 *2432:C 49.6305 
*END

*D_NET *229 0.0009063
*CONN
*I *2435:B I *D sg13cmos5l_nand3_1
*I *2433:Y O *D sg13cmos5l_nand2_1
*CAP
1 *2435:B 9.09364e-05
2 *2433:Y 0.000212748
3 *229:18 0.000303684
4 *2435:B *2435:A 1.54556e-05
5 *2435:B *2438:C 0
6 *2435:B *2440:A 0
7 *2435:B *2556:B 4.72029e-05
8 *2435:B *664:230 0
9 *229:18 *2433:A 0
10 *229:18 *2438:C 0
11 *229:18 *2535:B 0
12 *229:18 *664:230 0
13 *229:18 *1094:32 0
14 *229:18 *1103:64 0.000236274
*RES
1 *2433:Y *229:18 42.5699 
2 *229:18 *2435:B 40.9682 
*END

*D_NET *230 0.00567233
*CONN
*I *2435:C I *D sg13cmos5l_nand3_1
*I *2434:Y O *D sg13cmos5l_nand2_1
*CAP
1 *2435:C 0
2 *2434:Y 0.000131032
3 *230:22 0.000186855
4 *230:16 0.00161605
5 *230:10 0.00156023
6 *230:10 *2460:A 0.000177273
7 *230:10 *248:12 0.000111699
8 *230:16 *2345:B 0
9 *230:16 *3220:A 0
10 *230:16 *248:12 0
11 *230:16 *307:12 0.000978834
12 *230:16 *309:10 7.52158e-05
13 *230:16 *635:27 0
14 *230:16 *677:20 0.000819738
15 *230:16 *687:12 0
16 *230:16 *1027:27 1.54008e-05
17 *230:16 *1093:18 0
18 *230:16 *1129:134 0
19 *230:16 *1135:37 0
20 *230:22 *1094:32 0
21 *230:22 *1103:64 0
22 *183:22 *230:16 0
*RES
1 *2434:Y *230:10 41.5038 
2 *230:10 *230:16 35.4397 
3 *230:16 *230:22 41.8334 
4 *230:22 *2435:C 20 
*END

*D_NET *231 0.00156558
*CONN
*I *2438:B I *D sg13cmos5l_nand3_1
*I *2436:Y O *D sg13cmos5l_nand2_1
*CAP
1 *2438:B 0.000213833
2 *2436:Y 0.000326092
3 *231:12 0.000539926
4 *2438:B *2436:B 0
5 *2438:B *2438:C 1.54008e-05
6 *2438:B *662:39 0
7 *2438:B *1114:96 0.000272762
8 *231:12 *2436:B 1.54556e-05
9 *231:12 *757:55 0.000182109
10 *231:12 *1114:96 0
11 *2927:D *2438:B 0
*RES
1 *2436:Y *231:12 43.0282 
2 *231:12 *2438:B 42.0497 
*END

*D_NET *232 0.00195989
*CONN
*I *2438:C I *D sg13cmos5l_nand3_1
*I *2437:Y O *D sg13cmos5l_nand2_1
*CAP
1 *2438:C 0.00059359
2 *2437:Y 0.00059359
3 *2438:C *2440:A 0.000355819
4 *2438:C *2440:B 0.000241362
5 *2438:C *234:12 0
6 *2438:C *658:28 0
7 *2438:C *662:39 0.000144726
8 *2438:C *664:188 0
9 *2438:C *664:230 0
10 *2438:C *1129:122 1.54008e-05
11 *2435:B *2438:C 0
12 *2438:B *2438:C 1.54008e-05
13 *229:18 *2438:C 0
*RES
1 *2437:Y *2438:C 46.1697 
*END

*D_NET *233 0.00227303
*CONN
*I *2441:B I *D sg13cmos5l_nand3_1
*I *2439:Y O *D sg13cmos5l_nand2_1
*CAP
1 *2441:B 0.000687268
2 *2439:Y 0.000687268
3 *2441:B *2439:A 8.00279e-05
4 *2441:B *2441:C 1.54008e-05
5 *2441:B *2453:A 0.000273562
6 *2441:B *2454:B 4.77425e-05
7 *2441:B *2454:C 0.000128618
8 *2441:B *2454:A 0.000337693
9 *2441:B *2929:RESET_B 0
10 *2441:B *2937:D 0
11 *2441:B *897:10 0
12 *2441:B *1125:37 0
13 *2439:B *2441:B 0
14 *3303:A *2441:B 1.54556e-05
*RES
1 *2439:Y *2441:B 46.7289 
*END

*D_NET *234 0.00279443
*CONN
*I *2441:C I *D sg13cmos5l_nand3_1
*I *2440:Y O *D sg13cmos5l_nand2_1
*CAP
1 *2441:C 0.000275685
2 *2440:Y 0.000271256
3 *234:12 0.000546941
4 *2441:C *600:21 0
5 *2441:C *662:27 0.000112536
6 *2441:C *771:73 0
7 *234:12 *658:28 0.000144025
8 *234:12 *662:39 0
9 *234:12 *1135:33 0.000715418
10 *2438:C *234:12 0
11 *2441:B *2441:C 1.54008e-05
12 *183:22 *234:12 0.000713173
*RES
1 *2440:Y *234:12 44.635 
2 *234:12 *2441:C 42.4823 
*END

*D_NET *235 0.00116158
*CONN
*I *2444:B I *D sg13cmos5l_nand3_1
*I *2442:Y O *D sg13cmos5l_nand2_1
*CAP
1 *2444:B 5.46894e-05
2 *2442:Y 0.000174589
3 *235:10 0.000229278
4 *2444:B *767:47 0
5 *2444:B *1136:70 8.02379e-05
6 *235:10 *611:16 7.98053e-05
7 *235:10 *1052:12 0.00023464
8 *235:10 *1136:70 0.000292887
9 *235:10 *1140:22 1.54556e-05
10 *235:10 *1140:32 0
*RES
1 *2442:Y *235:10 42.2763 
2 *235:10 *2444:B 40.5356 
*END

*D_NET *236 0.00435681
*CONN
*I *2444:C I *D sg13cmos5l_nand3_1
*I *2443:Y O *D sg13cmos5l_nand2_1
*CAP
1 *2444:C 9.59152e-05
2 *2443:Y 0.000709244
3 *236:12 0.000805159
4 *2444:C *767:47 7.52149e-05
5 *2444:C *1052:12 0.000287343
6 *236:12 *2443:A 0.000531591
7 *236:12 *2923:RESET_B 0
8 *236:12 *2931:CLK 0.000659396
9 *236:12 *661:18 0
10 *236:12 *1052:12 0
11 *183:22 *236:12 0.00119295
*RES
1 *2443:Y *236:12 49.4245 
2 *236:12 *2444:C 41.339 
*END

*D_NET *237 0.00155829
*CONN
*I *2447:B I *D sg13cmos5l_nand3_1
*I *2445:Y O *D sg13cmos5l_nand2_1
*CAP
1 *2447:B 0.000225874
2 *2445:Y 0.000235983
3 *237:10 0.000461857
4 *2447:B *2447:C 1.54008e-05
5 *2447:B *2933:RESET_B 4.77425e-05
6 *2447:B *767:66 0.000208041
7 *2447:B *1136:54 0
8 *237:10 *2445:B 0
9 *237:10 *766:95 0.000235141
10 *2933:D *2447:B 0
11 *221:6 *2447:B 0
12 *221:38 *237:10 0
13 *225:31 *237:10 0.000128247
14 *225:53 *237:10 0
*RES
1 *2445:Y *237:10 42.4926 
2 *237:10 *2447:B 42.0497 
*END

*D_NET *238 0.0015447
*CONN
*I *2447:C I *D sg13cmos5l_nand3_1
*I *2446:Y O *D sg13cmos5l_nand2_1
*CAP
1 *2447:C 2.69249e-05
2 *2446:Y 0.000355656
3 *238:14 0.00038258
4 *2447:C *767:47 0
5 *238:14 *2448:B 0.00014382
6 *238:14 *2931:RESET_B 0.000110829
7 *238:14 *757:39 0.000287758
8 *238:14 *757:49 0.000127194
9 *238:14 *952:22 0
10 *238:14 *1140:39 4.6793e-05
11 *2447:B *2447:C 1.54008e-05
12 *221:6 *2447:C 4.77425e-05
*RES
1 *2446:Y *238:14 43.8728 
2 *238:14 *2447:C 40.3193 
*END

*D_NET *239 0.00111038
*CONN
*I *2450:B I *D sg13cmos5l_nand3_1
*I *2448:Y O *D sg13cmos5l_nand2_1
*CAP
1 *2450:B 0.000435722
2 *2448:Y 0.000435722
3 *2450:B *2933:RESET_B 0
4 *2450:B *766:95 0.000238932
5 *2450:B *767:66 0
6 *2450:B *952:22 0
*RES
1 *2448:Y *2450:B 43.7801 
*END

*D_NET *240 0.00167272
*CONN
*I *2450:C I *D sg13cmos5l_nand3_1
*I *2449:Y O *D sg13cmos5l_nand2_1
*CAP
1 *2450:C 0.00057896
2 *2449:Y 0.00057896
3 *2450:C *2449:A 0.000338317
4 *2450:C *891:10 0
5 *2450:C *952:22 0
6 *2449:B *2450:C 0.000176482
7 *73:10 *2450:C 0
8 *225:53 *2450:C 0
*RES
1 *2449:Y *2450:C 45.0203 
*END

*D_NET *241 0.0145436
*CONN
*I *2465:B I *D sg13cmos5l_nand2_1
*I *2477:B I *D sg13cmos5l_nand2_1
*I *3251:A I *D sg13cmos5l_buf_1
*I *2451:X O *D sg13cmos5l_buf_1
*CAP
1 *2465:B 0.000185889
2 *2477:B 0
3 *3251:A 0.000445341
4 *2451:X 0.000757898
5 *241:56 0.00116384
6 *241:37 0.0035111
7 *241:14 0.00373638
8 *2465:B *2465:A 8.0216e-05
9 *2465:B *277:22 4.77425e-05
10 *3251:A *2937:D 0
11 *3251:A *2939:RESET_B 4.77425e-05
12 *3251:A *697:8 4.77425e-05
13 *3251:A *1128:23 0
14 *241:14 *2561:A0 0
15 *241:14 *636:34 0.000375902
16 *241:14 *697:12 0.000553661
17 *241:14 *733:83 0
18 *241:37 *2356:S 0
19 *241:37 *2362:A2 0
20 *241:37 *2563:A0 0.000112563
21 *241:37 *2563:A1 0
22 *241:37 *2564:A 0
23 *241:37 *2937:CLK 0.000447182
24 *241:37 *3017:RESET_B 0
25 *241:37 *3304:A 1.54449e-05
26 *241:37 *252:10 0
27 *241:37 *259:10 0
28 *241:37 *259:18 0
29 *241:37 *635:27 0
30 *241:37 *640:30 0
31 *241:37 *664:164 0
32 *241:37 *664:180 0
33 *241:37 *664:327 0
34 *241:37 *697:12 5.30319e-05
35 *241:37 *697:26 0.000555321
36 *241:37 *698:10 0.000240328
37 *241:37 *698:37 0
38 *241:37 *902:8 0.000241886
39 *241:37 *912:26 0
40 *241:37 *1128:89 0
41 *241:37 *1128:95 0.000660557
42 *241:37 *1139:100 0
43 *241:56 *2356:S 0
44 *241:56 *2505:A 0.000448401
45 *241:56 *2969:RESET_B 0.000176201
46 *241:56 *3033:RESET_B 0
47 *241:56 *3304:A 0
48 *241:56 *3341:A 0.000176521
49 *241:56 *609:16 0
50 *241:56 *635:44 0
51 *241:56 *664:327 0
52 *241:56 *948:18 0
53 *241:56 *988:14 0.00044728
54 *2439:B *3251:A 0
55 *3017:D *241:37 0
56 *3309:A *241:14 1.54008e-05
*RES
1 *2451:X *241:14 47.9825 
2 *241:14 *3251:A 44.065 
3 *241:14 *241:37 44.5243 
4 *241:37 *2477:B 20 
5 *241:37 *241:56 30.2332 
6 *241:56 *2465:B 41.854 
*END

*D_NET *242 0.00128444
*CONN
*I *2454:B I *D sg13cmos5l_nand3_1
*I *2452:Y O *D sg13cmos5l_nand2_1
*CAP
1 *2454:B 2.57851e-05
2 *2452:Y 0.000360748
3 *242:12 0.000386533
4 *2454:B *2454:C 4.7803e-05
5 *242:12 *2436:B 0
6 *242:12 *2439:A 0
7 *242:12 *662:43 0
8 *242:12 *897:10 0.000234224
9 *242:12 *953:16 0.000181608
10 *242:12 *1125:37 0
11 *2441:B *2454:B 4.77425e-05
12 *3303:A *242:12 0
*RES
1 *2452:Y *242:12 43.5244 
2 *242:12 *2454:B 40.3193 
*END

*D_NET *243 0.000413405
*CONN
*I *2454:C I *D sg13cmos5l_nand3_1
*I *2453:Y O *D sg13cmos5l_nand2_1
*CAP
1 *2454:C 0.000110792
2 *2453:Y 0.000110792
3 *2454:C *2929:RESET_B 1.54008e-05
4 *2439:B *2454:C 0
5 *2441:B *2454:C 0.000128618
6 *2453:B *2454:C 0
7 *2454:B *2454:C 4.7803e-05
*RES
1 *2453:Y *2454:C 41.3802 
*END

*D_NET *244 0.0013215
*CONN
*I *2457:B I *D sg13cmos5l_nand3_1
*I *2455:Y O *D sg13cmos5l_nand2_1
*CAP
1 *2457:B 0
2 *2455:Y 0.00018763
3 *244:8 0.00018763
4 *244:8 *2558:A 0.000287672
5 *221:10 *244:8 0.000658566
*RES
1 *2455:Y *244:8 43.0694 
2 *244:8 *2457:B 40 
*END

*D_NET *245 0.00218104
*CONN
*I *2457:C I *D sg13cmos5l_nand3_1
*I *2456:Y O *D sg13cmos5l_nand2_1
*CAP
1 *2457:C 5.26859e-05
2 *2456:Y 0.000436724
3 *245:14 0.00048941
4 *2457:C *2561:A0 8.00842e-05
5 *2457:C *1095:28 1.54008e-05
6 *245:14 *2456:A 0
7 *245:14 *2469:B 8.00842e-05
8 *245:14 *627:44 0
9 *245:14 *1008:12 0
10 *245:14 *1128:12 8.00842e-05
11 *245:14 *1139:16 0.00012816
12 *245:14 *1139:62 0.000318607
13 *221:10 *245:14 0.000499799
*RES
1 *2456:Y *245:14 45.5723 
2 *245:14 *2457:C 40.5356 
*END

*D_NET *246 0.00501308
*CONN
*I *2461:B I *D sg13cmos5l_nand3_1
*I *2458:Y O *D sg13cmos5l_nand2_1
*CAP
1 *2461:B 0.000655063
2 *2458:Y 0.000667751
3 *246:8 0.00132281
4 *2461:B *2461:C 0.000112558
5 *2461:B *625:10 0
6 *2461:B *633:16 0.00114505
7 *2461:B *757:55 0.000500629
8 *2461:B *770:89 0
9 *246:8 *2458:A 0.000144261
10 *246:8 *2466:A 0
11 *246:8 *2466:B 0.000144298
12 *246:8 *252:10 0
13 *246:8 *635:27 0
14 *246:8 *902:8 0
15 *246:8 *924:8 0.000305258
16 *246:8 *1093:8 1.54008e-05
*RES
1 *2458:Y *246:8 46.1594 
2 *246:8 *2461:B 48.2709 
*END

*D_NET *247 0.0123778
*CONN
*I *2485:B I *D sg13cmos5l_nand2_1
*I *2488:B I *D sg13cmos5l_nand2_1
*I *3261:A I *D sg13cmos5l_buf_1
*I *2459:X O *D sg13cmos5l_buf_1
*CAP
1 *2485:B 0.000195743
2 *2488:B 0
3 *3261:A 0.000476885
4 *2459:X 0.000445312
5 *247:34 0.00122487
6 *247:23 0.00110071
7 *247:19 0.0015109
8 *247:8 0.00236151
9 *2485:B *2485:A 0
10 *2485:B *3454:A 0
11 *2485:B *266:12 0
12 *3261:A *663:37 0.00030564
13 *3261:A *947:10 0.000177224
14 *3261:A *1135:80 0.000791237
15 *247:8 *3015:CLK 0
16 *247:8 *663:52 0
17 *247:8 *1135:80 0.000421203
18 *247:8 *1135:95 0
19 *247:19 *733:83 0
20 *247:19 *1096:20 0
21 *247:19 *1097:14 0.000446853
22 *247:19 *1139:88 0
23 *247:23 *252:10 0.000112437
24 *247:34 *252:10 3.24568e-05
25 *247:34 *267:12 1.54008e-05
26 *247:34 *699:8 0.000447685
27 *247:34 *961:10 0.00231177
28 *247:34 *1096:20 0
29 *247:34 *1098:14 0
30 *2459:A *247:8 0
*RES
1 *2459:X *247:8 24.5938 
2 *247:8 *3261:A 25.2942 
3 *247:8 *247:19 32.2158 
4 *247:19 *247:23 20.7519 
5 *247:23 *2488:B 20 
6 *247:23 *247:34 34.0183 
7 *247:34 *2485:B 41.6171 
*END

*D_NET *248 0.00310937
*CONN
*I *2461:C I *D sg13cmos5l_nand3_1
*I *2460:Y O *D sg13cmos5l_nand2_1
*CAP
1 *2461:C 0.000296415
2 *2460:Y 0.000754938
3 *248:12 0.00105135
4 *2461:C *2551:A1 0.000177233
5 *2461:C *734:107 0
6 *248:12 *2434:B 0.000208879
7 *248:12 *2460:A 0
8 *248:12 *2554:B 0
9 *248:12 *3220:A 0.0003963
10 *248:12 *1093:18 0
11 *2461:B *2461:C 0.000112558
12 *31:10 *248:12 0
13 *230:10 *248:12 0.000111699
14 *230:16 *248:12 0
*RES
1 *2460:Y *248:12 47.7559 
2 *248:12 *2461:C 42.9149 
*END

*D_NET *249 0.0016155
*CONN
*I *2464:B I *D sg13cmos5l_nand3_1
*I *2462:Y O *D sg13cmos5l_nand2_1
*CAP
1 *2464:B 0
2 *2462:Y 0.000359013
3 *249:10 0.000359013
4 *249:10 *2462:A 8.01886e-05
5 *249:10 *2462:B 0.000817286
6 *249:10 *699:12 0
7 *249:10 *1139:138 0
*RES
1 *2462:Y *249:10 44.6865 
2 *249:10 *2464:B 40 
*END

*D_NET *250 0.00049902
*CONN
*I *2464:C I *D sg13cmos5l_nand3_1
*I *2463:Y O *D sg13cmos5l_nand2_1
*CAP
1 *2464:C 0.000225639
2 *2463:Y 0.000225639
3 *2464:C *2463:B 4.77425e-05
4 *2464:C *2464:A 0
*RES
1 *2463:Y *2464:C 42.0703 
*END

*D_NET *251 0.00803969
*CONN
*I *2467:B I *D sg13cmos5l_nand3_1
*I *2465:Y O *D sg13cmos5l_nand2_1
*CAP
1 *2467:B 0
2 *2465:Y 0.000417079
3 *251:36 3.76746e-05
4 *251:30 0.00152125
5 *251:22 0.00177574
6 *251:14 0.00070924
7 *251:14 *277:22 7.84876e-05
8 *251:22 *280:10 0.000181192
9 *251:22 *640:51 0.000401972
10 *251:22 *778:51 0.000401201
11 *251:30 *2467:A 1.54008e-05
12 *251:30 *2507:A 0
13 *251:30 *2509:A 0.000435369
14 *251:30 *2509:B 0
15 *251:30 *3233:A 0
16 *251:30 *260:10 0
17 *251:30 *263:43 0
18 *251:30 *281:16 8.00842e-05
19 *251:30 *608:16 0
20 *251:30 *609:28 0
21 *251:30 *640:34 0
22 *251:30 *640:51 0
23 *251:30 *782:16 8.01612e-05
24 *251:30 *899:22 0.000531634
25 *251:30 *1138:25 0
26 *251:36 *775:38 7.52149e-05
27 *251:36 *775:57 0.00012816
28 *251:36 *921:12 0.000181192
29 *2953:D *251:30 0.000466536
30 *16:20 *251:30 0.000111121
31 *78:10 *251:30 0.000175826
32 *82:12 *251:30 0
33 *91:8 *251:14 0.000235153
*RES
1 *2465:Y *251:14 43.5329 
2 *251:14 *251:22 43.5432 
3 *251:22 *251:30 34.7352 
4 *251:30 *251:36 40.8446 
5 *251:36 *2467:B 20 
*END

*D_NET *252 0.00394126
*CONN
*I *2467:C I *D sg13cmos5l_nand3_1
*I *2466:Y O *D sg13cmos5l_nand2_1
*CAP
1 *2467:C 0.00054829
2 *2466:Y 0.000832474
3 *252:10 0.00138076
4 *2467:C *2563:A0 0
5 *2467:C *3402:A 0
6 *2467:C *260:10 0
7 *252:10 *2458:A 0
8 *252:10 *2458:B 4.7885e-05
9 *252:10 *2466:B 0.000112525
10 *252:10 *267:12 0
11 *252:10 *635:27 0
12 *252:10 *902:8 0
13 *252:10 *1010:22 0
14 *252:10 *1098:14 0.000874429
15 *3017:D *2467:C 0
16 *114:8 *252:10 0
17 *241:37 *252:10 0
18 *246:8 *252:10 0
19 *247:23 *252:10 0.000112437
20 *247:34 *252:10 3.24568e-05
*RES
1 *2466:Y *252:10 49.1361 
2 *252:10 *2467:C 44.429 
*END

*D_NET *253 0.00201089
*CONN
*I *2470:B I *D sg13cmos5l_nand3_1
*I *2468:Y O *D sg13cmos5l_nand2_1
*CAP
1 *2470:B 0
2 *2468:Y 0.000783292
3 *253:10 0.000783292
4 *253:10 *2947:D 0
5 *253:10 *263:37 0.000235556
6 *253:10 *638:27 0
7 *253:10 *690:44 0
8 *253:10 *802:8 0
9 *253:10 *1128:35 0.000208747
*RES
1 *2468:Y *253:10 47.9001 
2 *253:10 *2470:B 40 
*END

*D_NET *254 0.00768255
*CONN
*I *2470:C I *D sg13cmos5l_nand3_1
*I *2469:Y O *D sg13cmos5l_nand2_1
*CAP
1 *2470:C 0
2 *2469:Y 0.000619707
3 *254:22 0.000491609
4 *254:14 0.00153312
5 *254:10 0.00166122
6 *254:10 *2469:B 1.54008e-05
7 *254:10 *1139:16 0.00103136
8 *254:10 *1139:62 0.000287256
9 *254:10 *1139:75 3.22045e-05
10 *254:14 *2351:A0 0.000565202
11 *254:14 *2351:A1 0
12 *254:14 *2351:S 0
13 *254:14 *258:14 0.000726002
14 *254:14 *294:52 0
15 *254:14 *637:18 0.000564062
16 *254:14 *637:27 8.0194e-05
17 *254:22 *680:22 0
18 *113:12 *254:22 7.52158e-05
19 *221:10 *254:10 0
*RES
1 *2469:Y *254:10 47.5911 
2 *254:10 *254:14 30.918 
3 *254:14 *254:22 43.605 
4 *254:22 *2470:C 20 
*END

*D_NET *255 0.000424653
*CONN
*I *2473:B I *D sg13cmos5l_nand3_1
*I *2471:Y O *D sg13cmos5l_nand2_1
*CAP
1 *2473:B 0
2 *2471:Y 9.47987e-05
3 *255:8 9.47987e-05
4 *255:8 *736:80 0.000235056
5 *80:8 *255:8 0
*RES
1 *2471:Y *255:8 41.0918 
2 *255:8 *2473:B 40 
*END

*D_NET *256 0.00183398
*CONN
*I *2473:C I *D sg13cmos5l_nand3_1
*I *2472:Y O *D sg13cmos5l_nand2_1
*CAP
1 *2473:C 0.000909289
2 *2472:Y 0.000909289
3 *2473:C *2471:A 1.54008e-05
4 *2473:C *2965:CLK 0
5 *2473:C *690:38 0
6 *2473:C *1128:55 0
7 *220:45 *2473:C 0
*RES
1 *2472:Y *2473:C 48.0237 
*END

*D_NET *257 0.00381015
*CONN
*I *2476:B I *D sg13cmos5l_nand3_1
*I *2474:Y O *D sg13cmos5l_nand2_1
*CAP
1 *2476:B 0
2 *2474:Y 0.000983765
3 *257:10 0.000983765
4 *257:10 *2474:A 0.000111568
5 *257:10 *2474:B 0.0014276
6 *257:10 *2965:D 0.000240306
7 *257:10 *3294:A 0
8 *257:10 *258:14 1.54008e-05
9 *257:10 *680:22 0
10 *257:10 *1128:55 4.77425e-05
*RES
1 *2474:Y *257:10 30.1043 
2 *257:10 *2476:B 20 
*END

*D_NET *258 0.0072
*CONN
*I *2476:C I *D sg13cmos5l_nand3_1
*I *2475:Y O *D sg13cmos5l_nand2_1
*CAP
1 *2476:C 0
2 *2475:Y 0.00167763
3 *258:14 0.00167763
4 *258:14 *2351:A0 0
5 *258:14 *2351:A1 0.000240984
6 *258:14 *2358:A0 0.00011255
7 *258:14 *2358:A1 4.77425e-05
8 *258:14 *2358:S 0
9 *258:14 *2475:A 0.000725894
10 *258:14 *2562:A 8.02267e-05
11 *258:14 *637:27 0
12 *258:14 *680:22 0.000522969
13 *258:14 *774:49 0.000904946
14 *258:14 *774:64 3.23965e-05
15 *258:14 *1096:18 0.000435627
16 *258:14 *1128:55 0
17 *254:14 *258:14 0.000726002
18 *257:10 *258:14 1.54008e-05
*RES
1 *2475:Y *258:14 38.5915 
2 *258:14 *2476:C 20 
*END

*D_NET *259 0.00263673
*CONN
*I *2479:B I *D sg13cmos5l_nand3_1
*I *2477:Y O *D sg13cmos5l_nand2_1
*CAP
1 *2479:B 3.59417e-05
2 *2477:Y 0.000481496
3 *259:18 0.00041769
4 *259:10 0.000863244
5 *2479:B *2479:A 0
6 *259:10 *2356:A0 0
7 *259:10 *2356:S 0
8 *259:10 *3203:A 7.52158e-05
9 *259:10 *698:10 0.000240328
10 *259:10 *1021:8 0.000287672
11 *259:18 *664:143 0
12 *259:18 *664:152 0
13 *259:18 *854:14 0
14 *2945:D *259:18 0
15 *16:26 *259:10 0
16 *78:10 *259:18 0.000235141
17 *82:12 *2479:B 0
18 *82:12 *259:18 0
19 *241:37 *259:10 0
20 *241:37 *259:18 0
*RES
1 *2477:Y *259:10 44.9028 
2 *259:10 *259:18 43.8522 
3 *259:18 *2479:B 40.3193 
*END

*D_NET *260 0.00217139
*CONN
*I *2479:C I *D sg13cmos5l_nand3_1
*I *2478:Y O *D sg13cmos5l_nand2_1
*CAP
1 *2479:C 0
2 *2478:Y 0.000950096
3 *260:10 0.000950096
4 *260:10 *2467:A 4.77425e-05
5 *260:10 *3019:CLK 0
6 *260:10 *3233:A 0
7 *260:10 *640:30 0
8 *260:10 *800:12 4.77425e-05
9 *2467:C *260:10 0
10 *78:10 *260:10 0.000175716
11 *82:12 *260:10 0
12 *251:30 *260:10 0
*RES
1 *2478:Y *260:10 48.5181 
2 *260:10 *2479:C 40 
*END

*D_NET *261 0.00211358
*CONN
*I *2482:B I *D sg13cmos5l_nand3_1
*I *2480:Y O *D sg13cmos5l_nand2_1
*CAP
1 *2482:B 0.000133705
2 *2480:Y 0.000270861
3 *261:8 0.000404566
4 *2482:B *2495:A 0.000241089
5 *2482:B *262:10 0.00024122
6 *261:8 *865:10 0
7 *261:8 *1021:8 0.000822141
*RES
1 *2480:Y *261:8 43.811 
2 *261:8 *2482:B 41.6171 
*END

*D_NET *262 0.00627659
*CONN
*I *2482:C I *D sg13cmos5l_nand3_1
*I *2481:Y O *D sg13cmos5l_nand2_1
*CAP
1 *2482:C 0
2 *2481:Y 0.00141168
3 *262:10 0.00141168
4 *262:10 *2357:S 0.000177406
5 *262:10 *2481:A 8.00842e-05
6 *262:10 *2482:A 9.72884e-05
7 *262:10 *2495:A 0
8 *262:10 *2566:A 0.000175699
9 *262:10 *2566:B 0
10 *262:10 *2939:RESET_B 0
11 *262:10 *3015:CLK 0.00117942
12 *262:10 *636:42 0
13 *262:10 *663:37 0
14 *262:10 *762:123 0
15 *262:10 *780:45 0.000856479
16 *262:10 *1098:8 0.000241979
17 *262:10 *1139:88 0.00040366
18 *2482:B *262:10 0.00024122
*RES
1 *2481:Y *262:10 36.1607 
2 *262:10 *2482:C 20 
*END

*D_NET *263 0.0206612
*CONN
*I *2509:B I *D sg13cmos5l_nand2_1
*I *2512:B I *D sg13cmos5l_nand2_1
*I *3250:A I *D sg13cmos5l_buf_1
*I *2483:X O *D sg13cmos5l_buf_1
*CAP
1 *2509:B 0.000105591
2 *2512:B 0
3 *3250:A 0.00130247
4 *2483:X 0.000495969
5 *263:49 0.00173229
6 *263:43 0.00211857
7 *263:37 0.00138216
8 *263:22 0.00155687
9 *263:14 0.00153996
10 *263:6 0.00267181
11 *2509:B *2509:A 0
12 *2509:B *854:14 0
13 *3250:A *2358:S 7.94493e-05
14 *3250:A *3231:A 0.00140169
15 *3250:A *269:10 0
16 *3250:A *294:52 0
17 *3250:A *294:59 1.54556e-05
18 *3250:A *317:8 0
19 *3250:A *773:8 7.92265e-05
20 *3250:A *1127:30 0
21 *263:6 *2561:A0 0
22 *263:6 *2561:A1 4.78356e-05
23 *263:6 *636:34 0.000726033
24 *263:6 *1135:108 0
25 *263:14 *780:23 0
26 *263:22 *738:35 0.000552918
27 *263:22 *1128:43 0
28 *263:37 *3015:RESET_B 0
29 *263:37 *604:10 0
30 *263:37 *638:8 0
31 *263:37 *668:12 0
32 *263:37 *690:44 0
33 *263:37 *802:8 0.00012816
34 *263:37 *854:14 0
35 *263:37 *912:14 0
36 *263:43 *3233:A 0.000370376
37 *263:43 *668:12 0
38 *263:43 *797:10 0.000337902
39 *263:43 *912:14 0
40 *263:49 *2563:S 0
41 *263:49 *265:8 0
42 *263:49 *267:12 0
43 *263:49 *610:10 0.000871853
44 *263:49 *610:33 0.00012816
45 *263:49 *742:88 0
46 *263:49 *793:12 0
47 *263:49 *1010:22 0.00225783
48 *263:49 *1042:14 0
49 *3295:A *3250:A 8.0216e-05
50 *16:20 *2509:B 4.78195e-05
51 *16:20 *263:43 0
52 *79:8 *263:37 0
53 *113:12 *263:14 0.000395068
54 *251:30 *2509:B 0
55 *251:30 *263:43 0
56 *253:10 *263:37 0.000235556
*RES
1 *2483:X *263:6 25.2942 
2 *263:6 *263:14 48.7035 
3 *263:14 *263:22 42.8943 
4 *263:22 *3250:A 32.4733 
5 *263:6 *263:37 29.5687 
6 *263:37 *263:43 43.9964 
7 *263:43 *263:49 41.1871 
8 *263:49 *2512:B 20 
9 *263:37 *2509:B 41.1639 
*END

*D_NET *264 0.000734634
*CONN
*I *2486:B I *D sg13cmos5l_nand3_1
*I *2484:Y O *D sg13cmos5l_nand2_1
*CAP
1 *2486:B 0.00025259
2 *2484:Y 0.00025259
3 *2486:B *2486:A 0
4 *2486:B *2514:C 0
5 *2486:B *265:28 0.000112569
6 *2486:B *609:51 1.54556e-05
7 *2486:B *1013:10 0
8 *2486:B *1127:116 0.00010143
*RES
1 *2484:Y *2486:B 42.5647 
*END

*D_NET *265 0.00644847
*CONN
*I *2486:C I *D sg13cmos5l_nand3_1
*I *2485:Y O *D sg13cmos5l_nand2_1
*CAP
1 *2486:C 0
2 *2485:Y 0.000169654
3 *265:28 0.000233013
4 *265:16 0.00157003
5 *265:8 0.00150667
6 *265:16 *2487:B 0.00192686
7 *265:16 *2514:C 0
8 *265:16 *266:18 0
9 *265:28 *3234:A 8.02269e-05
10 *265:28 *609:51 0.000123746
11 *265:28 *779:46 0
12 config_o[10] *265:16 0.000111946
13 config_o[11] *265:16 0.000144833
14 config_o[12] *265:16 0.000468929
15 *2486:B *265:28 0.000112569
16 *263:49 *265:8 0
*RES
1 *2485:Y *265:8 41.5862 
2 *265:8 *265:16 34.4303 
3 *265:16 *265:28 42.8531 
4 *265:28 *2486:C 20 
*END

*D_NET *266 0.00569778
*CONN
*I *2489:B I *D sg13cmos5l_nand3_1
*I *2487:Y O *D sg13cmos5l_nand2_1
*CAP
1 *2489:B 0.00077791
2 *2487:Y 0.000411797
3 *266:18 0.00124951
4 *266:12 0.000883394
5 *2489:B *2489:A 0.000112558
6 *2489:B *742:94 0
7 *2489:B *775:72 7.51285e-05
8 *2489:B *775:87 0.000744194
9 *2489:B *854:14 0
10 *2489:B *921:12 0
11 *266:12 *2485:A 0.00011236
12 *266:12 *2487:B 0.00024216
13 *266:12 *3482:A 0
14 *266:12 *1098:14 0.00012816
15 *266:18 *3454:A 0.000242313
16 *266:18 *3455:A 0.000274769
17 *266:18 *283:22 1.54008e-05
18 *266:18 *1098:14 0.000107421
19 config_o[10] *266:18 0.000112514
20 config_o[11] *266:18 0.000144942
21 config_o[12] *266:18 4.78521e-05
22 config_o[9] *266:18 1.54008e-05
23 *2485:B *266:12 0
24 *3323:A *2489:B 0
25 *265:16 *266:18 0
*RES
1 *2487:Y *266:12 44.0129 
2 *266:12 *266:18 45.0779 
3 *266:18 *2489:B 48.1267 
*END

*D_NET *267 0.00312232
*CONN
*I *2489:C I *D sg13cmos5l_nand3_1
*I *2488:Y O *D sg13cmos5l_nand2_1
*CAP
1 *2489:C 0.000319175
2 *2488:Y 0.000837885
3 *267:12 0.00115706
4 *2489:C *3023:RESET_B 0.000434904
5 *2489:C *3204:A 0
6 *2489:C *742:88 0
7 *267:12 *2564:A 1.54449e-05
8 *267:12 *635:27 0
9 *267:12 *734:113 0
10 *267:12 *863:8 0.000342449
11 *267:12 *1010:22 0
12 *267:12 *1098:14 0
13 *247:34 *267:12 1.54008e-05
14 *252:10 *267:12 0
15 *263:49 *267:12 0
*RES
1 *2488:Y *267:12 49.6408 
2 *267:12 *2489:C 43.3475 
*END

*D_NET *268 0.00536482
*CONN
*I *2493:B I *D sg13cmos5l_nand3_1
*I *2490:Y O *D sg13cmos5l_nand2_1
*CAP
1 *2493:B 0
2 *2490:Y 0.000128921
3 *268:20 0.00142506
4 *268:14 0.00171852
5 *268:8 0.000422376
6 *268:14 *3234:A 0
7 *268:14 *3290:A 0
8 *268:14 *618:12 0
9 *268:14 *776:12 0.000305766
10 *268:14 *1127:116 0
11 *268:20 *3282:A 0
12 *268:20 *270:22 1.54008e-05
13 *268:20 *616:10 0
14 *268:20 *776:25 0
15 *268:20 *776:42 8.0216e-05
16 *268:20 *917:8 0.000288173
17 *268:20 *988:14 0.000980384
18 config_o[22] *268:8 0
19 *19:10 *268:8 0
*RES
1 *2490:Y *268:8 41.0918 
2 *268:8 *268:14 42.6986 
3 *268:14 *268:20 32.9986 
4 *268:20 *2493:B 20 
*END

*D_NET *269 0.0295423
*CONN
*I *2516:B I *D sg13cmos5l_nand2_1
*I *2513:B I *D sg13cmos5l_nand2_1
*I *3260:A I *D sg13cmos5l_buf_1
*I *2491:X O *D sg13cmos5l_buf_1
*CAP
1 *2516:B 0.00030027
2 *2513:B 0.000171114
3 *3260:A 0
4 *2491:X 0.000554314
5 *269:66 0.00312967
6 *269:47 0.00304207
7 *269:41 0.00357767
8 *269:35 0.00392469
9 *269:25 0.000988706
10 *269:10 0.00115445
11 *2513:B *283:22 0
12 *2513:B *919:14 0
13 *2516:B *2516:A 0
14 *2516:B *2589:A 0
15 *2516:B *2589:B 0.000176577
16 *2516:B *3371:A 0
17 *2516:B *910:22 0
18 *269:10 *294:59 0
19 *269:10 *848:12 0.00119271
20 *269:10 *954:14 0.00119138
21 *269:10 *1127:30 0.000240614
22 *269:25 *2367:A1 0
23 *269:25 *2519:A 0.0004343
24 *269:25 *613:14 0.000144672
25 *269:25 *782:10 0
26 *269:25 *848:12 0.00106304
27 *269:25 *954:8 4.77425e-05
28 *269:25 *954:14 0.0010322
29 *269:35 *664:344 0
30 *269:35 *744:54 0.00118963
31 *269:35 *948:51 0
32 *269:35 *999:16 0.00119013
33 *269:41 *861:18 0
34 *269:41 *1134:53 0.00188121
35 *269:47 *2370:S 0
36 *269:47 *2504:A 0
37 *269:47 *2975:RESET_B 8.01938e-05
38 *269:47 *3205:A 0.000951643
39 *269:47 *3209:A 0
40 *269:47 *3210:A 0
41 *269:47 *284:8 0
42 *269:47 *607:50 0
43 *269:47 *610:48 0
44 *269:47 *779:78 0
45 *269:47 *843:12 0
46 *269:47 *866:16 0
47 *269:47 *905:28 0
48 *269:47 *988:8 0
49 *269:47 *1044:8 0
50 *269:66 *2375:A1 0
51 *269:66 *2979:CLK 0
52 *269:66 *279:22 0.000272724
53 *269:66 *317:35 0
54 *269:66 *936:8 0
55 *269:66 *948:51 0
56 *269:66 *983:10 0
57 *269:66 *989:10 0
58 *269:66 *1015:8 0
59 *269:66 *1043:8 0.000531721
60 *269:66 *1138:116 0.000821483
61 config_o[14] *2513:B 4.78192e-05
62 config_o[25] *269:41 0
63 config_o[30] *269:66 0
64 config_o[31] *269:66 0
65 *2491:A *269:10 0
66 *3250:A *269:10 0
67 *3287:A *269:66 0
68 *126:8 *2516:B 0.000209593
69 *220:83 *269:10 0
*RES
1 *2491:X *269:10 48.0237 
2 *269:10 *3260:A 40 
3 *269:10 *269:25 48.8271 
4 *269:25 *269:35 27.21 
5 *269:35 *269:41 48.755 
6 *269:41 *269:47 45.2659 
7 *269:47 *2513:B 41.6171 
8 *269:35 *269:66 45.6573 
9 *269:66 *2516:B 42.9149 
*END

*D_NET *270 0.00715467
*CONN
*I *2493:C I *D sg13cmos5l_nand3_1
*I *2492:Y O *D sg13cmos5l_nand2_1
*CAP
1 *2493:C 0
2 *2492:Y 0.000259537
3 *270:22 0.00159809
4 *270:10 0.00185762
5 *270:10 *2977:D 0.000240328
6 *270:10 *3346:A 0
7 *270:10 *277:8 0.000235055
8 *270:22 *2977:D 0
9 *270:22 *3346:A 8.00842e-05
10 *270:22 *621:24 0.000209484
11 *270:22 *635:50 0
12 *270:22 *776:71 0.000790835
13 *270:22 *852:10 0.00120973
14 *270:22 *915:20 0
15 *270:22 *926:28 0.000241083
16 *270:22 *948:51 0
17 *270:22 *1127:68 0.000111505
18 *270:22 *1127:72 0.000176474
19 *270:22 *1127:87 0.000129447
20 config_o[30] *270:10 0
21 *3311:A *270:22 0
22 *268:20 *270:22 1.54008e-05
*RES
1 *2492:Y *270:10 42.7089 
2 *270:10 *270:22 36.8302 
3 *270:22 *2493:C 20 
*END

*D_NET *271 0.000608119
*CONN
*I *2496:B I *D sg13cmos5l_nand3_1
*I *2494:Y O *D sg13cmos5l_nand2_1
*CAP
1 *2496:B 0.00022457
2 *2494:Y 0.00022457
3 *2496:B *2494:A 0.000143577
4 *2496:B *2496:C 1.54008e-05
5 *2496:B *2967:RESET_B 0
6 *2496:B *789:14 0
*RES
1 *2494:Y *2496:B 42.3175 
*END

*D_NET *272 0.00499245
*CONN
*I *2496:C I *D sg13cmos5l_nand3_1
*I *2495:Y O *D sg13cmos5l_nand2_1
*CAP
1 *2496:C 0.000674512
2 *2495:Y 0.000650875
3 *272:10 0.00132539
4 *2496:C *2496:A 0.000713675
5 *2496:C *3027:CLK 0
6 *2496:C *691:28 0
7 *2496:C *988:14 0
8 *2496:C *1138:25 0.000433542
9 *272:10 *2578:A0 0
10 *272:10 *2951:CLK 0
11 *272:10 *636:42 0.000499976
12 *272:10 *691:28 0.000337463
13 *272:10 *780:45 0
14 *2496:B *2496:C 1.54008e-05
15 *119:8 *2496:C 0.000341621
*RES
1 *2495:Y *272:10 46.2933 
2 *272:10 *2496:C 47.622 
*END

*D_NET *273 0.00132591
*CONN
*I *2499:B I *D sg13cmos5l_nand3_1
*I *2497:Y O *D sg13cmos5l_nand2_1
*CAP
1 *2499:B 0.000422287
2 *2497:Y 0.000422287
3 *2499:B *2497:B 1.54008e-05
4 *2499:B *2499:C 0
5 *2499:B *2499:A 0.000465932
6 *18:14 *2499:B 0
*RES
1 *2497:Y *2499:B 44.1303 
*END

*D_NET *274 0.000632872
*CONN
*I *2499:C I *D sg13cmos5l_nand3_1
*I *2498:Y O *D sg13cmos5l_nand2_1
*CAP
1 *2499:C 0.000211931
2 *2498:Y 0.000211931
3 *2499:C *2965:CLK 0.00020901
4 *2499:C *294:52 0
5 *2499:B *2499:C 0
*RES
1 *2498:Y *2499:C 42.3175 
*END

*D_NET *275 0.00405257
*CONN
*I *2502:B I *D sg13cmos5l_nand3_1
*I *2500:Y O *D sg13cmos5l_nand2_1
*CAP
1 *2502:B 0.000532733
2 *2500:Y 0.000453306
3 *275:10 0.000986039
4 *2502:B *2502:A 1.54008e-05
5 *2502:B *2578:A0 0
6 *275:10 *2967:RESET_B 7.9947e-05
7 *275:10 *789:14 0
8 *275:10 *1127:34 0.00119212
9 *275:10 *1138:97 0.000552831
10 config_o[24] *275:10 0
11 *3301:A *2502:B 0.000240196
*RES
1 *2500:Y *275:10 46.7259 
2 *275:10 *2502:B 44.7792 
*END

*D_NET *276 0.000310692
*CONN
*I *2502:C I *D sg13cmos5l_nand3_1
*I *2501:Y O *D sg13cmos5l_nand2_1
*CAP
1 *2502:C 0.000155346
2 *2501:Y 0.000155346
*RES
1 *2501:Y *2502:C 41.3802 
*END

*D_NET *277 0.00830044
*CONN
*I *2505:B I *D sg13cmos5l_nand3_1
*I *2503:Y O *D sg13cmos5l_nand2_1
*CAP
1 *2505:B 0
2 *2503:Y 0.000389429
3 *277:22 0.00181601
4 *277:8 0.00220544
5 *277:8 *2375:A1 0.000447182
6 *277:8 *3043:CLK 0.000447685
7 *277:8 *653:8 0.000182023
8 *277:22 *2505:A 0.00011215
9 *277:22 *2508:B 0
10 *277:22 *2590:A0 0
11 *277:22 *2590:S 0.000564106
12 *277:22 *2969:D 0
13 *277:22 *2979:CLK 0
14 *277:22 *3292:A 0.000112198
15 *277:22 *3343:A 0.000467338
16 *277:22 *664:327 0
17 *277:22 *701:22 0.000296266
18 *277:22 *776:54 0
19 *277:22 *778:45 0.000659513
20 *277:22 *888:26 0
21 *277:22 *896:14 0.000111568
22 config_o[29] *277:8 0
23 config_o[30] *277:8 0
24 *2465:B *277:22 4.77425e-05
25 *3287:A *277:22 0
26 *27:10 *277:8 0.000128248
27 *251:14 *277:22 7.84876e-05
28 *270:10 *277:8 0.000235055
*RES
1 *2503:Y *277:8 45.7886 
2 *277:8 *277:22 37.4521 
3 *277:22 *2505:B 20 
*END

*D_NET *278 0.00570955
*CONN
*I *2505:C I *D sg13cmos5l_nand3_1
*I *2504:Y O *D sg13cmos5l_nand2_1
*CAP
1 *2505:C 0
2 *2504:Y 3.31742e-05
3 *278:14 0.00115438
4 *278:8 0.00118755
5 *278:8 *2504:A 4.78028e-05
6 *278:14 *3340:A 7.92643e-05
7 *278:14 *664:327 0
8 *278:14 *741:145 0.00225234
9 *278:14 *779:35 0.00039332
10 *278:14 *888:10 0.000273452
11 *278:14 *981:8 0.00028826
12 *278:14 *1138:74 0
*RES
1 *2504:Y *278:8 40.3193 
2 *278:8 *278:14 34.0492 
3 *278:14 *2505:C 20 
*END

*D_NET *279 0.00586093
*CONN
*I *2508:B I *D sg13cmos5l_nand3_1
*I *2506:Y O *D sg13cmos5l_nand2_1
*CAP
1 *2508:B 0.000613521
2 *2506:Y 0.000248177
3 *279:22 0.0012448
4 *279:14 0.000879458
5 *2508:B *3175:A 0
6 *2508:B *664:335 0
7 *2508:B *664:344 0
8 *2508:B *701:12 1.54008e-05
9 *2508:B *701:22 0.000498855
10 *2508:B *776:54 0
11 *2508:B *983:10 0.000208615
12 *279:14 *791:18 0
13 *279:14 *844:14 0.000500506
14 *279:22 *2375:A1 0.000272582
15 *279:22 *3206:A 0.000287256
16 *279:22 *943:14 0.000287672
17 *279:22 *948:51 0.000531365
18 *269:66 *279:22 0.000272724
19 *277:22 *2508:B 0
*RES
1 *2506:Y *279:14 43.3166 
2 *279:14 *279:22 47.0658 
3 *279:22 *2508:B 45.7268 
*END

*D_NET *280 0.00417544
*CONN
*I *2508:C I *D sg13cmos5l_nand3_1
*I *2507:Y O *D sg13cmos5l_nand2_1
*CAP
1 *2508:C 0
2 *2507:Y 0.000450771
3 *280:18 0.000458181
4 *280:10 0.000908952
5 *280:10 *3027:CLK 7.52158e-05
6 *280:10 *3033:RESET_B 0.000393736
7 *280:10 *988:14 0
8 *280:10 *1138:25 0.000272631
9 *280:18 *645:28 0.000530885
10 *280:18 *750:52 0.000340704
11 *280:18 *778:51 0
12 *280:18 *848:12 0
13 *280:18 *888:26 0.000563172
14 *251:22 *280:10 0.000181192
*RES
1 *2507:Y *280:10 45.3972 
2 *280:10 *280:18 45.3663 
3 *280:18 *2508:C 40 
*END

*D_NET *281 0.00966084
*CONN
*I *2511:B I *D sg13cmos5l_nand3_1
*I *2509:Y O *D sg13cmos5l_nand2_1
*CAP
1 *2511:B 0
2 *2509:Y 0.000746978
3 *281:28 0.000347471
4 *281:22 0.00274636
5 *281:16 0.00314586
6 *281:16 *2509:A 0.000403644
7 *281:16 *2955:CLK 0.000234224
8 *281:16 *609:28 0
9 *281:16 *664:126 0
10 *281:22 *2362:A2 0
11 *281:22 *2955:CLK 0
12 *281:22 *607:27 0
13 *281:22 *607:40 0
14 *281:22 *619:8 0
15 *281:22 *641:14 0.00075792
16 *281:22 *698:10 0
17 *281:22 *912:26 0.000288502
18 *281:28 *282:32 0.000764959
19 *16:20 *281:16 0.000144833
20 *186:26 *281:22 0
21 *251:30 *281:16 8.00842e-05
*RES
1 *2509:Y *281:16 47.7765 
2 *281:16 *281:22 40.4146 
3 *281:22 *281:28 43.811 
4 *281:28 *2511:B 20 
*END

*D_NET *282 0.0120631
*CONN
*I *2511:C I *D sg13cmos5l_nand3_1
*I *2510:Y O *D sg13cmos5l_nand2_1
*CAP
1 *2511:C 0
2 *2510:Y 0.000242813
3 *282:32 0.000814883
4 *282:22 0.00274636
5 *282:8 0.00217429
6 *282:8 *2510:B 0
7 *282:8 *609:28 0.000306788
8 *282:22 *2580:A0 0.000287758
9 *282:22 *3039:CLK 0
10 *282:22 *3321:A 0
11 *282:22 *3383:A 4.76053e-05
12 *282:22 *639:25 0.000371639
13 *282:22 *700:10 0
14 *282:22 *704:23 4.77425e-05
15 *282:22 *877:30 0.00040213
16 *282:22 *905:28 0.000240196
17 *282:22 *926:34 0
18 *282:22 *948:10 0.000273392
19 *282:22 *1010:16 0
20 *282:22 *1021:8 0.00241518
21 *282:32 *2511:A 0
22 *282:32 *2969:CLK 7.51285e-05
23 *282:32 *704:10 0.000234224
24 *282:32 *776:25 0
25 *282:32 *910:12 0
26 *282:32 *966:8 0.00060761
27 *3326:A *282:32 1.03955e-05
28 *281:28 *282:32 0.000764959
*RES
1 *2510:Y *282:8 42.266 
2 *282:8 *282:22 41.7536 
3 *282:22 *282:32 49.3627 
4 *282:32 *2511:C 20 
*END

*D_NET *283 0.00366664
*CONN
*I *2514:B I *D sg13cmos5l_nand3_1
*I *2512:Y O *D sg13cmos5l_nand2_1
*CAP
1 *2514:B 0
2 *2512:Y 0.00137751
3 *283:22 0.00137751
4 *283:22 *2373:S 0
5 *283:22 *2514:C 0.000350205
6 *283:22 *3396:A 0
7 *283:22 *3455:A 1.54556e-05
8 *283:22 *3458:A 0
9 *283:22 *325:10 0
10 *283:22 *607:50 0.000177049
11 *283:22 *775:87 0
12 *283:22 *793:12 0
13 *283:22 *854:14 1.54556e-05
14 *283:22 *1013:10 0.000242352
15 config_o[12] *283:22 0
16 config_o[13] *283:22 1.54008e-05
17 config_o[14] *283:22 8.02924e-05
18 *2513:B *283:22 0
19 *266:18 *283:22 1.54008e-05
*RES
1 *2512:Y *283:22 33.8741 
2 *283:22 *2514:B 20 
*END

*D_NET *284 0.0027145
*CONN
*I *2514:C I *D sg13cmos5l_nand3_1
*I *2513:Y O *D sg13cmos5l_nand2_1
*CAP
1 *2514:C 0.000918217
2 *2513:Y 0.000111214
3 *284:8 0.00102943
4 *2514:C *2487:B 0
5 *2514:C *609:51 0
6 config_o[12] *2514:C 0.000177273
7 config_o[13] *284:8 0.00012816
8 *2486:B *2514:C 0
9 *265:16 *2514:C 0
10 *269:47 *284:8 0
11 *283:22 *2514:C 0.000350205
*RES
1 *2513:Y *284:8 41.1278 
2 *284:8 *2514:C 48.6211 
*END

*D_NET *285 0.0186031
*CONN
*I *2517:B I *D sg13cmos5l_nand3_1
*I *2515:Y O *D sg13cmos5l_nand2_1
*CAP
1 *2517:B 0
2 *2515:Y 0.000426782
3 *285:32 0.00124011
4 *285:22 0.0028147
5 *285:12 0.00200138
6 *285:12 *791:8 0
7 *285:12 *901:10 0.000339135
8 *285:12 *901:16 0
9 *285:22 *3029:CLK 0
10 *285:22 *3147:CLK 0
11 *285:22 *755:10 0.000288184
12 *285:22 *755:16 0.00125224
13 *285:22 *773:78 9.55398e-05
14 *285:22 *841:14 0
15 *285:22 *844:14 0.00114339
16 *285:22 *1032:16 0
17 *285:32 *621:24 0.000395481
18 *285:32 *922:12 0.00338104
19 *285:32 *935:8 0
20 config_o[28] *285:22 0
21 config_o[31] *285:32 0.0052251
22 *29:12 *285:12 0
*RES
1 *2515:Y *285:12 44.4496 
2 *285:12 *285:22 38.0559 
3 *285:22 *285:32 44.823 
4 *285:32 *2517:B 40 
*END

*D_NET *286 0.00554968
*CONN
*I *2517:C I *D sg13cmos5l_nand3_1
*I *2516:Y O *D sg13cmos5l_nand2_1
*CAP
1 *2517:C 0
2 *2516:Y 4.0587e-05
3 *286:18 0.00100422
4 *286:8 0.00104481
5 *286:18 *3390:A 0.000181694
6 *286:18 *3391:A 0
7 *286:18 *644:10 0.000818578
8 *286:18 *776:114 8.0216e-05
9 *286:18 *866:10 0
10 *286:18 *1038:10 0.000177268
11 config_o[28] *286:18 0
12 config_o[29] *286:18 0.0022023
*RES
1 *2516:Y *286:8 40.5356 
2 *286:8 *286:18 34.4715 
3 *286:18 *2517:C 20 
*END

*D_NET *287 0.0102681
*CONN
*I *2520:B I *D sg13cmos5l_nand3_1
*I *2518:Y O *D sg13cmos5l_nand2_1
*CAP
1 *2520:B 0
2 *2518:Y 9.34416e-05
3 *287:26 0.000853658
4 *287:14 0.00266984
5 *287:8 0.00190962
6 *287:14 *2377:A1 0
7 *287:14 *290:30 0.000448842
8 *287:14 *756:78 0.00323433
9 *287:14 *935:8 0
10 *287:26 *2377:A1 0
11 *287:26 *2520:C 1.54556e-05
12 *287:26 *647:8 0
13 *287:26 *656:8 7.91347e-05
14 *287:26 *944:12 0.000289003
15 *287:26 *1138:116 0.000176363
16 config_o[31] *287:26 0
17 *29:20 *287:26 0.000498425
*RES
1 *2518:Y *287:8 40.7519 
2 *287:8 *287:14 41.0017 
3 *287:14 *287:26 48.5387 
4 *287:26 *2520:B 20 
*END

*D_NET *288 0.00134189
*CONN
*I *2520:C I *D sg13cmos5l_nand3_1
*I *2519:Y O *D sg13cmos5l_nand2_1
*CAP
1 *2520:C 0.000144653
2 *2519:Y 0.000221848
3 *288:12 0.000366501
4 *2520:C *647:8 0.000143369
5 *2520:C *1138:116 4.7154e-05
6 *288:12 *2591:B 0
7 *288:12 *749:56 0.00012816
8 *288:12 *1134:14 0
9 *288:12 *1138:116 0.000274749
10 *29:20 *2520:C 0
11 *287:26 *2520:C 1.54556e-05
*RES
1 *2519:Y *288:12 42.7501 
2 *288:12 *2520:C 41.4008 
*END

*D_NET *289 0.00192665
*CONN
*I *2523:B I *D sg13cmos5l_nand3_1
*I *2521:Y O *D sg13cmos5l_nand2_1
*CAP
1 *2523:B 0
2 *2521:Y 0.000275706
3 *289:8 0.000275706
4 *289:8 *922:12 0.00092672
5 *289:8 *944:12 0
6 config_o[31] *289:8 0.000448515
*RES
1 *2521:Y *289:8 44.3054 
2 *289:8 *2523:B 40 
*END

*D_NET *290 0.00568684
*CONN
*I *2523:C I *D sg13cmos5l_nand3_1
*I *2522:Y O *D sg13cmos5l_nand2_1
*CAP
1 *2523:C 0
2 *2522:Y 0.000214033
3 *290:30 0.000147405
4 *290:22 0.0013374
5 *290:10 0.00140403
6 *290:10 *901:22 0
7 *290:10 *1018:10 0.00011236
8 *290:22 *2981:CLK 0
9 *290:22 *3373:A 0.000112015
10 *290:22 *667:16 0
11 *290:22 *695:38 0.000273694
12 *290:22 *756:72 0
13 *290:22 *773:42 0
14 *290:22 *773:57 0.000787833
15 *290:30 *935:8 0.000448842
16 *3029:D *290:10 0
17 *3029:D *290:22 0
18 *3313:A *290:22 0
19 *23:10 *290:10 0.000288184
20 *30:20 *290:22 0.000112203
21 *225:53 *290:10 0
22 *287:14 *290:30 0.000448842
*RES
1 *2522:Y *290:10 42.3072 
2 *290:10 *290:22 32.0098 
3 *290:22 *290:30 42.8325 
4 *290:30 *2523:C 20 
*END

*D_NET *291 0.00519471
*CONN
*I *2526:B I *D sg13cmos5l_nand3_1
*I *2524:Y O *D sg13cmos5l_nand2_1
*CAP
1 *2526:B 0
2 *2524:Y 0.000842918
3 *291:12 0.000942409
4 *291:8 0.00178533
5 *291:8 *755:10 0
6 *291:8 *755:25 0
7 *291:8 *756:14 0
8 *291:8 *841:8 0
9 *291:8 *844:10 0
10 *291:8 *1129:50 4.78688e-05
11 *291:12 *294:71 0.00039332
12 *291:12 *328:12 0.000819651
13 *291:12 *749:56 0
14 *291:12 *756:14 0.000182023
15 *291:12 *773:57 0.000181192
16 *29:16 *291:12 0
17 *225:53 *291:8 0
*RES
1 *2524:Y *291:8 47.2409 
2 *291:8 *291:12 30.2382 
3 *291:12 *2526:B 20 
*END

*D_NET *292 0.00252991
*CONN
*I *2526:C I *D sg13cmos5l_nand3_1
*I *2525:Y O *D sg13cmos5l_nand2_1
*CAP
1 *2526:C 0.000175093
2 *2525:Y 0.000130277
3 *292:16 0.000500509
4 *292:8 0.000455693
5 *292:8 *976:22 0.000660642
6 *292:8 *999:16 0
7 *292:16 *2595:B 0
8 *292:16 *317:8 0
9 *129:14 *2526:C 0
10 *220:83 *292:8 0.000607697
*RES
1 *2525:Y *292:8 43.0694 
2 *292:8 *292:16 42.8016 
3 *292:16 *2526:C 41.1845 
*END

*D_NET *293 0.0173132
*CONN
*I *2638:B_N I *D sg13cmos5l_nor2b_1
*I *2528:B I *D sg13cmos5l_nand2_1
*I *2642:B I *D sg13cmos5l_nand2b_1
*I *2527:Y O *D sg13cmos5l_nor2b_1
*CAP
1 *2638:B_N 0.000180213
2 *2528:B 0.000121179
3 *2642:B 0.000118856
4 *2527:Y 0.000236891
5 *293:29 0.000750409
6 *293:25 0.00348645
7 *293:10 0.00362241
8 *293:6 0.00106344
9 *2528:B *3214:A 0
10 *2528:B *741:18 0
11 *2638:B_N *2643:A 0
12 *2638:B_N *2795:A 9.16541e-05
13 *2638:B_N *2797:A2 0
14 *2638:B_N *876:28 0
15 *2638:B_N *1130:46 0
16 *2642:B *2642:A_N 4.78028e-05
17 *2642:B *1118:28 0
18 *2642:B *1151:99 0.000175752
19 *293:6 *2795:A 0
20 *293:6 *2795:B 0
21 *293:6 *2797:A2 0
22 *293:6 *765:27 1.54008e-05
23 *293:6 *1130:46 0
24 *293:10 *1084:18 7.51285e-05
25 *293:25 *390:16 0.000396492
26 *293:25 *664:32 0
27 *293:25 *673:8 0
28 *293:25 *673:18 0.000234224
29 *293:25 *758:10 0
30 *293:25 *762:8 0.000181192
31 *293:25 *876:59 0
32 *293:25 *1072:27 0.000209411
33 *293:25 *1077:8 0.000394151
34 *293:25 *1082:8 0.000287256
35 *293:25 *1084:18 0
36 *293:29 *544:10 0.00098008
37 *293:29 *674:8 0
38 *293:29 *987:36 0
39 *293:29 *987:42 0.00295409
40 *5:28 *2528:B 0
41 *183:22 *293:29 0.00135038
42 *219:12 *293:10 0
43 *219:12 *293:25 0
44 *219:12 *293:29 0.000340288
*RES
1 *2527:Y *293:6 22.266 
2 *293:6 *293:10 25.047 
3 *293:10 *2642:B 41.1845 
4 *293:10 *293:25 45.235 
5 *293:25 *293:29 33.9462 
6 *293:29 *2528:B 41.1021 
7 *293:6 *2638:B_N 22.1269 
*END

*D_NET *294 0.0284877
*CONN
*I *2592:S I *D sg13cmos5l_mux2_1
*I *2594:S I *D sg13cmos5l_mux2_1
*I *2571:A I *D sg13cmos5l_buf_1
*I *2550:A I *D sg13cmos5l_buf_1
*I *2529:A I *D sg13cmos5l_buf_1
*I *2528:Y O *D sg13cmos5l_nand2_1
*CAP
1 *2592:S 0
2 *2594:S 0
3 *2571:A 0
4 *2550:A 0.000147961
5 *2529:A 0.000285562
6 *2528:Y 0.000446725
7 *294:86 0.000385412
8 *294:71 0.000673799
9 *294:59 0.00159432
10 *294:52 0.00425566
11 *294:31 0.000892461
12 *294:27 0.00506515
13 *294:10 0.00133239
14 *2529:A *2430:A 0
15 *2529:A *3259:A 0
16 *2529:A *1136:70 0
17 *2529:A *1140:32 0
18 *2550:A *2428:A 0.000143182
19 *2550:A *2453:A 0
20 *2550:A *3011:RESET_B 0.000240328
21 *2550:A *306:8 0
22 *294:10 *3214:A 0
23 *294:10 *987:42 0
24 *294:10 *1125:27 0.000873599
25 *294:27 *661:18 0
26 *294:27 *987:42 0
27 *294:27 *1033:10 0
28 *294:27 *1125:27 0.000798472
29 *294:31 *2456:A 0
30 *294:31 *2931:CLK 0
31 *294:31 *611:29 0.0011366
32 *294:31 *684:32 0
33 *294:31 *1052:12 0.0013508
34 *294:52 *2349:S 0.000402421
35 *294:52 *2351:A1 0
36 *294:52 *2351:S 0.000208901
37 *294:52 *2358:S 0.000467712
38 *294:52 *2497:B 4.77425e-05
39 *294:52 *2498:B 0.000305942
40 *294:52 *2499:A 0.000465932
41 *294:52 *2965:CLK 0
42 *294:52 *637:18 0
43 *294:52 *637:27 0
44 *294:52 *661:18 7.9274e-05
45 *294:52 *690:38 0
46 *294:52 *773:8 7.92265e-05
47 *294:52 *773:20 0
48 *294:52 *774:64 0
49 *294:52 *954:14 0
50 *294:52 *1033:10 0
51 *294:52 *1135:88 8.0194e-05
52 *294:59 *317:8 0.000723965
53 *294:59 *614:26 8.00842e-05
54 *294:59 *773:20 0
55 *294:59 *954:14 0
56 *294:71 *321:10 4.77537e-05
57 *294:71 *646:8 0.000242018
58 *294:71 *749:56 0
59 *294:71 *773:20 0
60 *294:71 *773:78 0
61 *294:86 *2592:A0 0
62 *294:86 *667:16 4.79124e-05
63 *294:86 *773:28 0
64 *294:86 *773:42 4.79124e-05
65 config_o[25] *294:86 0.000877107
66 *2499:C *294:52 0
67 *3250:A *294:52 0
68 *3250:A *294:59 1.54556e-05
69 *3295:A *294:52 8.0216e-05
70 *19:8 *294:59 0
71 *23:10 *294:86 0
72 *29:16 *294:71 0.001403
73 *111:10 *294:31 0.000606278
74 *121:12 *294:71 0.000388532
75 *220:33 *294:52 0.00177435
76 *254:14 *294:52 0
77 *269:10 *294:59 0
78 *291:12 *294:71 0.00039332
*RES
1 *2528:Y *294:10 44.2557 
2 *294:10 *2529:A 42.8269 
3 *294:10 *294:27 25.9946 
4 *294:27 *294:31 30.4854 
5 *294:31 *2550:A 41.6171 
6 *294:27 *294:52 35.7513 
7 *294:52 *2571:A 20 
8 *294:52 *294:59 5.3257 
9 *294:59 *294:71 49.682 
10 *294:71 *2594:S 20 
11 *294:59 *294:86 44.6968 
12 *294:86 *2592:S 20 
*END

*D_NET *295 0.00913186
*CONN
*I *2546:S I *D sg13cmos5l_mux2_1
*I *2538:S I *D sg13cmos5l_mux2_1
*I *3259:A I *D sg13cmos5l_buf_1
*I *2529:X O *D sg13cmos5l_buf_1
*CAP
1 *2546:S 0
2 *2538:S 0
3 *3259:A 9.98115e-05
4 *2529:X 0
5 *295:33 0.000887253
6 *295:23 0.000909106
7 *295:19 0.00144603
8 *295:4 0.00152399
9 *3259:A *1136:70 0
10 *3259:A *1137:16 1.54008e-05
11 *295:19 *2530:A1 0.000822556
12 *295:19 *2995:RESET_B 0
13 *295:19 *2995:CLK 0.000608441
14 *295:19 *3363:A 0.000584095
15 *295:19 *632:16 0.00012816
16 *295:19 *659:8 0.00018261
17 *295:19 *734:103 0
18 *295:19 *997:8 0.000181279
19 *295:19 *1007:12 0
20 *295:19 *1129:22 0
21 *295:19 *1129:80 0
22 *295:19 *1129:115 0
23 *295:19 *1137:16 1.54285e-05
24 *295:23 *662:27 3.23417e-05
25 *295:23 *810:10 4.77425e-05
26 *295:33 *632:8 0
27 *295:33 *662:27 4.77425e-05
28 *295:33 *664:254 0
29 *295:33 *768:85 0
30 *295:33 *771:42 0
31 *295:33 *810:10 0.000370757
32 *295:33 *826:14 0.000273671
33 *295:33 *1114:30 0.000556129
34 *295:33 *1114:56 8.01938e-05
35 *295:33 *1114:86 0.00031912
36 *295:33 *1125:66 0
37 *295:33 *1137:89 0
38 *2529:A *3259:A 0
*RES
1 *2529:X *295:4 20 
2 *295:4 *3259:A 21.133 
3 *295:4 *295:19 38.8078 
4 *295:19 *295:23 20.3193 
5 *295:23 *295:33 49.888 
6 *295:33 *2538:S 20 
7 *295:23 *2546:S 20 
*END

*D_NET *296 0.00139088
*CONN
*I *2531:B I *D sg13cmos5l_and2_1
*I *2530:X O *D sg13cmos5l_mux2_1
*CAP
1 *2531:B 0
2 *2530:X 0.00025344
3 *296:10 0.00025344
4 *296:10 *2599:A0 1.54556e-05
5 *296:10 *2985:CLK 8.01609e-05
6 *296:10 *815:10 0
7 *296:10 *987:46 0
8 *296:10 *1035:8 0.000128248
9 *187:18 *296:10 0.00066014
*RES
1 *2530:X *296:10 43.605 
2 *296:10 *2531:B 40 
*END

*D_NET *297 0.000519927
*CONN
*I *2533:B I *D sg13cmos5l_and2_1
*I *2532:X O *D sg13cmos5l_mux2_1
*CAP
1 *2533:B 0.000219883
2 *2532:X 0.000219883
3 *2533:B *2533:A 8.01609e-05
4 *2533:B *2601:A0 0
*RES
1 *2532:X *2533:B 42.2145 
*END

*D_NET *298 0.00200543
*CONN
*I *2535:B I *D sg13cmos5l_and2_1
*I *2534:X O *D sg13cmos5l_mux2_1
*CAP
1 *2535:B 6.9375e-05
2 *2534:X 0.000649817
3 *298:10 0.000719192
4 *2535:B *2535:A 4.30144e-05
5 *298:10 *2437:A 0
6 *298:10 *3009:RESET_B 0
7 *298:10 *664:230 0
8 *298:10 *664:254 0
9 *298:10 *734:103 0.000501045
10 *298:10 *808:14 0
11 *298:10 *1027:27 0
12 *298:10 *1103:64 0
13 *100:12 *2535:B 2.29896e-05
14 *229:18 *2535:B 0
*RES
1 *2534:X *298:10 46.3242 
2 *298:10 *2535:B 40.6721 
*END

*D_NET *299 0.000453738
*CONN
*I *2537:B I *D sg13cmos5l_and2_1
*I *2536:X O *D sg13cmos5l_mux2_1
*CAP
1 *2537:B 0.000226869
2 *2536:X 0.000226869
3 *2537:B *2603:A0 0
4 *2537:B *3394:A 0
5 *2537:B *828:8 0
6 *2991:D *2537:B 0
*RES
1 *2536:X *2537:B 42.3175 
*END

*D_NET *300 0.00100508
*CONN
*I *2539:B I *D sg13cmos5l_and2_1
*I *2538:X O *D sg13cmos5l_mux2_1
*CAP
1 *2539:B 0.000350133
2 *2538:X 0.000350133
3 *2539:B *2607:A0 0
4 *2539:B *3165:A 0
5 *2539:B *768:76 0.0001117
6 *2539:B *768:85 8.03692e-05
7 *2539:B *1114:38 0
8 *2539:B *1125:58 0.000112748
9 *2539:B *1125:66 0
10 *2993:D *2539:B 0
*RES
1 *2538:X *2539:B 43.811 
*END

*D_NET *301 0.000315616
*CONN
*I *2541:B I *D sg13cmos5l_and2_1
*I *2540:X O *D sg13cmos5l_mux2_1
*CAP
1 *2541:B 0.000157808
2 *2540:X 0.000157808
3 *2541:B *1137:24 0
4 *2541:B *1147:65 0
5 *2541:B *1157:41 0
6 *2995:D *2541:B 0
*RES
1 *2540:X *2541:B 41.7304 
*END

*D_NET *302 0.000561352
*CONN
*I *2543:B I *D sg13cmos5l_and2_1
*I *2542:X O *D sg13cmos5l_mux2_1
*CAP
1 *2543:B 0
2 *2542:X 0.000280676
3 *302:10 0.000280676
4 *302:10 *2609:A0 0
5 *302:10 *2613:A0 0
6 *302:10 *2997:RESET_B 0
7 *302:10 *706:32 0
8 *302:10 *1031:36 0
9 *302:10 *1157:18 0
10 *104:8 *302:10 0
*RES
1 *2542:X *302:10 42.8634 
2 *302:10 *2543:B 40 
*END

*D_NET *303 0.00072422
*CONN
*I *2545:B I *D sg13cmos5l_and2_1
*I *2544:X O *D sg13cmos5l_mux2_1
*CAP
1 *2545:B 0.000177815
2 *2544:X 0.000177815
3 *2545:B *2609:A0 0.000176614
4 *2545:B *766:63 4.77425e-05
5 *2545:B *1157:31 0
6 *105:10 *2545:B 0.000144234
*RES
1 *2544:X *2545:B 41.9673 
*END

*D_NET *304 0.000209444
*CONN
*I *3355:A I *D sg13cmos5l_dlygate4sd3_1
*I *2546:X O *D sg13cmos5l_mux2_1
*CAP
1 *3355:A 0.000104722
2 *2546:X 0.000104722
3 *3355:A *2428:A 0
4 *3355:A *2919:S 0
5 *3355:A *632:8 0
6 *3355:A *987:46 0
7 *3001:D *3355:A 0
*RES
1 *2546:X *3355:A 41.133 
*END

*D_NET *305 0.00183559
*CONN
*I *3389:A I *D sg13cmos5l_dlygate4sd3_1
*I *2548:X O *D sg13cmos5l_mux2_1
*CAP
1 *3389:A 0.000452109
2 *2548:X 0.000129375
3 *305:8 0.000581483
4 *3389:A *2548:A1 0
5 *3389:A *2549:B 0
6 *3389:A *2920:A1 0
7 *3389:A *2985:RESET_B 0
8 *3389:A *663:37 0
9 *3389:A *932:10 8.03692e-05
10 *3389:A *987:46 0
11 *305:8 *2532:A1 0.000234813
12 *305:8 *1035:8 0.000213286
13 *305:8 *1157:76 0
14 *2985:D *3389:A 0.000144157
*RES
1 *2548:X *305:8 42.0806 
2 *305:8 *3389:A 44.0506 
*END

*D_NET *306 0.01665
*CONN
*I *2567:S I *D sg13cmos5l_mux2_1
*I *2569:S I *D sg13cmos5l_mux2_1
*I *3258:A I *D sg13cmos5l_buf_1
*I *2550:X O *D sg13cmos5l_buf_1
*CAP
1 *2567:S 0
2 *2569:S 0.000932292
3 *3258:A 0.000999416
4 *2550:X 3.38008e-05
5 *306:43 0.00165327
6 *306:41 0.00141923
7 *306:35 0.00146688
8 *306:8 0.00180184
9 *2569:S *2373:A0 0
10 *2569:S *2569:A0 0.000388528
11 *2569:S *601:25 0.00017658
12 *2569:S *601:40 9.71127e-05
13 *2569:S *602:40 4.77425e-05
14 *2569:S *634:31 0.000306531
15 *3258:A *2429:A 0.00034079
16 *3258:A *2431:A 4.77425e-05
17 *3258:A *663:37 0.000403296
18 *3258:A *963:8 7.51285e-05
19 *3258:A *987:46 4.72443e-05
20 *306:8 *2428:A 1.54008e-05
21 *306:35 *2429:A 0
22 *306:35 *2929:CLK 0.00113743
23 *306:35 *3190:A 0.000112426
24 *306:35 *677:20 0
25 *306:35 *770:16 0.000552415
26 *306:35 *770:18 0.000341205
27 *306:35 *770:55 0.000287672
28 *306:35 *770:68 0.000447598
29 *306:35 *902:18 0.000662387
30 *306:35 *959:8 0.00044727
31 *306:35 *1087:8 0
32 *306:35 *1093:18 0.000820154
33 *306:41 *2551:A1 0.000767035
34 *306:41 *2567:A0 5.30319e-05
35 *306:41 *685:17 0.000288087
36 *306:41 *900:8 0.000128248
37 *306:41 *1093:18 0
38 *306:41 *1095:42 0
39 *306:43 *634:31 0
40 *306:43 *1022:8 0.000176274
41 *2550:A *306:8 0
42 *111:10 *3258:A 0.000175938
43 *222:12 *306:35 0
44 *228:8 *3258:A 0
*RES
1 *2550:X *306:8 40.3193 
2 *306:8 *3258:A 49.785 
3 *306:8 *306:35 33.8844 
4 *306:35 *306:41 47.2718 
5 *306:41 *306:43 5.9431 
6 *306:43 *2569:S 29.2906 
7 *306:43 *2567:S 20 
*END

*D_NET *307 0.00352389
*CONN
*I *2552:B I *D sg13cmos5l_and2_1
*I *2551:X O *D sg13cmos5l_mux2_1
*CAP
1 *2552:B 0
2 *2551:X 0.000710672
3 *307:12 0.000710672
4 *307:12 *2551:A0 0
5 *307:12 *2551:A1 0
6 *307:12 *2551:S 0
7 *307:12 *1129:134 0.000978834
8 *3005:D *307:12 0.000144877
9 *230:16 *307:12 0.000978834
*RES
1 *2551:X *307:12 49.3318 
2 *307:12 *2552:B 40 
*END

*D_NET *308 0.000998152
*CONN
*I *2554:B I *D sg13cmos5l_and2_1
*I *2553:X O *D sg13cmos5l_mux2_1
*CAP
1 *2554:B 0.000267977
2 *2553:X 0.000267977
3 *2554:B *2345:B 0
4 *2554:B *654:24 0.000112437
5 *2554:B *771:94 0
6 *2554:B *813:14 0.00034976
7 config_o[1] *2554:B 0
8 *248:12 *2554:B 0
*RES
1 *2553:X *2554:B 43.2136 
*END

*D_NET *309 0.000985958
*CONN
*I *3382:A I *D sg13cmos5l_dlygate4sd3_1
*I *2555:X O *D sg13cmos5l_mux2_1
*CAP
1 *3382:A 0
2 *2555:X 0.000383405
3 *309:10 0.000383405
4 *309:10 *2435:A 0
5 *309:10 *2556:B 0.000143932
6 *309:10 *924:8 0
7 *183:22 *309:10 0
8 *230:16 *309:10 7.52158e-05
*RES
1 *2555:X *309:10 43.2033 
2 *309:10 *3382:A 40 
*END

*D_NET *310 0.00100627
*CONN
*I *3364:A I *D sg13cmos5l_dlygate4sd3_1
*I *2557:X O *D sg13cmos5l_mux2_1
*CAP
1 *3364:A 0.000455312
2 *2557:X 0.000455312
3 *3364:A *2920:S 0
4 *3364:A *627:29 8.0194e-05
5 *3364:A *627:44 1.54556e-05
6 *3364:A *1135:21 0
7 *3364:A *1135:80 0
*RES
1 *2557:X *3364:A 43.6977 
*END

*D_NET *311 0.00155537
*CONN
*I *3387:A I *D sg13cmos5l_dlygate4sd3_1
*I *2559:X O *D sg13cmos5l_mux2_1
*CAP
1 *3387:A 0
2 *2559:X 0.000292689
3 *311:10 0.000292689
4 *311:10 *2350:A0 0.000144308
5 *311:10 *2472:B 0.00014502
6 *311:10 *2560:A 0
7 *311:10 *2560:B 0
8 *311:10 *690:16 0
9 *311:10 *763:105 0.000340288
10 *311:10 *952:22 0
11 *311:10 *1145:112 0.000340374
*RES
1 *2559:X *311:10 43.8522 
2 *311:10 *3387:A 40 
*END

*D_NET *312 0.000994192
*CONN
*I *3405:A I *D sg13cmos5l_dlygate4sd3_1
*I *2561:X O *D sg13cmos5l_mux2_1
*CAP
1 *3405:A 0
2 *2561:X 0.000376107
3 *312:10 0.000376107
4 *312:10 *636:34 0.000241979
5 *312:10 *763:105 0
6 *312:10 *1053:8 0
7 *312:10 *1135:88 0
*RES
1 *2561:X *312:10 43.4505 
2 *312:10 *3405:A 40 
*END

*D_NET *313 0.000400559
*CONN
*I *3384:A I *D sg13cmos5l_dlygate4sd3_1
*I *2563:X O *D sg13cmos5l_mux2_1
*CAP
1 *3384:A 0.00020028
2 *2563:X 0.00020028
3 *3384:A *2352:A1 0
4 *3384:A *2563:A0 0
5 *3384:A *3402:A 0
*RES
1 *2563:X *3384:A 41.9673 
*END

*D_NET *314 0.00026714
*CONN
*I *3403:A I *D sg13cmos5l_dlygate4sd3_1
*I *2565:X O *D sg13cmos5l_mux2_1
*CAP
1 *3403:A 9.33853e-05
2 *2565:X 9.33853e-05
3 *3403:A *2939:RESET_B 0
4 *3403:A *762:123 8.03692e-05
5 *3019:D *3403:A 0
*RES
1 *2565:X *3403:A 41.133 
*END

*D_NET *315 0.000623979
*CONN
*I *3377:A I *D sg13cmos5l_dlygate4sd3_1
*I *2567:X O *D sg13cmos5l_mux2_1
*CAP
1 *3377:A 0.000191011
2 *2567:X 0.000191011
3 *3377:A *2354:A1 0
4 *3377:A *1139:138 0.000241957
*RES
1 *2567:X *3377:A 41.9673 
*END

*D_NET *316 0.00185412
*CONN
*I *3396:A I *D sg13cmos5l_dlygate4sd3_1
*I *2569:X O *D sg13cmos5l_mux2_1
*CAP
1 *3396:A 0.000439316
2 *2569:X 0.000439316
3 *3396:A *3455:A 0
4 *3396:A *610:33 0.000339245
5 *3396:A *610:48 0.000208282
6 *3396:A *793:12 0.000337934
7 *3396:A *919:14 9.00289e-05
8 *283:22 *3396:A 0
*RES
1 *2569:X *3396:A 44.9466 
*END

*D_NET *317 0.0209898
*CONN
*I *3257:A I *D sg13cmos5l_buf_1
*I *2588:S I *D sg13cmos5l_mux2_1
*I *2590:S I *D sg13cmos5l_mux2_1
*I *2571:X O *D sg13cmos5l_buf_1
*CAP
1 *3257:A 0.000159121
2 *2588:S 0
3 *2590:S 0.000475886
4 *2571:X 0.0013386
5 *317:35 0.00143089
6 *317:20 0.00217054
7 *317:16 0.0005379
8 *317:12 0.000604965
9 *317:8 0.00182856
10 *2590:S *2979:CLK 0
11 *2590:S *1043:8 0
12 *3257:A *3365:A 7.91347e-05
13 *3257:A *624:8 0
14 *3257:A *837:10 0
15 *3257:A *1134:14 0.00012777
16 *317:8 *2595:B 0
17 *317:8 *646:8 0.000242018
18 *317:8 *695:8 0
19 *317:8 *773:78 0
20 *317:8 *1127:30 0
21 *317:12 *896:14 0.00264109
22 *317:16 *3365:A 0.000209225
23 *317:16 *1134:14 0.000209225
24 *317:20 *837:10 0.000181695
25 *317:20 *1138:116 0
26 *317:35 *2366:A1 1.54008e-05
27 *317:35 *2588:A1 0
28 *317:35 *1037:10 0.000209516
29 *317:35 *1138:116 0
30 config_o[30] *317:20 0.000873929
31 config_o[30] *317:35 0.00303569
32 *3250:A *317:8 0
33 *3307:A *317:8 0.00069039
34 *27:10 *317:12 0.00264016
35 *269:66 *317:35 0
36 *277:22 *2590:S 0.000564106
37 *292:16 *317:8 0
38 *294:59 *317:8 0.000723965
*RES
1 *2571:X *317:8 32.7823 
2 *317:8 *317:12 32.2158 
3 *317:12 *317:16 21.4008 
4 *317:16 *317:20 24.0582 
5 *317:20 *2590:S 44.6453 
6 *317:20 *317:35 36.6757 
7 *317:35 *2588:S 20 
8 *317:16 *3257:A 21.751 
*END

*D_NET *318 0.00284366
*CONN
*I *3391:A I *D sg13cmos5l_dlygate4sd3_1
*I *2572:X O *D sg13cmos5l_mux2_1
*CAP
1 *3391:A 0.000469682
2 *2572:X 0.000342176
3 *318:10 0.000811858
4 *3391:A *3210:A 0
5 *3391:A *705:12 0.000194138
6 *3391:A *705:14 0.000338695
7 *3391:A *776:114 0
8 *3391:A *1038:10 0
9 *318:10 *2374:A0 0.000287256
10 *318:10 *2572:A1 0
11 *318:10 *3210:A 0
12 *318:10 *3370:A 0.000111474
13 *126:14 *318:10 0.000288377
14 *286:18 *3391:A 0
*RES
1 *2572:X *318:10 43.8213 
2 *318:10 *3391:A 44.8616 
*END

*D_NET *319 0.00229501
*CONN
*I *3393:A I *D sg13cmos5l_dlygate4sd3_1
*I *2574:X O *D sg13cmos5l_mux2_1
*CAP
1 *3393:A 0.00069794
2 *2574:X 0.000141734
3 *319:8 0.000839674
4 *3393:A *2963:CLK 0.000272801
5 *3393:A *3300:A 0
6 *3393:A *789:14 0
7 *319:8 *748:38 0.000342865
*RES
1 *2574:X *319:8 41.5862 
2 *319:8 *3393:A 45.7268 
*END

*D_NET *320 0.000932439
*CONN
*I *3373:A I *D sg13cmos5l_dlygate4sd3_1
*I *2576:X O *D sg13cmos5l_mux2_1
*CAP
1 *3373:A 0.000104217
2 *2576:X 0.000206069
3 *320:12 0.000310286
4 *3373:A *695:38 0
5 *3373:A *773:42 0
6 *320:12 *637:37 0
7 *320:12 *695:38 0
8 *320:12 *773:42 0.000102126
9 *320:12 *901:22 7.56299e-05
10 config_o[25] *320:12 2.20966e-05
11 *290:22 *3373:A 0.000112015
*RES
1 *2576:X *320:12 42.1012 
2 *320:12 *3373:A 40.9682 
*END

*D_NET *321 0.00100691
*CONN
*I *3375:A I *D sg13cmos5l_dlygate4sd3_1
*I *2578:X O *D sg13cmos5l_mux2_1
*CAP
1 *3375:A 0
2 *2578:X 0.000479578
3 *321:10 0.000479578
4 *321:10 *2579:B 0
5 *321:10 *749:56 0
6 *29:16 *321:10 0
7 *121:12 *321:10 0
8 *294:71 *321:10 4.77537e-05
*RES
1 *2578:X *321:10 44.1921 
2 *321:10 *3375:A 40 
*END

*D_NET *322 0.00144489
*CONN
*I *3341:A I *D sg13cmos5l_dlygate4sd3_1
*I *2580:X O *D sg13cmos5l_mux2_1
*CAP
1 *3341:A 0.000292995
2 *2580:X 5.25561e-05
3 *322:8 0.000345551
4 *3341:A *664:327 0
5 *322:8 *609:28 0.000288588
6 *18:24 *322:8 0.000288675
7 *241:56 *3341:A 0.000176521
*RES
1 *2580:X *322:8 41.339 
2 *322:8 *3341:A 42.6162 
*END

*D_NET *323 0.00280594
*CONN
*I *3343:A I *D sg13cmos5l_dlygate4sd3_1
*I *2582:X O *D sg13cmos5l_mux2_1
*CAP
1 *3343:A 0.000322001
2 *2582:X 0.000271457
3 *323:12 0.000593458
4 *3343:A *2979:CLK 0
5 *3343:A *701:12 9.7025e-05
6 *3343:A *701:22 0.000143948
7 *323:12 *778:51 0.000464365
8 *323:12 *983:10 0.000446352
9 *277:22 *3343:A 0.000467338
*RES
1 *2582:X *323:12 43.5844 
2 *323:12 *3343:A 43.4814 
*END

*D_NET *324 0.00239064
*CONN
*I *3351:A I *D sg13cmos5l_dlygate4sd3_1
*I *2584:X O *D sg13cmos5l_mux2_1
*CAP
1 *3351:A 0.000538656
2 *2584:X 0.000221442
3 *324:8 0.000760099
4 *3351:A *2366:A1 0.000338911
5 *3351:A *2366:S 0
6 *3351:A *926:8 0.000144915
7 *3351:A *943:8 0.000112426
8 *3351:A *1134:72 0.000274189
9 *324:8 *3350:A 0
10 *324:8 *650:8 0
11 *324:8 *994:10 0
12 config_o[24] *324:8 0
*RES
1 *2584:X *324:8 41.8334 
2 *324:8 *3351:A 45.5105 
*END

*D_NET *325 0.00106093
*CONN
*I *3368:A I *D sg13cmos5l_dlygate4sd3_1
*I *2586:X O *D sg13cmos5l_mux2_1
*CAP
1 *3368:A 0
2 *2586:X 0.000410533
3 *325:10 0.000410533
4 *325:10 *2373:S 4.77425e-05
5 *325:10 *639:44 1.54008e-05
6 *325:10 *775:87 0
7 *325:10 *919:14 0.000176718
8 *18:24 *325:10 0
9 *186:26 *325:10 0
10 *283:22 *325:10 0
*RES
1 *2586:X *325:10 44.3466 
2 *325:10 *3368:A 40 
*END

*D_NET *326 0.0015385
*CONN
*I *3371:A I *D sg13cmos5l_dlygate4sd3_1
*I *2588:X O *D sg13cmos5l_mux2_1
*CAP
1 *3371:A 0.000487099
2 *2588:X 0.000487099
3 *3371:A *2589:B 0
4 *3371:A *3298:A 1.5412e-05
5 *3371:A *3390:A 0.00027443
6 *2516:B *3371:A 0
7 *126:8 *3371:A 0.000274463
*RES
1 *2588:X *3371:A 44.7792 
*END

*D_NET *327 0.000246341
*CONN
*I *3347:A I *D sg13cmos5l_dlygate4sd3_1
*I *2590:X O *D sg13cmos5l_mux2_1
*CAP
1 *3347:A 9.92776e-05
2 *2590:X 9.92776e-05
3 *3347:A *2583:B 0
4 *3347:A *2590:A1 0
5 *3347:A *3207:A 0
6 *3347:A *899:22 4.77863e-05
*RES
1 *2590:X *3347:A 41.133 
*END

*D_NET *328 0.00263267
*CONN
*I *3359:A I *D sg13cmos5l_dlygate4sd3_1
*I *2592:X O *D sg13cmos5l_mux2_1
*CAP
1 *3359:A 0.000147436
2 *2592:X 0.000537785
3 *328:12 0.000685221
4 *328:12 *2592:A1 0
5 *328:12 *749:56 0
6 *328:12 *753:46 0
7 *97:8 *328:12 0.000234311
8 *129:14 *3359:A 0.000208271
9 *291:12 *328:12 0.000819651
*RES
1 *2592:X *328:12 45.9637 
2 *328:12 *3359:A 41.4008 
*END

*D_NET *329 0.0027979
*CONN
*I *3366:A I *D sg13cmos5l_dlygate4sd3_1
*I *2594:X O *D sg13cmos5l_mux2_1
*CAP
1 *3366:A 0
2 *2594:X 0.00111025
3 *329:14 0.00111025
4 *329:14 *2377:A1 0
5 *329:14 *2594:A1 4.78524e-05
6 *329:14 *2983:RESET_B 0.000241721
7 *329:14 *2983:D 0.000143171
8 *329:14 *3031:RESET_B 0
9 *329:14 *887:14 0.000144658
10 *329:14 *1076:16 0
11 *3031:D *329:14 0
*RES
1 *2594:X *329:14 30.4648 
2 *329:14 *3366:A 20 
*END

*D_NET *330 0.00273141
*CONN
*I *2597:A I *D sg13cmos5l_buf_1
*I *2596:Y O *D sg13cmos5l_nand3_1
*CAP
1 *2597:A 0.000343053
2 *2596:Y 0.000406157
3 *330:12 0.000749209
4 *2597:A *1151:22 0.000274028
5 *330:12 *2378:A 0
6 *330:12 *2765:A2 0.00039332
7 *330:12 *476:12 0.000287256
8 *330:12 *1116:40 0
9 *330:12 *1121:67 0.000278387
10 *330:12 *1130:46 0
11 *152:8 *330:12 0
*RES
1 *2596:Y *330:12 44.8822 
2 *330:12 *2597:A 42.6986 
*END

*D_NET *331 0.0294595
*CONN
*I *3263:A I *D sg13cmos5l_buf_1
*I *2623:S I *D sg13cmos5l_mux2_1
*I *2621:S I *D sg13cmos5l_mux2_1
*I *2597:X O *D sg13cmos5l_buf_1
*CAP
1 *3263:A 0
2 *2623:S 0
3 *2621:S 0
4 *2597:X 0.000452731
5 *331:63 0.000516901
6 *331:48 0.00100255
7 *331:42 0.00104372
8 *331:36 0.00502578
9 *331:30 0.00500797
10 *331:24 0.00329192
11 *331:14 0.00307647
12 *331:8 0.000777539
13 *331:8 *3272:A 0
14 *331:8 *788:22 0
15 *331:8 *1114:30 0
16 *331:8 *1156:23 0.000236081
17 *331:14 *788:12 0
18 *331:14 *1118:10 0
19 *331:14 *1118:28 0
20 *331:24 *2809:A1 0
21 *331:24 *2811:B 8.01609e-05
22 *331:24 *3075:RESET_B 0
23 *331:24 *3197:A 0
24 *331:24 *3273:A 0
25 *331:24 *512:10 0
26 *331:24 *664:60 0
27 *331:24 *664:72 0
28 *331:24 *665:8 0
29 *331:24 *692:8 0
30 *331:24 *734:10 0
31 *331:24 *1119:25 0
32 *331:24 *1152:14 0
33 *331:24 *1152:64 0
34 *331:24 *1163:10 0
35 *331:24 *1163:20 0
36 *331:24 *1163:32 0
37 *331:30 *2626:B 0.000338593
38 *331:30 *3075:RESET_B 0
39 *331:30 *346:10 0
40 *331:36 *2602:A 0.000501628
41 *331:36 *2604:A 0.000876178
42 *331:36 *2618:A 0.000265893
43 *331:36 *3061:CLK 0
44 *331:36 *711:10 0
45 *331:36 *711:12 0
46 *331:36 *718:12 0
47 *331:36 *730:12 0
48 *331:36 *768:35 0.000716154
49 *331:36 *869:12 0.00135552
50 *331:36 *873:14 0.000828718
51 *331:36 *1104:12 0
52 *331:36 *1107:16 0
53 *331:42 *2619:S 0.000725259
54 *331:42 *3188:A 0
55 *331:42 *683:12 0
56 *331:48 *715:35 8.00842e-05
57 *331:48 *726:21 0.00108481
58 *331:48 *1108:24 0
59 *331:63 *2623:A0 0
60 *331:63 *345:10 8.01612e-05
61 *331:63 *715:35 0
62 *331:63 *829:8 0
63 *331:63 *1105:14 0.000287256
64 sel_load_src_o[1] *331:63 0
65 *3109:D *331:24 0.000312076
66 *3242:A *331:14 0
67 *5:6 *331:36 0
68 *48:22 *331:42 0.00079034
69 *131:10 *331:36 0.000287256
70 *187:10 *331:24 0
71 *187:14 *331:24 0
72 *187:20 *331:48 8.00842e-05
73 *187:20 *331:63 0.000337693
*RES
1 *2597:X *331:8 44.7998 
2 *331:8 *331:14 42.8584 
3 *331:14 *331:24 47.2641 
4 *331:24 *331:30 25.2118 
5 *331:30 *331:36 46.9989 
6 *331:36 *331:42 46.1594 
7 *331:42 *331:48 25.5826 
8 *331:48 *2621:S 20 
9 *331:48 *331:63 45.6856 
10 *331:63 *2623:S 20 
11 *331:24 *3263:A 20 
*END

*D_NET *332 0.0116445
*CONN
*I *2607:S I *D sg13cmos5l_mux2_1
*I *2615:S I *D sg13cmos5l_mux2_1
*I *3256:A I *D sg13cmos5l_buf_1
*I *2598:X O *D sg13cmos5l_buf_1
*CAP
1 *2607:S 0.000330906
2 *2615:S 0
3 *3256:A 0.000585382
4 *2598:X 0.000613881
5 *332:42 0.00106546
6 *332:25 0.00172561
7 *332:8 0.00219032
8 *2607:S *771:42 0.000112536
9 *2607:S *847:14 0
10 *2607:S *1108:20 0
11 *3256:A *727:31 0
12 *3256:A *1064:8 0.000715421
13 *3256:A *1133:22 0
14 *3256:A *1133:26 0
15 *332:8 *2598:A 0
16 *332:8 *3063:RESET_B 0
17 *332:8 *3063:CLK 0
18 *332:8 *727:50 0
19 *332:8 *1141:115 0
20 *332:25 *2599:A1 0
21 *332:25 *3410:A 8.00842e-05
22 *332:25 *334:8 0.000128663
23 *332:25 *727:31 0.000341204
24 *332:25 *728:12 0.000341119
25 *332:25 *728:36 0.00234212
26 *332:25 *1133:26 0
27 *332:42 *2616:B 2.20968e-05
28 *332:42 *3410:A 8.00842e-05
29 *332:42 *731:26 0.000340704
30 *332:42 *768:14 0
31 *332:42 *1100:12 7.52158e-05
32 *332:42 *1108:20 0
33 *332:42 *1133:65 0.000553662
*RES
1 *2598:X *332:8 45.5105 
2 *332:8 *3256:A 45.7886 
3 *332:8 *332:25 34.3067 
4 *332:25 *2615:S 20 
5 *332:25 *332:42 47.3954 
6 *332:42 *2607:S 23.0488 
*END

*D_NET *333 0.00164919
*CONN
*I *2600:B I *D sg13cmos5l_and2_1
*I *2599:X O *D sg13cmos5l_mux2_1
*CAP
1 *2600:B 0.00067165
2 *2599:X 0.00067165
3 *2600:B *3410:A 0
4 *2600:B *723:10 0.000305893
5 *2600:B *768:14 0
6 *3049:D *2600:B 0
*RES
1 *2599:X *2600:B 45.8607 
*END

*D_NET *334 0.000595739
*CONN
*I *2602:B I *D sg13cmos5l_and2_1
*I *2601:X O *D sg13cmos5l_mux2_1
*CAP
1 *2602:B 0.00019241
2 *2601:X 4.11283e-05
3 *334:8 0.000233538
4 *2602:B *1107:14 0
5 *332:25 *334:8 0.000128663
*RES
1 *2601:X *334:8 40.5974 
2 *334:8 *2602:B 42.0446 
*END

*D_NET *335 0.000817682
*CONN
*I *2604:B I *D sg13cmos5l_and2_1
*I *2603:X O *D sg13cmos5l_mux2_1
*CAP
1 *2604:B 0.000312925
2 *2603:X 0.000312925
3 *2604:B *2604:A 7.94055e-05
4 *2604:B *3187:A 0.000112426
*RES
1 *2603:X *2604:B 42.9664 
*END

*D_NET *336 0.00066529
*CONN
*I *2606:B I *D sg13cmos5l_and2_1
*I *2605:X O *D sg13cmos5l_mux2_1
*CAP
1 *2606:B 0.000321557
2 *2605:X 0.000321557
3 *2606:B *2603:A0 2.21754e-05
4 *2606:B *2606:A 0
5 *2606:B *769:12 0
6 *3055:D *2606:B 0
*RES
1 *2605:X *2606:B 42.6162 
*END

*D_NET *337 0.000752775
*CONN
*I *2608:B I *D sg13cmos5l_and2_1
*I *2607:X O *D sg13cmos5l_mux2_1
*CAP
1 *2608:B 0.000312428
2 *2607:X 0.000312428
3 *2608:B *3398:A 1.54008e-05
4 *2608:B *768:29 0.000112519
5 *2608:B *771:27 0
6 *134:12 *2608:B 0
*RES
1 *2607:X *2608:B 43.1621 
*END

*D_NET *338 0.00137673
*CONN
*I *2610:B I *D sg13cmos5l_and2_1
*I *2609:X O *D sg13cmos5l_mux2_1
*CAP
1 *2610:B 0.000165523
2 *2609:X 0.000325717
3 *338:10 0.00049124
4 *338:10 *2609:A0 0
5 *338:10 *728:18 0.000394248
6 *3063:D *2610:B 0
*RES
1 *2609:X *338:10 42.369 
2 *338:10 *2610:B 41.5836 
*END

*D_NET *339 0.00155217
*CONN
*I *2612:B I *D sg13cmos5l_and2_1
*I *2611:X O *D sg13cmos5l_mux2_1
*CAP
1 *2612:B 0.00032534
2 *2611:X 0.00032534
3 *2612:B *2609:A1 0
4 *2612:B *2612:A 0.000434516
5 *2612:B *3061:RESET_B 0
6 *3059:D *2612:B 0.000466973
7 *3061:D *2612:B 0
*RES
1 *2611:X *2612:B 43.9449 
*END

*D_NET *340 0.000682047
*CONN
*I *2614:B I *D sg13cmos5l_and2_1
*I *2613:X O *D sg13cmos5l_mux2_1
*CAP
1 *2614:B 0.000252873
2 *2613:X 0.000252873
3 *2614:B *3063:RESET_B 0
4 *2614:B *1147:75 0.000176301
5 *3059:D *2614:B 0
*RES
1 *2613:X *2614:B 42.5647 
*END

*D_NET *341 0.000776431
*CONN
*I *3398:A I *D sg13cmos5l_dlygate4sd3_1
*I *2615:X O *D sg13cmos5l_mux2_1
*CAP
1 *3398:A 0.000380515
2 *2615:X 0.000380515
3 *3398:A *768:35 0
4 *3398:A *771:27 0
5 *2608:B *3398:A 1.54008e-05
*RES
1 *2615:X *3398:A 43.1106 
*END

*D_NET *342 0.00206193
*CONN
*I *2618:B I *D sg13cmos5l_and2_1
*I *2617:X O *D sg13cmos5l_mux2_1
*CAP
1 *2618:B 0.000556085
2 *2617:X 0.000556085
3 *2618:B *2618:A 0.000531357
4 *2618:B *3051:RESET_B 0.000241886
5 *2618:B *675:8 0
6 *2618:B *1106:22 0
7 *3051:D *2618:B 0.000176521
8 *3067:D *2618:B 0
*RES
1 *2617:X *2618:B 45.8607 
*END

*D_NET *343 0.0036314
*CONN
*I *2620:B I *D sg13cmos5l_and2_1
*I *2619:X O *D sg13cmos5l_mux2_1
*CAP
1 *2620:B 0.00062004
2 *2619:X 0.00066786
3 *343:10 0.0012879
4 *2620:B *1031:10 7.94055e-05
5 *343:10 *3071:RESET_B 0
6 *343:10 *1014:14 0.000767328
7 en_ros_o[3] *2620:B 0.000208862
*RES
1 *2619:X *343:10 44.5938 
2 *343:10 *2620:B 45.7783 
*END

*D_NET *344 0.00157676
*CONN
*I *3357:A I *D sg13cmos5l_dlygate4sd3_1
*I *2621:X O *D sg13cmos5l_mux2_1
*CAP
1 *3357:A 7.64812e-05
2 *2621:X 0.000311323
3 *344:10 0.000387804
4 *3357:A *715:35 0
5 *344:10 *829:8 0
6 *344:10 *1001:10 0.000240503
7 *344:10 *1105:12 0
8 sel_load_src_o[1] *3357:A 0.000112441
9 *47:10 *344:10 0.000448209
*RES
1 *2621:X *344:10 43.6977 
2 *344:10 *3357:A 40.7519 
*END

*D_NET *345 0.00111843
*CONN
*I *3349:A I *D sg13cmos5l_dlygate4sd3_1
*I *2623:X O *D sg13cmos5l_mux2_1
*CAP
1 *3349:A 0
2 *2623:X 0.000348989
3 *345:10 0.000348989
4 *345:10 *992:8 0
5 *345:10 *1105:14 0.000340288
6 *187:20 *345:10 0
7 *331:63 *345:10 8.01612e-05
*RES
1 *2623:X *345:10 43.4505 
2 *345:10 *3349:A 40 
*END

*D_NET *346 0.00132671
*CONN
*I *3345:A I *D sg13cmos5l_dlygate4sd3_1
*I *2625:X O *D sg13cmos5l_mux2_1
*CAP
1 *3345:A 2.60565e-05
2 *2625:X 0.000241696
3 *346:10 0.000267753
4 *3345:A *2625:S 4.77425e-05
5 *3345:A *703:8 4.77425e-05
6 *346:10 *2626:B 0.000144921
7 *346:10 *3075:RESET_B 0.000209676
8 *346:10 *3079:CLK 0.000288087
9 *346:10 *703:19 5.30319e-05
10 *331:30 *346:10 0
*RES
1 *2625:X *346:10 42.987 
2 *346:10 *3345:A 40.3193 
*END

*D_NET *347 0.000243182
*CONN
*I *3407:A I *D sg13cmos5l_dlygate4sd3_1
*I *2627:X O *D sg13cmos5l_mux2_1
*CAP
1 *3407:A 0.000121591
2 *2627:X 0.000121591
*RES
1 *2627:X *3407:A 41.133 
*END

*D_NET *348 0.000765367
*CONN
*I *3380:A I *D sg13cmos5l_dlygate4sd3_1
*I *2629:X O *D sg13cmos5l_mux2_1
*CAP
1 *3380:A 0.000342826
2 *2629:X 0.000342826
3 *3380:A *2630:B 0
4 *3380:A *729:20 7.97151e-05
5 *3380:A *816:10 0
6 *145:12 *3380:A 0
*RES
1 *2629:X *3380:A 43.8007 
*END

*D_NET *349 0.000191713
*CONN
*I *3339:A I *D sg13cmos5l_dlygate4sd3_1
*I *2631:X O *D sg13cmos5l_mux2_1
*CAP
1 *3339:A 9.58565e-05
2 *2631:X 9.58565e-05
3 *3339:A *2631:A1 0
4 *3339:A *3081:RESET_B 0
*RES
1 *2631:X *3339:A 41.133 
*END

*D_NET *350 0.000956354
*CONN
*I *3401:A I *D sg13cmos5l_dlygate4sd3_1
*I *2633:X O *D sg13cmos5l_mux2_1
*CAP
1 *3401:A 0
2 *2633:X 0.000307367
3 *350:10 0.000307367
4 *350:10 *2634:B 0
5 *350:10 *3083:RESET_B 0
6 *350:10 *672:16 0
7 *350:10 *721:22 0
8 *350:10 *1141:49 0.00034162
*RES
1 *2633:X *350:10 43.2033 
2 *350:10 *3401:A 40 
*END

*D_NET *351 0.000639367
*CONN
*I *2636:B I *D sg13cmos5l_and2_1
*I *2635:X O *D sg13cmos5l_mux2_1
*CAP
1 *2636:B 0.000319684
2 *2635:X 0.000319684
3 *2636:B *3085:CLK 0
4 *2636:B *721:12 0
5 *148:10 *2636:B 0
*RES
1 *2635:X *2636:B 42.741 
*END

*D_NET *352 0.0171203
*CONN
*I *3241:A I *D sg13cmos5l_buf_1
*I *2900:B I *D sg13cmos5l_or3_1
*I *2899:A1 I *D sg13cmos5l_o21ai_1
*I *2637:X O *D sg13cmos5l_buf_1
*CAP
1 *3241:A 7.90101e-05
2 *2900:B 0.000230651
3 *2899:A1 0
4 *2637:X 0.000716425
5 *352:32 0.00233164
6 *352:30 0.00423726
7 *352:10 0.0029317
8 *2900:B *2900:A 1.54556e-05
9 *2900:B *2900:C 0
10 *2900:B *3111:RESET_B 0
11 *2900:B *3143:CLK 1.54556e-05
12 *3241:A *354:43 0.000144768
13 *3241:A *358:29 0.000144768
14 *352:10 *757:72 0
15 *352:10 *1113:82 0
16 *352:30 *2645:C 7.87737e-05
17 *352:30 *2774:A 0.0001758
18 *352:30 *2777:A 0.000274638
19 *352:30 *3113:CLK 0
20 *352:30 *3427:A 8.00842e-05
21 *352:30 *358:43 0
22 *352:30 *358:47 0.000337715
23 *352:30 *358:58 0.000669083
24 *352:30 *359:60 1.54008e-05
25 *352:30 *487:10 0.000209533
26 *352:30 *556:10 0.000176443
27 *352:30 *1117:10 0.000181192
28 *352:30 *1118:61 0
29 *352:30 *1126:28 0
30 *352:30 *1126:39 0
31 *352:30 *1126:72 0
32 *352:30 *1142:12 0.000143932
33 *352:30 *1142:20 8.00842e-05
34 *352:30 *1142:38 0.00037174
35 *352:30 *1150:80 0.000594969
36 *352:32 *2694:A 0
37 *352:32 *2707:A 0.000176383
38 *352:32 *2710:B2 0
39 *352:32 *2817:A 0
40 *352:32 *2863:A 0
41 *352:32 *2865:C 0
42 *352:32 *2898:B 0
43 *352:32 *2899:A2 0.000144836
44 *352:32 *3129:CLK 0.000466908
45 *352:32 *3143:CLK 0.000274507
46 *352:32 *3427:A 4.77425e-05
47 *352:32 *410:33 0.000435973
48 *352:32 *424:16 0
49 *352:32 *487:52 0
50 *352:32 *487:73 0
51 *352:32 *519:10 0
52 *352:32 *585:6 0
53 *352:32 *1126:72 0.00120949
54 *352:32 *1142:104 8.02267e-05
55 *352:32 *1154:83 0
56 *352:32 *1154:111 0
57 *3111:D *352:32 0
58 *208:25 *352:10 4.77425e-05
*RES
1 *2637:X *352:10 45.8607 
2 *352:10 *352:30 41.7845 
3 *352:30 *352:32 21.733 
4 *352:32 *2899:A1 20 
5 *352:32 *2900:B 22.9046 
6 *352:10 *3241:A 40.9682 
*END

*D_NET *353 0.00133104
*CONN
*I *2639:A I *D sg13cmos5l_buf_1
*I *2638:Y O *D sg13cmos5l_nor2b_1
*CAP
1 *2639:A 0.000194862
2 *2638:Y 0.000145572
3 *353:10 0.000340434
4 *2639:A *798:12 4.78192e-05
5 *353:10 *2643:A 8.03692e-05
6 *353:10 *358:10 0.000287256
7 *353:10 *499:26 0.000234726
*RES
1 *2638:Y *353:10 42.1218 
2 *353:10 *2639:A 41.4008 
*END

*D_NET *354 0.0148999
*CONN
*I *2865:C I *D sg13cmos5l_nor4_1
*I *3255:A I *D sg13cmos5l_buf_1
*I *2639:X O *D sg13cmos5l_buf_1
*CAP
1 *2865:C 0.00036433
2 *3255:A 0
3 *2639:X 0.000145598
4 *354:49 0.00183883
5 *354:43 0.00207812
6 *354:30 0.000153333
7 *354:22 0.000832462
8 *354:18 0.000804028
9 *354:10 0.000874114
10 *2865:C *2865:A 8.50058e-06
11 *2865:C *2865:D 3.7631e-05
12 *2865:C *3427:A 0.000241204
13 *2865:C *358:69 0.000208708
14 *2865:C *487:52 0
15 *2865:C *1073:41 0.000112409
16 *2865:C *1117:85 8.88697e-06
17 *2865:C *1154:83 0.000144833
18 *2865:C *1154:94 1.54008e-05
19 *354:10 *798:12 0.00028206
20 *354:18 *355:49 0
21 *354:18 *361:8 0.000181192
22 *354:18 *732:14 0
23 *354:18 *1136:42 0.00108523
24 *354:18 *1150:32 0.00023464
25 *354:18 *1151:114 0.000287672
26 *354:30 *358:29 0.000140165
27 *354:30 *762:35 0.000140165
28 *354:30 *1136:42 0.000181192
29 *354:43 *358:29 0
30 *354:43 *481:16 0.000181192
31 *354:43 *486:8 7.92096e-05
32 *354:43 *1117:10 7.94055e-05
33 *354:43 *1118:40 0
34 *354:43 *1118:61 0
35 *354:49 *358:43 0
36 *354:49 *481:16 0.000401904
37 *354:49 *736:8 0
38 *354:49 *757:86 0.00176092
39 *354:49 *762:41 0.00117652
40 *354:49 *762:59 0.000234224
41 *354:49 *1148:47 0.00039332
42 *3087:D *354:18 4.77425e-05
43 *3241:A *354:43 0.000144768
44 *209:33 *354:49 0
45 *352:32 *2865:C 0
*RES
1 *2639:X *354:10 41.4111 
2 *354:10 *354:18 47.7456 
3 *354:18 *354:22 20.5356 
4 *354:22 *354:30 41.7845 
5 *354:30 *3255:A 20 
6 *354:22 *354:43 45.3045 
7 *354:43 *354:49 37.0774 
8 *354:49 *2865:C 44.2539 
*END

*D_NET *355 0.0102927
*CONN
*I *2714:A I *D sg13cmos5l_xor2_1
*I *2641:D I *D sg13cmos5l_or4_1
*I *2646:B I *D sg13cmos5l_and2_1
*I *2686:A I *D sg13cmos5l_xor2_1
*I *2673:A_N I *D sg13cmos5l_nand3b_1
*I *2675:A I *D sg13cmos5l_nand2_1
*I *2640:Y O *D sg13cmos5l_xnor2_1
*CAP
1 *2714:A 0.000945006
2 *2641:D 0
3 *2646:B 0
4 *2686:A 0.000499353
5 *2673:A_N 2.60565e-05
6 *2675:A 0.000211818
7 *2640:Y 2.56377e-05
8 *355:64 0.000409404
9 *355:49 0.00119149
10 *355:45 0.00189474
11 *355:21 0.000627573
12 *355:10 0.000418316
13 *355:6 0.000297624
14 *2673:A_N *2673:C 4.77425e-05
15 *2673:A_N *395:49 4.77425e-05
16 *2675:A *2675:B 0
17 *2675:A *390:16 1.71864e-05
18 *2675:A *740:37 0
19 *2675:A *760:29 0.000305903
20 *2686:A *384:18 4.77425e-05
21 *2686:A *757:39 0.00106272
22 *2686:A *1149:41 4.77425e-05
23 *2714:A *395:49 0
24 *2714:A *495:8 0.00024127
25 *2714:A *742:48 0.000144206
26 *2714:A *1092:32 0
27 *2714:A *1136:42 0
28 *2714:A *1150:94 0.000128663
29 *355:6 *2759:B 4.78359e-05
30 *355:6 *758:33 4.77425e-05
31 *355:10 *757:39 0.000234224
32 *355:21 *757:39 0.000212127
33 *355:45 *2759:B 0.000289857
34 *355:45 *758:33 4.77425e-05
35 *355:45 *758:42 0.000257477
36 *355:49 *1136:42 0
37 *355:64 *2647:A2 0
38 *355:64 *358:29 0
39 *355:64 *360:12 0
40 *355:64 *1118:40 0.000176581
41 *355:64 *1136:42 0.000341204
42 *183:46 *2714:A 0
43 *183:54 *2714:A 0
44 *354:18 *355:49 0
*RES
1 *2640:Y *355:6 20.3193 
2 *355:6 *355:10 21.0918 
3 *355:10 *2675:A 42.0497 
4 *355:10 *355:21 1.0918 
5 *355:21 *2673:A_N 40.3193 
6 *355:21 *2686:A 45.3663 
7 *355:6 *355:45 22.0497 
8 *355:45 *355:49 27.519 
9 *355:49 *2646:B 20 
10 *355:49 *355:64 43.9552 
11 *355:64 *2641:D 20 
12 *355:45 *2714:A 49.2288 
*END

*D_NET *356 0.000682333
*CONN
*I *2648:B I *D sg13cmos5l_nand4_1
*I *2641:X O *D sg13cmos5l_or4_1
*CAP
1 *2648:B 0.000172748
2 *2641:X 0.000172748
3 *2648:B *2647:A2 0
4 *2648:B *2648:C 4.79124e-05
5 *2648:B *1146:26 0
6 *2648:B *1150:32 0.000176274
7 *2648:B *1151:114 0.000112651
*RES
1 *2641:X *2648:B 41.8334 
*END

*D_NET *357 0.00205425
*CONN
*I *2643:A I *D sg13cmos5l_buf_1
*I *2642:Y O *D sg13cmos5l_nand2b_1
*CAP
1 *2643:A 0.00025521
2 *2642:Y 0.000335158
3 *357:8 0.000590369
4 *2643:A *358:10 0
5 *2643:A *499:26 0
6 *2643:A *1130:46 0
7 *357:8 *876:44 0
8 *357:8 *1084:18 0.000793139
9 *2638:B_N *2643:A 0
10 *353:10 *2643:A 8.03692e-05
*RES
1 *2642:Y *357:8 43.811 
2 *357:8 *2643:A 42.4823 
*END

*D_NET *358 0.0216006
*CONN
*I *2849:B I *D sg13cmos5l_and2_1
*I *2751:A I *D sg13cmos5l_buf_1
*I *2722:A I *D sg13cmos5l_nand4_1
*I *2855:B I *D sg13cmos5l_and2_1
*I *2862:B I *D sg13cmos5l_and2_1
*I *2644:A I *D sg13cmos5l_buf_1
*I *2646:A I *D sg13cmos5l_and2_1
*I *2643:X O *D sg13cmos5l_buf_1
*CAP
1 *2849:B 0.000257184
2 *2751:A 0
3 *2722:A 0
4 *2855:B 0
5 *2862:B 0
6 *2644:A 0
7 *2646:A 0
8 *2643:X 0.000701388
9 *358:108 0.000228355
10 *358:100 0.000376517
11 *358:96 0.00145724
12 *358:84 0.00159136
13 *358:69 0.000529711
14 *358:58 0.000799504
15 *358:47 0.000783878
16 *358:43 0.000939985
17 *358:29 0.00174137
18 *358:18 0.00112907
19 *358:10 0.00105445
20 *2849:B *3101:CLK 0.00039332
21 *2849:B *708:55 0.000212127
22 *2849:B *742:27 4.77537e-05
23 *2849:B *1132:42 4.77537e-05
24 *358:10 *499:26 0.000111716
25 *358:10 *732:14 0
26 *358:10 *798:12 0
27 *358:10 *1146:26 0.000765876
28 *358:18 *3087:CLK 0
29 *358:18 *360:12 0
30 *358:18 *762:35 0
31 *358:18 *1148:41 0.000143281
32 *358:29 *360:12 0
33 *358:29 *481:16 0.000144181
34 *358:29 *486:8 0.000176235
35 *358:29 *762:35 0
36 *358:29 *1118:40 0
37 *358:29 *1132:42 0
38 *358:43 *3101:CLK 0.000234224
39 *358:43 *487:10 0.000209533
40 *358:43 *487:28 7.53209e-05
41 *358:43 *487:52 4.68848e-05
42 *358:43 *708:55 0.000234224
43 *358:43 *757:86 0
44 *358:43 *1092:16 0
45 *358:43 *1118:61 0.000240196
46 *358:47 *487:52 0.000402244
47 *358:58 *3427:A 4.77425e-05
48 *358:58 *487:52 0.00069482
49 *358:69 *3427:A 0
50 *358:69 *487:52 0.000273304
51 *358:84 *487:52 1.54008e-05
52 *358:84 *1073:33 4.77425e-05
53 *358:84 *1073:41 0.000315176
54 *358:84 *1123:51 4.77425e-05
55 *358:84 *1154:83 0
56 *358:96 *378:22 0.00012816
57 *358:96 *437:10 0.000129089
58 *358:96 *441:43 0
59 *358:96 *553:10 0.000287256
60 *358:96 *752:37 0
61 *358:96 *903:10 7.51285e-05
62 *358:96 *1117:85 0.000287256
63 *358:96 *1123:51 0.000196801
64 *358:96 *1143:43 0
65 *358:96 *1143:60 0.000982242
66 *358:96 *1154:83 0
67 *358:100 *378:22 0
68 *358:100 *407:32 0
69 *358:100 *1079:12 0
70 *358:108 *2722:B 1.54008e-05
71 *358:108 *2722:C 0
72 *358:108 *407:32 0
73 *358:108 *436:10 0.000176498
74 *358:108 *437:10 4.77425e-05
75 *358:108 *1115:8 0.000288588
76 *358:108 *1143:43 0.000287256
77 *2643:A *358:10 0
78 *2865:C *358:69 0.000208708
79 *3241:A *358:29 0.000144768
80 *149:14 *358:10 0.000394653
81 *352:30 *358:43 0
82 *352:30 *358:47 0.000337715
83 *352:30 *358:58 0.000669083
84 *353:10 *358:10 0.000287256
85 *354:30 *358:29 0.000140165
86 *354:43 *358:29 0
87 *354:49 *358:43 0
88 *355:64 *358:29 0
*RES
1 *2643:X *358:10 48.0237 
2 *358:10 *358:18 23.055 
3 *358:18 *2646:A 20 
4 *358:18 *358:29 27.2203 
5 *358:29 *358:43 47.6838 
6 *358:43 *358:47 22.6986 
7 *358:47 *2644:A 20 
8 *358:47 *358:58 6.3963 
9 *358:58 *2862:B 20 
10 *358:58 *358:69 2.9664 
11 *358:69 *2855:B 20 
12 *358:69 *358:84 42.8428 
13 *358:84 *358:96 35.7796 
14 *358:96 *358:100 21.1845 
15 *358:100 *358:108 42.9561 
16 *358:108 *2722:A 20 
17 *358:100 *2751:A 20 
18 *358:29 *2849:B 43.1415 
*END

*D_NET *359 0.0251565
*CONN
*I *3249:A I *D sg13cmos5l_buf_1
*I *2904:S I *D sg13cmos5l_mux2_2
*I *2895:S I *D sg13cmos5l_mux2_1
*I *2644:X O *D sg13cmos5l_buf_1
*CAP
1 *3249:A 0
2 *2904:S 0
3 *2895:S 0.000803531
4 *2644:X 0
5 *359:60 0.000741608
6 *359:43 0.0015918
7 *359:33 0.00210124
8 *359:12 0.00131297
9 *359:10 0.00195217
10 *359:4 0.00269378
11 *2895:S *1120:46 0.00130609
12 *2895:S *1124:34 0.00137077
13 *359:10 *2702:D 0
14 *359:10 *2829:A 0
15 *359:10 *364:49 0
16 *359:10 *429:31 0
17 *359:10 *451:31 0
18 *359:10 *451:51 0
19 *359:10 *487:52 4.76296e-05
20 *359:10 *688:8 0
21 *359:10 *762:49 0.000250553
22 *359:10 *762:96 0.000531247
23 *359:10 *762:107 0.00418272
24 *359:10 *762:117 0
25 *359:10 *763:89 0
26 *359:10 *1079:8 0
27 *359:10 *1118:101 0.000714296
28 *359:10 *1122:53 0
29 *359:10 *1130:83 0
30 *359:10 *1149:59 0
31 *359:33 *2825:A1 0
32 *359:33 *405:8 7.51285e-05
33 *359:33 *688:54 0.000128576
34 *359:33 *1120:46 0.000273694
35 *359:33 *1124:34 0.000259349
36 *359:33 *1126:113 0.000234224
37 *359:43 *2690:B 0
38 *359:43 *2870:A0 0
39 *359:43 *2905:B 0.000144583
40 *359:43 *3139:D 0
41 *359:43 *365:8 0.000208956
42 *359:43 *563:10 0.000112558
43 *359:43 *589:10 0.000235228
44 *359:43 *590:10 3.12555e-05
45 *359:43 *746:42 0.00155871
46 *359:43 *750:26 0
47 *359:43 *753:18 0
48 *359:43 *756:26 0
49 *359:43 *1120:14 0
50 *359:43 *1155:96 0.000443224
51 *359:60 *3113:CLK 0.000323965
52 *359:60 *487:52 0.000129767
53 *359:60 *529:8 0.00039332
54 *359:60 *688:14 4.79124e-05
55 *359:60 *762:49 0.000145162
56 *359:60 *1117:49 4.77425e-05
57 *359:60 *1126:16 0.000566107
58 *359:60 *1142:20 0.000181192
59 *352:30 *359:60 1.54008e-05
*RES
1 *2644:X *359:4 20 
2 *359:4 *359:10 47.6143 
3 *359:10 *359:12 20 
4 *359:12 *2895:S 29.5378 
5 *359:12 *359:33 46.2521 
6 *359:33 *359:43 36.9435 
7 *359:43 *2904:S 40 
8 *359:4 *359:60 48.5284 
9 *359:60 *3249:A 20 
*END

*D_NET *360 0.0024409
*CONN
*I *2648:C I *D sg13cmos5l_nand4_1
*I *2645:Y O *D sg13cmos5l_nand3_1
*CAP
1 *2648:C 0.000249173
2 *2645:Y 0.000739192
3 *360:12 0.000988365
4 *2648:C *2647:A2 0
5 *2648:C *1118:28 0
6 *2648:C *1150:40 0
7 *2648:C *1151:99 0.000112519
8 *2648:C *1151:114 0
9 *360:12 *3087:CLK 4.77425e-05
10 *360:12 *732:14 0
11 *360:12 *987:20 4.78521e-05
12 *360:12 *987:36 0.00020814
13 *360:12 *1118:40 0
14 *2648:B *2648:C 4.79124e-05
15 *355:64 *360:12 0
16 *358:18 *360:12 0
17 *358:29 *360:12 0
*RES
1 *2645:Y *360:12 45.9946 
2 *360:12 *2648:C 42.0497 
*END

*D_NET *361 0.000486483
*CONN
*I *2647:B1 I *D sg13cmos5l_a22oi_1
*I *2646:X O *D sg13cmos5l_and2_1
*CAP
1 *2647:B1 3.10612e-05
2 *2646:X 5.24481e-05
3 *361:8 8.35093e-05
4 *2647:B1 *362:10 4.77425e-05
5 *2647:B1 *987:20 1.54008e-05
6 *361:8 *987:20 7.51285e-05
7 *354:18 *361:8 0.000181192
*RES
1 *2646:X *361:8 40.8446 
2 *361:8 *2647:B1 40.3193 
*END

*D_NET *362 0.000772469
*CONN
*I *2648:D I *D sg13cmos5l_nand4_1
*I *2647:Y O *D sg13cmos5l_a22oi_1
*CAP
1 *2648:D 0
2 *2647:Y 0.000106661
3 *362:10 0.000106661
4 *362:10 *987:20 0.00023464
5 *362:10 *1118:40 0.00018128
6 *362:10 *1150:32 4.77425e-05
7 *362:10 *1150:40 4.77425e-05
8 *2647:B1 *362:10 4.77425e-05
*RES
1 *2647:Y *362:10 41.6274 
2 *362:10 *2648:D 40 
*END

*D_NET *363 0.00194207
*CONN
*I *2750:A_N I *D sg13cmos5l_nand2b_2
*I *2648:Y O *D sg13cmos5l_nand4_1
*CAP
1 *2750:A_N 0
2 *2648:Y 0.000258114
3 *363:10 0.000258114
4 *363:10 *3271:A 0.000446767
5 *363:10 *987:20 0.000818493
6 *363:10 *1146:26 8.02924e-05
7 *363:10 *1151:99 1.54556e-05
8 *363:10 *1151:114 6.48368e-05
*RES
1 *2648:Y *363:10 44.3466 
2 *363:10 *2750:A_N 40 
*END

*D_NET *364 0.00385354
*CONN
*I *2878:B I *D sg13cmos5l_xnor2_1
*I *2652:A I *D sg13cmos5l_nand2_1
*I *2653:A I *D sg13cmos5l_or2_1
*I *2656:C I *D sg13cmos5l_nand3b_1
*I *2649:X O *D sg13cmos5l_xor2_1
*CAP
1 *2878:B 0
2 *2652:A 0
3 *2653:A 3.05735e-05
4 *2656:C 0.000170789
5 *2649:X 5.39839e-05
6 *364:49 0.000762162
7 *364:34 0.00126286
8 *364:19 0.000587853
9 *364:10 0.000227372
10 *364:8 5.39839e-05
11 *2653:A *2653:B 0
12 *2653:A *1131:36 0
13 *2656:C *2662:A2 0
14 *2656:C *2844:B 0
15 *2656:C *1131:40 0
16 *2656:C *1131:64 0
17 *364:8 *435:10 0.000288088
18 *364:8 *760:59 0.000288174
19 *364:19 *2662:A2 0
20 *364:19 *1131:64 0
21 *364:34 *2662:S0 0
22 *364:34 *2662:A0 0.000112303
23 *364:34 *2662:A1 0
24 *364:34 *2662:A2 0
25 *364:34 *740:66 0
26 *364:34 *1131:64 0
27 *364:34 *1131:66 0
28 *364:49 *2676:A 0
29 *364:49 *2702:D 0
30 *364:49 *2878:A 1.54008e-05
31 *364:49 *397:44 0
32 *364:49 *400:16 0
33 *364:49 *740:66 0
34 *364:49 *763:76 0
35 *364:49 *763:89 0
36 *359:10 *364:49 0
*RES
1 *2649:X *364:8 41.339 
2 *364:8 *364:10 20 
3 *364:10 *2656:C 21.4008 
4 *364:10 *364:19 0.5356 
5 *364:19 *2653:A 20.3502 
6 *364:19 *364:34 4.7998 
7 *364:34 *2652:A 20 
8 *364:34 *364:49 47.1688 
9 *364:49 *2878:B 20 
*END

*D_NET *365 0.00152389
*CONN
*I *2690:B I *D sg13cmos5l_xor2_1
*I *2651:A I *D sg13cmos5l_buf_2
*I *2650:X O *D sg13cmos5l_xor2_1
*CAP
1 *2690:B 0.000353801
2 *2651:A 0.000115205
3 *2650:X 0.000116371
4 *365:8 0.000585377
5 *2651:A *3194:A 0
6 *2651:A *738:35 0
7 *2690:B *3194:A 0
8 *2690:B *736:80 0
9 *2690:B *741:109 0
10 *2690:B *756:26 0
11 *365:8 *736:80 0.000144184
12 *365:8 *756:26 0
13 *359:43 *2690:B 0
14 *359:43 *365:8 0.000208956
*RES
1 *2650:X *365:8 41.4008 
2 *365:8 *2651:A 41.0918 
3 *365:8 *2690:B 43.2698 
*END

*D_NET *366 0.00534124
*CONN
*I *2911:B I *D sg13cmos5l_xnor2_1
*I *2702:C I *D sg13cmos5l_nand4_1
*I *3254:A I *D sg13cmos5l_buf_1
*I *2651:X O *D sg13cmos5l_buf_2
*CAP
1 *2911:B 0.000253114
2 *2702:C 2.84713e-05
3 *3254:A 0.000628039
4 *2651:X 0
5 *366:27 0.000616518
6 *366:17 0.0012537
7 *366:4 0.00104058
8 *2702:C *2702:B 4.77425e-05
9 *2702:C *2702:D 1.54008e-05
10 *2911:B *2879:B 0
11 *2911:B *2911:A 0
12 *2911:B *1119:113 0
13 *2911:B *1119:121 0
14 *3254:A *2825:A1 0
15 *3254:A *2870:A0 0
16 *3254:A *741:115 0
17 *3254:A *1119:97 0
18 *3254:A *1126:103 0.000338872
19 *3254:A *1126:113 0.000175853
20 *3254:A *1131:10 0
21 *366:17 *570:8 0
22 *366:17 *679:14 0
23 *366:17 *1119:113 0.000234224
24 *366:27 *2878:A 0
25 *366:27 *369:69 8.02598e-05
26 *366:27 *400:16 0
27 *366:27 *679:14 0
28 *366:27 *688:54 0.000553247
29 *366:27 *738:35 0
30 *366:27 *1119:113 0
31 *366:27 *1150:126 7.52158e-05
32 *2903:S *2911:B 0
*RES
1 *2651:X *366:4 20 
2 *366:4 *3254:A 26.2933 
3 *366:4 *366:17 23.811 
4 *366:17 *366:27 46.2109 
5 *366:27 *2702:C 40.3193 
6 *366:17 *2911:B 42.2866 
*END

*D_NET *367 0.000684922
*CONN
*I *2662:A0 I *D sg13cmos5l_mux4_1
*I *2652:Y O *D sg13cmos5l_nand2_1
*CAP
1 *2662:A0 0.000206433
2 *2652:Y 0.000206433
3 *2662:A0 *2653:B 0
4 *2662:A0 *2662:S0 1.54556e-05
5 *2662:A0 *1131:66 0.000144297
6 *364:34 *2662:A0 0.000112303
*RES
1 *2652:Y *2662:A0 42.0703 
*END

*D_NET *368 0.000626527
*CONN
*I *2662:A1 I *D sg13cmos5l_mux4_1
*I *2653:X O *D sg13cmos5l_or2_1
*CAP
1 *2662:A1 0.000208844
2 *2653:X 0.000208844
3 *2662:A1 *2656:B 0
4 *2662:A1 *2662:A2 0.00020884
5 *364:34 *2662:A1 0
*RES
1 *2653:X *2662:A1 42.2454 
*END

*D_NET *369 0.0150016
*CONN
*I *2701:C I *D sg13cmos5l_nor3_1
*I *2889:B I *D sg13cmos5l_xnor2_1
*I *2702:D I *D sg13cmos5l_nand4_1
*I *2655:B I *D sg13cmos5l_xor2_1
*I *2767:B_N I *D sg13cmos5l_nor2b_1
*I *2654:X O *D sg13cmos5l_xor2_1
*CAP
1 *2701:C 0
2 *2889:B 0
3 *2702:D 0.000143433
4 *2655:B 0
5 *2767:B_N 0.00106167
6 *2654:X 0.000512112
7 *369:69 0.000400159
8 *369:36 0.00140624
9 *369:32 0.00105392
10 *369:24 0.00172064
11 *369:16 0.00139074
12 *369:12 0.000675433
13 *369:10 0.000551371
14 *2702:D *763:89 0.000183049
15 *2767:B_N *370:28 4.77425e-05
16 *2767:B_N *733:16 0.00133715
17 *2767:B_N *734:27 0
18 *2767:B_N *734:42 0
19 *369:10 *2725:B 0
20 *369:10 *2725:A 4.77866e-05
21 *369:10 *397:44 6.46834e-05
22 *369:10 *440:6 0
23 *369:10 *762:140 0
24 *369:10 *762:148 4.77425e-05
25 *369:10 *1131:89 1.54008e-05
26 *369:12 *397:44 6.47382e-05
27 *369:12 *1131:89 8.00842e-05
28 *369:16 *397:44 0.000370203
29 *369:16 *1131:89 0.000112058
30 *369:24 *429:27 0.00075809
31 *369:24 *429:31 0
32 *369:24 *436:10 0
33 *369:24 *1079:8 0
34 *369:32 *2716:A 0.000306162
35 *369:32 *2717:B 0
36 *369:32 *2717:C 0.000241347
37 *369:32 *376:16 0.000447685
38 *369:32 *378:22 0
39 *369:32 *392:16 0.000447597
40 *369:32 *433:10 0
41 *369:32 *1145:99 0.000144571
42 *369:32 *1145:101 4.77537e-05
43 *369:32 *1149:59 0
44 *369:36 *758:87 0
45 *369:36 *1081:20 0
46 *369:69 *2878:A 0
47 *369:69 *2889:A 4.77866e-05
48 *369:69 *400:16 0.000338498
49 *369:69 *679:14 0.000658895
50 *369:69 *734:52 0
51 *369:69 *734:75 0
52 *369:69 *758:63 0.000181192
53 *2702:C *2702:D 1.54008e-05
54 *359:10 *2702:D 0
55 *364:49 *2702:D 0
56 *366:27 *369:69 8.02598e-05
*RES
1 *2654:X *369:10 24.6659 
2 *369:10 *369:12 0.5356 
3 *369:12 *369:16 22.4823 
4 *369:16 *369:24 49.3833 
5 *369:24 *369:32 48.24 
6 *369:32 *369:36 22.8222 
7 *369:36 *2767:B_N 29.9704 
8 *369:36 *2655:B 20 
9 *369:16 *2702:D 41.8437 
10 *369:12 *369:69 45.3354 
11 *369:69 *2889:B 20 
12 *369:10 *2701:C 20 
*END

*D_NET *370 0.00427111
*CONN
*I *2721:B2 I *D sg13cmos5l_a22oi_1
*I *2658:A_N I *D sg13cmos5l_nand3b_1
*I *2656:B I *D sg13cmos5l_nand3b_1
*I *2798:B I *D sg13cmos5l_xnor2_1
*I *2655:X O *D sg13cmos5l_xor2_1
*CAP
1 *2721:B2 0.000260821
2 *2658:A_N 0
3 *2656:B 0.000241972
4 *2798:B 0.000134336
5 *2655:X 0
6 *370:28 0.000540126
7 *370:10 0.000898845
8 *370:4 0.000801841
9 *2656:B *2798:A 0.000257991
10 *2656:B *2844:B 0.000305865
11 *2721:B2 *2719:A 0
12 *2721:B2 *2721:B1 0
13 *2721:B2 *2721:A2 4.27045e-05
14 *2721:B2 *372:40 0
15 *2721:B2 *373:10 0
16 *2721:B2 *373:20 0.000144102
17 *2721:B2 *407:32 0
18 *2721:B2 *734:42 0
19 *2798:B *2798:A 0.000241166
20 *2798:B *2844:B 0.000241166
21 *370:10 *758:102 0
22 *370:10 *1081:20 0
23 *370:28 *2658:C 0.000112437
24 *370:28 *407:32 0
25 *370:28 *734:42 0
26 *2662:A1 *2656:B 0
27 *2767:B_N *370:28 4.77425e-05
*RES
1 *2655:X *370:4 20 
2 *370:4 *370:10 44.3054 
3 *370:10 *2798:B 21.6171 
4 *370:10 *2656:B 22.8325 
5 *370:4 *370:28 2.4823 
6 *370:28 *2658:A_N 20 
7 *370:28 *2721:B2 22.7501 
*END

*D_NET *371 0.00128008
*CONN
*I *2662:A2 I *D sg13cmos5l_mux4_1
*I *2656:Y O *D sg13cmos5l_nand3b_1
*CAP
1 *2662:A2 0.000382603
2 *2656:Y 0.000382603
3 *2662:A2 *2844:B 0
4 *2662:A2 *435:10 0
5 *2662:A2 *740:66 0.000306035
6 *2656:C *2662:A2 0
7 *2662:A1 *2662:A2 0.00020884
8 *364:19 *2662:A2 0
9 *364:34 *2662:A2 0
*RES
1 *2656:Y *2662:A2 44.0479 
*END

*D_NET *372 0.00745274
*CONN
*I *2658:B I *D sg13cmos5l_nand3b_1
*I *2719:A I *D sg13cmos5l_nand3_1
*I *2717:A I *D sg13cmos5l_or3_1
*I *2786:A I *D sg13cmos5l_xnor2_1
*I *2759:B I *D sg13cmos5l_nor2_1
*I *2657:Y O *D sg13cmos5l_xnor2_1
*CAP
1 *2658:B 9.1176e-05
2 *2719:A 0.00012872
3 *2717:A 0
4 *2786:A 5.04415e-05
5 *2759:B 0.000709543
6 *2657:Y 0
7 *372:48 0.000130731
8 *372:40 0.000361668
9 *372:36 0.000543802
10 *372:25 0.00128268
11 *372:4 0.00159137
12 *2658:B *2658:C 8.00954e-05
13 *2658:B *1145:112 0.000181608
14 *2719:A *373:10 8.0023e-05
15 *2719:A *407:32 8.00954e-05
16 *2719:A *432:12 6.46222e-05
17 *2759:B *2759:A 0
18 *2759:B *3213:A 0
19 *2759:B *740:37 3.11864e-05
20 *2759:B *758:33 0
21 *2759:B *758:42 0
22 *2759:B *1119:46 0
23 *2786:A *2786:B 1.54556e-05
24 *2786:A *384:18 0
25 *2786:A *1150:94 0
26 *372:25 *2657:A 0
27 *372:25 *429:8 0
28 *372:25 *545:12 0.000287256
29 *372:25 *549:12 0.000181192
30 *372:25 *742:27 0
31 *372:25 *742:48 0
32 *372:25 *758:42 0.000176431
33 *372:25 *758:50 0.000403035
34 *372:25 *759:27 0
35 *372:25 *760:46 0
36 *372:25 *1145:99 0
37 *372:36 *742:48 0
38 *372:36 *1145:99 0
39 *372:36 *1145:112 0.000446767
40 *372:40 *373:10 1.54008e-05
41 *372:40 *407:32 5.80401e-06
42 *372:40 *432:12 1.54008e-05
43 *372:48 *2717:B 8.03256e-05
44 *372:48 *407:32 8.0216e-05
45 *372:48 *1145:112 0
46 *2721:B2 *2719:A 0
47 *2721:B2 *372:40 0
48 *208:25 *372:25 0
49 *355:6 *2759:B 4.78359e-05
50 *355:45 *2759:B 0.000289857
*RES
1 *2657:Y *372:4 20 
2 *372:4 *2759:B 26.8495 
3 *372:4 *372:25 29.5687 
4 *372:25 *2786:A 40.5356 
5 *372:25 *372:36 4.0582 
6 *372:36 *372:40 20.9682 
7 *372:40 *372:48 41.3931 
8 *372:48 *2717:A 20 
9 *372:40 *2719:A 21.4008 
10 *372:36 *2658:B 41.3802 
*END

*D_NET *373 0.00319196
*CONN
*I *2662:A3 I *D sg13cmos5l_mux4_1
*I *2658:Y O *D sg13cmos5l_nand3b_1
*CAP
1 *2662:A3 0.000149782
2 *2658:Y 0.00015888
3 *373:20 0.000987445
4 *373:10 0.000996544
5 *2662:A3 *2678:A 0.000273672
6 *2662:A3 *742:82 0.000273672
7 *373:10 *1145:112 0
8 *373:20 *2721:B1 0.000112437
9 *373:20 *760:59 0
10 *373:20 *766:39 0
11 *2719:A *373:10 8.0023e-05
12 *2721:B2 *373:10 0
13 *2721:B2 *373:20 0.000144102
14 *372:40 *373:10 1.54008e-05
*RES
1 *2658:Y *373:10 41.3802 
2 *373:10 *373:20 48.034 
3 *373:20 *2662:A3 41.8334 
*END

*D_NET *374 0.00162615
*CONN
*I *2661:A I *D sg13cmos5l_xnor2_1
*I *2659:Y O *D sg13cmos5l_xnor2_1
*CAP
1 *2661:A 0.000333758
2 *2659:Y 7.44288e-05
3 *374:8 0.000408187
4 *2661:A *2661:B 1.54008e-05
5 *2661:A *2826:A0 0.000209098
6 *2661:A *2826:A1 0
7 *2661:A *2827:B 0
8 *2661:A *405:16 0.000403674
9 *2661:A *774:25 0
10 *374:8 *763:38 0.000181608
*RES
1 *2659:Y *374:8 40.8446 
2 *374:8 *2661:A 43.5638 
*END

*D_NET *375 0.000661518
*CONN
*I *2661:B I *D sg13cmos5l_xnor2_1
*I *2660:Y O *D sg13cmos5l_xnor2_1
*CAP
1 *2661:B 0.000282912
2 *2660:Y 0.000282912
3 *2661:B *2826:A1 0
4 *2661:B *2871:A 0
5 *2661:B *405:16 0
6 *2661:B *741:109 8.02927e-05
7 *2661:B *774:17 0
8 *2661:B *774:25 0
9 *2661:A *2661:B 1.54008e-05
*RES
1 *2660:Y *2661:B 42.7192 
*END

*D_NET *376 0.00886552
*CONN
*I *2824:A I *D sg13cmos5l_xnor2_1
*I *2662:S0 I *D sg13cmos5l_mux4_1
*I *2850:B I *D sg13cmos5l_xor2_1
*I *2661:Y O *D sg13cmos5l_xnor2_1
*CAP
1 *2824:A 0.0004688
2 *2662:S0 2.98049e-05
3 *2850:B 0
4 *2661:Y 5.58474e-05
5 *376:16 0.00139454
6 *376:10 0.00231286
7 *376:8 0.00141315
8 *2662:S0 *1131:66 4.78524e-05
9 *2824:A *2824:B 0
10 *2824:A *2825:A1 0
11 *2824:A *741:80 0
12 *2824:A *741:92 0
13 *2824:A *1131:20 0.00017662
14 *376:8 *751:33 0.000181192
15 *376:10 *392:10 0
16 *376:10 *392:16 0
17 *376:10 *751:33 0.000181192
18 *376:10 *763:65 7.52158e-05
19 *376:10 *766:39 0
20 *376:16 *2850:A 0
21 *376:16 *392:16 0
22 *376:16 *395:49 0
23 *376:16 *733:32 0.00183058
24 *376:16 *733:40 0.000234726
25 *376:16 *758:50 0
26 *376:16 *1092:16 0
27 *2662:A0 *2662:S0 1.54556e-05
28 *208:31 *376:10 0
29 *208:31 *376:16 0
30 *364:34 *2662:S0 0
31 *369:32 *376:16 0.000447685
*RES
1 *2661:Y *376:8 40.8446 
2 *376:8 *376:10 8.0134 
3 *376:10 *376:16 35.7487 
4 *376:16 *2850:B 20 
5 *376:10 *2662:S0 40.3193 
6 *376:8 *2824:A 44.3775 
*END

*D_NET *377 0.00867363
*CONN
*I *2672:B I *D sg13cmos5l_nor4_2
*I *2662:X O *D sg13cmos5l_mux4_1
*CAP
1 *2672:B 0.00227182
2 *2662:X 3.92363e-05
3 *377:12 0.00353811
4 *377:8 0.00130552
5 *2672:B *2672:C 0
6 *2672:B *2672:D 0
7 *2672:B *2723:D 0
8 *2672:B *378:22 0
9 *2672:B *384:18 0
10 *2672:B *666:14 0
11 *2672:B *739:59 0
12 *2672:B *739:72 0
13 *2672:B *761:37 0.00117772
14 *2672:B *1079:12 0
15 *2672:B *1119:137 0
16 *2672:B *1149:59 0
17 *377:8 *763:76 0
18 *377:12 *391:14 0
19 *377:12 *392:10 0
20 *377:12 *392:16 0
21 *377:12 *742:82 0.000341216
22 *377:12 *762:117 0
23 *208:31 *377:8 0
*RES
1 *2662:X *377:8 40.3193 
2 *377:8 *377:12 31.227 
3 *377:12 *2672:B 41.0017 
*END

*D_NET *378 0.0106048
*CONN
*I *2665:A I *D sg13cmos5l_xor2_1
*I *2717:B I *D sg13cmos5l_or3_1
*I *2786:B I *D sg13cmos5l_xnor2_1
*I *2719:B I *D sg13cmos5l_nand3_1
*I *2663:Y O *D sg13cmos5l_xnor2_1
*CAP
1 *2665:A 9.78901e-05
2 *2717:B 0.000212928
3 *2786:B 0.000503973
4 *2719:B 2.32363e-05
5 *2663:Y 0.000302777
6 *378:33 0.000771
7 *378:22 0.00257419
8 *378:12 0.00289752
9 *2665:A *1119:131 0.000176704
10 *2665:A *1126:93 0.000176704
11 *2717:B *2717:C 0
12 *2717:B *407:32 0
13 *2719:B *407:32 4.77425e-05
14 *2786:B *384:18 0
15 *2786:B *433:10 0.000287672
16 *2786:B *760:59 0
17 *2786:B *766:39 0
18 *2786:B *1150:94 0
19 *2786:B *1150:126 0
20 *378:12 *3239:A 0
21 *378:12 *734:75 0.000287256
22 *378:12 *740:95 1.56704e-05
23 *378:22 *2715:A 0
24 *378:22 *407:32 0.000531242
25 *378:22 *436:18 0.00012816
26 *378:22 *437:10 0
27 *378:22 *465:10 0
28 *378:22 *740:95 0
29 *378:22 *1079:12 0.00121304
30 *378:22 *1143:43 0
31 *378:22 *1149:59 0
32 *378:33 *433:10 5.30319e-05
33 *378:33 *760:59 0
34 *2672:B *378:22 0
35 *2786:A *2786:B 1.54556e-05
36 *2903:S *378:12 8.00963e-05
37 *358:96 *378:22 0.00012816
38 *358:100 *378:22 0
39 *369:32 *2717:B 0
40 *369:32 *378:22 0
41 *372:48 *2717:B 8.03256e-05
*RES
1 *2663:Y *378:12 42.9355 
2 *378:12 *378:22 44.3286 
3 *378:22 *2719:B 20.3193 
4 *378:22 *378:33 20.5974 
5 *378:33 *2786:B 44.8719 
6 *378:33 *2717:B 42.0497 
7 *378:12 *2665:A 41.1845 
*END

*D_NET *379 0.00303757
*CONN
*I *2665:B I *D sg13cmos5l_xor2_1
*I *2685:B I *D sg13cmos5l_xnor2_1
*I *2664:Y O *D sg13cmos5l_xnor2_1
*CAP
1 *2665:B 0
2 *2685:B 0
3 *2664:Y 7.05547e-05
4 *379:24 0.000386546
5 *379:12 0.000677202
6 *379:8 0.000361212
7 *379:12 *380:25 0.000516199
8 *379:12 *465:26 0.000531458
9 *379:24 *3239:A 0
10 *379:24 *3248:A 0.000106064
11 *379:24 *380:25 8.00842e-05
12 *379:24 *465:10 0.000181192
13 *379:24 *465:18 0
14 *379:24 *465:26 1.54008e-05
15 *379:24 *734:75 8.00842e-05
16 *379:24 *1115:8 0
17 *379:24 *1115:108 0
18 *379:24 *1119:131 3.15716e-05
*RES
1 *2664:Y *379:8 40.5974 
2 *379:8 *379:12 23.5638 
3 *379:12 *379:24 43.7029 
4 *379:24 *2685:B 20 
5 *379:12 *2665:B 20 
*END

*D_NET *380 0.00678771
*CONN
*I *2903:A0 I *D sg13cmos5l_mux2_1
*I *2666:B I *D sg13cmos5l_xnor2_1
*I *2715:A I *D sg13cmos5l_nor2_1
*I *2665:X O *D sg13cmos5l_xor2_1
*CAP
1 *2903:A0 0.000298136
2 *2666:B 0.000365952
3 *2715:A 0.000655336
4 *2665:X 5.0892e-05
5 *380:25 0.00140543
6 *380:8 0.00144757
7 *2666:B *745:90 0
8 *2666:B *1126:87 0
9 *2715:A *2704:C 0.000208824
10 *2715:A *2722:C 0
11 *2715:A *429:56 1.54008e-05
12 *2715:A *436:10 0
13 *2715:A *436:18 7.96158e-05
14 *2715:A *441:43 0.00103095
15 *2715:A *740:95 0.000447182
16 *2903:A0 *2756:A 0
17 *2903:A0 *745:90 0
18 *380:8 *740:95 0.000106064
19 *380:25 *2772:A 0
20 *380:25 *465:18 8.00842e-05
21 *380:25 *465:26 0
22 *380:25 *1126:93 0
23 *378:22 *2715:A 0
24 *379:12 *380:25 0.000516199
25 *379:24 *380:25 8.00842e-05
*RES
1 *2665:X *380:8 40.5974 
2 *380:8 *2715:A 48.4254 
3 *380:8 *380:25 46.592 
4 *380:25 *2666:B 43.0694 
5 *380:25 *2903:A0 42.575 
*END

*D_NET *381 0.0117595
*CONN
*I *2728:B I *D sg13cmos5l_nand3b_1
*I *2733:B2 I *D sg13cmos5l_a22oi_1
*I *2667:B I *D sg13cmos5l_and2_1
*I *2815:B1 I *D sg13cmos5l_a22oi_1
*I *2813:D I *D sg13cmos5l_nor4_1
*I *2666:Y O *D sg13cmos5l_xnor2_1
*CAP
1 *2728:B 0
2 *2733:B2 0
3 *2667:B 0
4 *2815:B1 2.60565e-05
5 *2813:D 9.52234e-05
6 *2666:Y 0.000469398
7 *381:60 0.000704521
8 *381:45 0.00131484
9 *381:20 0.000985145
10 *381:14 0.0016879
11 *381:8 0.00190375
12 *2813:D *2814:A2 0.000394151
13 *2813:D *515:10 0.000106064
14 *2813:D *1144:16 0.00050063
15 *2815:B1 *518:14 4.77425e-05
16 *2815:B1 *1090:18 4.77425e-05
17 *381:8 *2726:A 0
18 *381:8 *397:44 0
19 *381:8 *440:6 0
20 *381:8 *666:10 0
21 *381:8 *762:148 1.54008e-05
22 *381:14 *1143:88 0
23 *381:14 *1144:31 7.51285e-05
24 *381:14 *1155:59 0
25 *381:20 *449:20 0
26 *381:20 *515:10 0.000234224
27 *381:20 *1130:121 0
28 *381:20 *1144:16 0.000584596
29 *381:20 *1144:31 0.00161887
30 *381:20 *1155:59 0
31 *381:45 *2698:B 4.77425e-05
32 *381:45 *2726:A 0
33 *381:45 *2729:A 0
34 *381:45 *2733:A2 9.6255e-05
35 *381:45 *397:44 0
36 *381:45 *408:12 0.000242281
37 *381:45 *995:20 0.000240465
38 *381:45 *1144:66 0
39 *381:60 *2728:C 0.000273617
40 *381:60 *2729:A 0
41 *381:60 *2734:A2 0
42 *381:60 *445:8 0
43 *381:60 *448:12 0
44 *381:60 *694:49 0
45 *381:60 *995:14 4.77425e-05
*RES
1 *2666:Y *381:8 23.914 
2 *381:8 *381:14 46.7774 
3 *381:14 *381:20 30.7738 
4 *381:20 *2813:D 42.3278 
5 *381:20 *2815:B1 40.3193 
6 *381:14 *2667:B 20 
7 *381:8 *381:45 5.83495 
8 *381:45 *2733:B2 20 
9 *381:45 *381:60 46.319 
10 *381:60 *2728:B 20 
*END

*D_NET *382 0.00043873
*CONN
*I *2672:C I *D sg13cmos5l_nor4_2
*I *2667:X O *D sg13cmos5l_and2_1
*CAP
1 *2672:C 0.000211637
2 *2667:X 0.000211637
3 *2672:C *2671:A 0
4 *2672:C *2672:D 1.54556e-05
5 *2672:C *3199:A 0
6 *2672:C *449:20 0
7 *2672:C *666:14 0
8 *2672:B *2672:C 0
*RES
1 *2667:X *2672:C 41.9673 
*END

*D_NET *383 0.000938802
*CONN
*I *2669:B I *D sg13cmos5l_xnor2_1
*I *2668:Y O *D sg13cmos5l_xnor2_1
*CAP
1 *2669:B 0.000162426
2 *2668:Y 0.000162426
3 *2669:B *461:6 0.000306975
4 *2669:B *1142:75 0.000306975
*RES
1 *2668:Y *2669:B 42.0497 
*END

*D_NET *384 0.0147054
*CONN
*I *2670:B I *D sg13cmos5l_xnor2_1
*I *2700:C I *D sg13cmos5l_nor3_1
*I *2713:C I *D sg13cmos5l_nand3_1
*I *2684:A I *D sg13cmos5l_nor3_1
*I *2808:A I *D sg13cmos5l_xor2_1
*I *2669:Y O *D sg13cmos5l_xnor2_1
*CAP
1 *2670:B 0.000487154
2 *2700:C 0.000190814
3 *2713:C 0
4 *2684:A 0
5 *2808:A 0.000261504
6 *2669:Y 0.000154113
7 *384:44 0.000273908
8 *384:24 0.00145258
9 *384:18 0.00436588
10 *384:12 0.00332931
11 *384:8 0.00071268
12 *2670:B *2670:A 0
13 *2670:B *385:10 0.00014425
14 *2670:B *739:72 0
15 *2670:B *1142:90 0
16 *2700:C *2713:B 0.000337353
17 *2700:C *2723:D 0.000337353
18 *2808:A *2684:B 1.54008e-05
19 *2808:A *2808:B 0
20 *2808:A *1153:12 0
21 *2808:A *1156:63 0
22 *384:8 *1142:90 0
23 *384:12 *441:43 0.000395396
24 *384:12 *745:56 0.000395396
25 *384:18 *2739:A 0
26 *384:18 *2739:B_N 0
27 *384:18 *2746:A1 0
28 *384:18 *494:10 0
29 *384:18 *759:27 0
30 *384:18 *759:33 0
31 *384:18 *1142:75 0
32 *384:18 *1142:90 0
33 *384:18 *1149:41 0
34 *384:18 *1149:48 0
35 *384:18 *1149:59 0
36 *384:18 *1150:126 0
37 *384:24 *2684:C 0
38 *384:24 *2806:A1 0
39 *384:24 *2807:A1 0
40 *384:24 *2807:A2 0
41 *384:24 *2808:B 4.77425e-05
42 *384:24 *398:10 0
43 *384:24 *399:10 4.77425e-05
44 *384:24 *1124:89 0.000273451
45 *384:24 *1153:12 0
46 *384:24 *1153:20 0
47 *384:24 *1153:31 0
48 *384:44 *441:43 0.000425173
49 *384:44 *745:56 0.000447182
50 *2672:B *384:18 0
51 *2686:A *384:18 4.77425e-05
52 *2786:A *384:18 0
53 *2786:B *384:18 0
54 *3107:D *384:24 0
55 *183:12 *384:18 0
56 *183:12 *384:24 0.000563309
*RES
1 *2669:Y *384:8 21.751 
2 *384:8 *384:12 21.8334 
3 *384:12 *384:18 48.5722 
4 *384:18 *384:24 11.6184 
5 *384:24 *2808:A 22.5338 
6 *384:24 *2684:A 20 
7 *384:12 *384:44 22.0806 
8 *384:44 *2713:C 20 
9 *384:44 *2700:C 22.266 
10 *384:8 *2670:B 24.3466 
*END

*D_NET *385 0.00446104
*CONN
*I *2671:B I *D sg13cmos5l_nor2_1
*I *2837:B1 I *D sg13cmos5l_a22oi_1
*I *2835:D I *D sg13cmos5l_nor4_1
*I *2670:Y O *D sg13cmos5l_xnor2_1
*CAP
1 *2671:B 0.00036324
2 *2837:B1 0.0001196
3 *2835:D 0.00020939
4 *2670:Y 0
5 *385:10 0.00109703
6 *385:4 0.00113128
7 *2671:B *2747:B 1.54008e-05
8 *2671:B *2747:A 0
9 *2671:B *739:72 0
10 *2671:B *1142:90 0
11 *2835:D *2835:C 0.000144542
12 *2835:D *1117:108 0.000208593
13 *2835:D *1132:98 4.68848e-05
14 *2835:D *1132:106 0.000341216
15 *2835:D *1148:59 0
16 *2837:B1 *536:10 8.00842e-05
17 *2837:B1 *1088:10 0.00014391
18 *385:10 *533:8 0
19 *385:10 *739:72 0
20 *385:10 *1132:106 0.000181387
21 *385:10 *1148:59 0
22 *385:10 *1148:74 0
23 *2670:B *385:10 0.00014425
24 *2859:A1 *2835:D 0.000234224
*RES
1 *2670:Y *385:4 20 
2 *385:4 *385:10 27.6179 
3 *385:10 *2835:D 42.987 
4 *385:10 *2837:B1 41.1845 
5 *385:4 *2671:B 23.6977 
*END

*D_NET *386 0.000490705
*CONN
*I *2672:D I *D sg13cmos5l_nor4_2
*I *2671:Y O *D sg13cmos5l_nor2_1
*CAP
1 *2672:D 0.000165604
2 *2671:Y 0.000165604
3 *2672:D *2671:A 0
4 *2672:D *2747:A 0
5 *2672:D *449:20 0
6 *2672:D *462:12 0
7 *2672:D *739:59 0.000144041
8 *2672:B *2672:D 0
9 *2672:C *2672:D 1.54556e-05
*RES
1 *2671:Y *2672:D 41.751 
*END

*D_NET *387 0.000609155
*CONN
*I *2747:A I *D sg13cmos5l_nand4_1
*I *2672:Y O *D sg13cmos5l_nor4_2
*CAP
1 *2747:A 0.000208683
2 *2672:Y 0.000208683
3 *2747:A *449:20 8.01983e-05
4 *2747:A *462:12 0.000111591
5 *2671:B *2747:A 0
6 *2672:D *2747:A 0
*RES
1 *2672:Y *2747:A 42.2763 
*END

*D_NET *388 0.000447827
*CONN
*I *2679:A1 I *D sg13cmos5l_a21oi_1
*I *2673:Y O *D sg13cmos5l_nand3b_1
*CAP
1 *2679:A1 0.000119563
2 *2673:Y 0.000119563
3 *2679:A1 *2679:A2 0
4 *2679:A1 *1092:32 0.000208702
*RES
1 *2673:Y *2679:A1 41.3802 
*END

*D_NET *389 0.00107995
*CONN
*I *2675:B I *D sg13cmos5l_nand2_1
*I *2674:Y O *D sg13cmos5l_nor2_1
*CAP
1 *2675:B 5.30512e-05
2 *2674:Y 0.000439812
3 *389:10 0.000492863
4 *2675:B *390:16 1.40616e-05
5 *2675:B *740:37 8.01612e-05
6 *389:10 *708:12 0
7 *389:10 *757:39 0
8 *389:10 *758:29 0
9 *389:10 *1150:106 0
10 *2675:A *2675:B 0
*RES
1 *2674:Y *389:10 43.8831 
2 *389:10 *2675:B 40.5356 
*END

*D_NET *390 0.00270795
*CONN
*I *2679:A2 I *D sg13cmos5l_a21oi_1
*I *2675:Y O *D sg13cmos5l_nand2_1
*CAP
1 *2679:A2 0.000453702
2 *2675:Y 0.0002088
3 *390:16 0.000662503
4 *2679:A2 *395:57 0.000241184
5 *2679:A2 *1092:32 0
6 *2679:A2 *1150:96 1.54008e-05
7 *2679:A2 *1150:106 0.000305297
8 *390:16 *2759:A 0
9 *390:16 *876:59 0.00039332
10 *2675:A *390:16 1.71864e-05
11 *2675:B *390:16 1.40616e-05
12 *2679:A1 *2679:A2 0
13 *293:25 *390:16 0.000396492
*RES
1 *2675:Y *390:16 43.126 
2 *390:16 *2679:A2 44.429 
*END

*D_NET *391 0.00775826
*CONN
*I *2678:A I *D sg13cmos5l_xor2_1
*I *2735:B I *D sg13cmos5l_xnor2_1
*I *2714:B I *D sg13cmos5l_xor2_1
*I *2676:Y O *D sg13cmos5l_xnor2_1
*CAP
1 *2678:A 0.000507931
2 *2735:B 0
3 *2714:B 0.000646227
4 *2676:Y 0.000262476
5 *391:14 0.00184633
6 *391:10 0.00197051
7 *2678:A *2844:B 0.000853884
8 *2678:A *400:16 8.0216e-05
9 *2678:A *742:63 0.000273573
10 *2678:A *742:82 0
11 *2714:B *2735:A 1.54008e-05
12 *2714:B *392:16 0
13 *2714:B *429:25 0
14 *2714:B *450:8 0
15 *2714:B *733:32 8.0128e-05
16 *2714:B *1092:32 0
17 *2714:B *1150:126 0
18 *391:10 *400:16 0
19 *391:10 *762:117 0
20 *391:10 *763:76 0
21 *391:14 *392:16 0
22 *391:14 *453:8 0
23 *391:14 *762:107 0
24 *391:14 *1131:81 0.000287757
25 *2662:A3 *2678:A 0.000273672
26 *183:54 *2714:B 0.000660161
27 *377:12 *391:14 0
*RES
1 *2676:Y *391:10 42.4617 
2 *391:10 *391:14 32.9574 
3 *391:14 *2714:B 26.18 
4 *391:14 *2735:B 20 
5 *391:10 *2678:A 45.7268 
*END

*D_NET *392 0.00677719
*CONN
*I *2678:B I *D sg13cmos5l_xor2_1
*I *2736:B I *D sg13cmos5l_xnor2_1
*I *2677:Y O *D sg13cmos5l_xnor2_1
*CAP
1 *2678:B 0.000348579
2 *2736:B 0
3 *2677:Y 0.000417841
4 *392:16 0.00163919
5 *392:10 0.00240561
6 *2678:B *400:16 0.000629483
7 *2678:B *740:50 0.000208747
8 *2678:B *742:63 0
9 *2678:B *742:82 0.000371025
10 *392:10 *742:82 0
11 *392:10 *763:65 7.51285e-05
12 *392:10 *1119:97 4.78195e-05
13 *392:10 *1120:46 4.78195e-05
14 *392:16 *733:32 1.54008e-05
15 *392:16 *1092:16 7.51285e-05
16 *392:16 *1092:32 4.78192e-05
17 *2714:B *392:16 0
18 *369:32 *392:16 0.000447597
19 *376:10 *392:10 0
20 *376:10 *392:16 0
21 *376:16 *392:16 0
22 *377:12 *392:10 0
23 *377:12 *392:16 0
24 *391:14 *392:16 0
*RES
1 *2677:Y *392:10 43.6359 
2 *392:10 *392:16 33.7711 
3 *392:16 *2736:B 20 
4 *392:10 *2678:B 44.2127 
*END

*D_NET *393 0.00801132
*CONN
*I *2894:A0 I *D sg13cmos5l_mux2_1
*I *2679:B1 I *D sg13cmos5l_a21oi_1
*I *2803:B I *D sg13cmos5l_xnor2_1
*I *2678:X O *D sg13cmos5l_xor2_1
*CAP
1 *2894:A0 0
2 *2679:B1 0.000182046
3 *2803:B 0.000134124
4 *2678:X 0.000360574
5 *393:20 0.00031617
6 *393:18 0.00181058
7 *393:12 0.00217115
8 *2679:B1 *1092:32 0
9 *2803:B *2344:A 0
10 *2803:B *2803:A 1.54008e-05
11 *2803:B *1092:32 0
12 *393:12 *2894:A1 0
13 *393:12 *400:16 0.000112437
14 *393:12 *763:57 0
15 *393:12 *1119:61 0
16 *393:12 *1119:76 0
17 *393:12 *1124:34 0
18 *393:18 *2894:A1 1.54556e-05
19 *393:18 *394:8 0
20 *393:18 *400:16 0
21 *393:18 *401:14 0.000287672
22 *393:18 *740:37 0
23 *393:18 *741:42 0
24 *393:18 *758:125 0.000290042
25 *393:18 *759:33 0.00231566
26 *393:18 *1085:8 0
27 *393:18 *1119:61 0
28 *393:18 *1124:34 0
29 *393:18 *1146:66 0
*RES
1 *2678:X *393:12 23.5329 
2 *393:12 *393:18 36.8137 
3 *393:18 *393:20 20 
4 *393:20 *2803:B 21.1845 
5 *393:20 *2679:B1 21.5347 
6 *393:12 *2894:A0 20 
*END

*D_NET *394 0.0026926
*CONN
*I *2692:A I *D sg13cmos5l_nand4_1
*I *2679:Y O *D sg13cmos5l_a21oi_1
*CAP
1 *2692:A 0.000172344
2 *2679:Y 0.000271061
3 *394:8 0.000443405
4 *2692:A *2692:B 9.5485e-05
5 *2692:A *407:32 1.54008e-05
6 *394:8 *757:39 0.00103178
7 *394:8 *759:33 0.000663122
8 *394:8 *1085:8 0
9 *393:18 *394:8 0
*RES
1 *2679:Y *394:8 44.7998 
2 *394:8 *2692:A 41.6377 
*END

*D_NET *395 0.0230661
*CONN
*I *2683:A I *D sg13cmos5l_xor2_1
*I *2681:B I *D sg13cmos5l_xnor2_1
*I *2898:B I *D sg13cmos5l_xor2_1
*I *2740:B I *D sg13cmos5l_xnor2_1
*I *2680:Y O *D sg13cmos5l_xnor2_1
*CAP
1 *2683:A 0
2 *2681:B 0.000224096
3 *2898:B 0.000104665
4 *2740:B 0.00428899
5 *2680:Y 2.18538e-05
6 *395:61 0.000499726
7 *395:57 0.00121293
8 *395:49 0.00369374
9 *395:25 0.00116351
10 *395:6 0.00261325
11 *2681:B *467:12 0
12 *2681:B *467:23 0
13 *2681:B *1092:32 0.000274077
14 *2740:B *2748:A 0.000563512
15 *2740:B *733:52 0
16 *2740:B *733:56 0.000337274
17 *2740:B *744:12 0.000852877
18 *2740:B *752:20 0.000821083
19 *395:6 *2748:A 3.23417e-05
20 *395:6 *733:56 4.77425e-05
21 *395:25 *2875:A 0
22 *395:25 *411:14 0.00151832
23 *395:25 *411:41 0.00119158
24 *395:25 *995:28 0
25 *395:25 *1142:104 0
26 *395:49 *2742:A 0
27 *395:49 *2742:D 6.39133e-05
28 *395:49 *2745:B1 0
29 *395:49 *2745:A1 0.000231758
30 *395:49 *2746:B1 0
31 *395:49 *2850:A 0
32 *395:49 *451:45 0.000207854
33 *395:49 *455:14 0
34 *395:49 *495:8 0
35 *395:49 *733:40 0
36 *395:49 *733:52 0
37 *395:49 *742:48 8.0057e-05
38 *395:49 *758:29 4.67945e-05
39 *395:49 *1085:16 0.00111252
40 *395:49 *1092:32 0
41 *395:49 *1142:60 8.00842e-05
42 *395:49 *1150:96 0
43 *395:57 *758:29 7.51285e-05
44 *395:57 *760:29 0
45 *395:57 *1092:32 0.00107933
46 *395:61 *467:23 0
47 *395:61 *1092:32 0.000338124
48 *2673:A_N *395:49 4.77425e-05
49 *2679:A2 *395:57 0.000241184
50 *2714:A *395:49 0
51 *2738:A *395:49 0
52 *183:54 *395:49 0
53 *352:32 *2898:B 0
54 *376:16 *395:49 0
*RES
1 *2680:Y *395:6 20.3193 
2 *395:6 *2740:B 34.2674 
3 *395:6 *395:25 32.463 
4 *395:25 *2898:B 40.9682 
5 *2740:B *395:49 45.9457 
6 *395:49 *395:57 49.8777 
7 *395:57 *395:61 2.8634 
8 *395:61 *2681:B 22.266 
9 *395:61 *2683:A 20 
*END

*D_NET *396 0.00232285
*CONN
*I *2808:B I *D sg13cmos5l_xor2_1
*I *2684:B I *D sg13cmos5l_nor3_1
*I *2681:Y O *D sg13cmos5l_xnor2_1
*CAP
1 *2808:B 0.000237819
2 *2684:B 3.84491e-05
3 *2681:Y 8.15954e-05
4 *396:8 0.000357863
5 *2808:B *788:22 0.000159096
6 *2808:B *1092:34 0.000181192
7 *2808:B *1153:12 0.000306662
8 *396:8 *788:22 0.000448513
9 *396:8 *1092:34 0.000448513
10 *2808:A *2684:B 1.54008e-05
11 *2808:A *2808:B 0
12 *384:24 *2808:B 4.77425e-05
*RES
1 *2681:Y *396:8 42.0806 
2 *396:8 *2684:B 40.3193 
3 *396:8 *2808:B 42.8943 
*END

*D_NET *397 0.029038
*CONN
*I *2724:A I *D sg13cmos5l_inv_1
*I *2873:B I *D sg13cmos5l_xor2_1
*I *2683:B I *D sg13cmos5l_xor2_1
*I *2754:B I *D sg13cmos5l_nor2_1
*I *2682:Y O *D sg13cmos5l_xnor2_1
*CAP
1 *2724:A 0.000226667
2 *2873:B 0.00088287
3 *2683:B 7.01195e-05
4 *2754:B 0.000216629
5 *2682:Y 0.000213969
6 *397:48 0.00123684
7 *397:44 0.00713477
8 *397:33 0.000711322
9 *397:16 0.00295505
10 *397:10 0.00910468
11 *397:8 0.000213969
12 *2683:B *2684:C 0
13 *2683:B *398:10 0
14 *2683:B *1092:32 0
15 *2754:B *2755:B 0
16 *2754:B *1116:111 0.000241198
17 *2754:B *1153:60 0
18 *2873:B *747:12 0
19 *2873:B *749:45 0
20 *2873:B *749:56 0
21 *2873:B *995:28 0
22 *397:8 *757:39 0.000501962
23 *397:16 *2839:B 0
24 *397:16 *2840:B 0.000306991
25 *397:16 *2847:B1 0
26 *397:16 *2847:A1 0.000192952
27 *397:16 *538:12 0
28 *397:16 *1074:6 4.72443e-05
29 *397:16 *1120:67 0
30 *397:33 *2780:A 0
31 *397:33 *489:8 0
32 *397:33 *1114:30 0.00130546
33 *397:33 *1116:111 0.000766204
34 *397:33 *1124:68 5.30319e-05
35 *397:33 *1124:74 0.000819652
36 *397:33 *1148:126 0
37 *397:44 *2698:B 4.77425e-05
38 *397:44 *2725:A 4.77866e-05
39 *397:44 *2798:A 0
40 *397:44 *2844:A 0
41 *397:44 *2844:B 0
42 *397:44 *3430:A 0.000176653
43 *397:44 *504:10 7.94055e-05
44 *397:44 *740:66 0
45 *397:44 *740:77 0
46 *397:44 *762:148 0
47 *397:44 *1131:40 0.000112437
48 *397:44 *1131:64 0.000323723
49 *397:44 *1131:66 0.000516663
50 *397:44 *1131:81 3.23417e-05
51 *397:48 *995:28 0
52 *364:49 *397:44 0
53 *369:10 *397:44 6.46834e-05
54 *369:12 *397:44 6.47382e-05
55 *369:16 *397:44 0.000370203
56 *381:8 *397:44 0
57 *381:45 *397:44 0
*RES
1 *2682:Y *397:8 42.3278 
2 *397:8 *397:10 20 
3 *397:10 *397:16 12.6999 
4 *397:16 *2754:B 22.1836 
5 *397:16 *397:33 30.4133 
6 *397:33 *2683:B 40.7519 
7 *397:10 *397:44 39.4696 
8 *397:44 *397:48 21.0918 
9 *397:48 *2873:B 47.5911 
10 *397:48 *2724:A 41.6171 
*END

*D_NET *398 0.000788003
*CONN
*I *2780:B I *D sg13cmos5l_xnor2_1
*I *2684:C I *D sg13cmos5l_nor3_1
*I *2683:X O *D sg13cmos5l_xor2_1
*CAP
1 *2780:B 0
2 *2684:C 0.000260781
3 *2683:X 0.00013322
4 *398:10 0.000394001
5 *2684:C *399:10 0
6 *2684:C *1092:32 0
7 *398:10 *1092:32 0
8 *2683:B *2684:C 0
9 *2683:B *398:10 0
10 *384:24 *2684:C 0
11 *384:24 *398:10 0
*RES
1 *2683:X *398:10 21.7613 
2 *398:10 *2684:C 22.5282 
3 *398:10 *2780:B 20 
*END

*D_NET *399 0.00487542
*CONN
*I *2692:B I *D sg13cmos5l_nand4_1
*I *2684:Y O *D sg13cmos5l_nor3_1
*CAP
1 *2692:B 0.000981271
2 *2684:Y 0.00012068
3 *399:18 0.00172573
4 *399:10 0.000865138
5 *2692:B *2692:C 8.00842e-05
6 *2692:B *2767:A 0
7 *2692:B *2806:A1 0
8 *2692:B *664:51 0
9 *2692:B *733:16 0
10 *2692:B *1149:41 0
11 *399:10 *1092:34 0.000234311
12 *399:18 *664:51 0
13 *399:18 *732:37 0
14 *399:18 *1121:32 0
15 *399:18 *1124:89 0
16 *399:18 *1153:12 0.000724974
17 *2684:C *399:10 0
18 *2692:A *2692:B 9.5485e-05
19 *384:24 *399:10 4.77425e-05
*RES
1 *2684:Y *399:10 41.4111 
2 *399:10 *399:18 46.8804 
3 *399:18 *2692:B 48.7756 
*END

*D_NET *400 0.0155501
*CONN
*I *2839:B I *D sg13cmos5l_xnor2_1
*I *2686:B I *D sg13cmos5l_xor2_1
*I *2685:Y O *D sg13cmos5l_xnor2_1
*CAP
1 *2839:B 0.000904741
2 *2686:B 6.60435e-05
3 *2685:Y 0.00237084
4 *400:30 0.000681837
5 *400:20 0.00167624
6 *400:16 0.00252654
7 *2686:B *401:14 0
8 *2686:B *1149:41 0
9 *2839:B *2845:B 0
10 *2839:B *2847:B1 0
11 *2839:B *3424:A 0
12 *2839:B *467:44 0.000127827
13 *2839:B *538:12 0
14 *2839:B *544:10 8.00842e-05
15 *2839:B *664:25 0
16 *400:16 *2685:A 0
17 *400:16 *2844:B 0.0011147
18 *400:16 *734:75 0
19 *400:16 *740:50 0
20 *400:16 *740:77 0
21 *400:16 *742:82 0
22 *400:16 *758:102 0.000854533
23 *400:16 *763:53 0
24 *400:16 *763:57 0.000338662
25 *400:16 *763:76 0.000192695
26 *400:16 *1119:61 0.000177339
27 *400:16 *1119:76 0.000161769
28 *400:16 *1119:131 0
29 *400:20 *757:39 0.000606278
30 *400:20 *758:125 7.53228e-05
31 *400:20 *759:33 0.000320048
32 *400:30 *757:39 0.00153083
33 *400:30 *759:33 0.000503098
34 *400:30 *1072:27 8.00842e-05
35 *2678:B *400:16 0.000629483
36 *2678:A *400:16 8.0216e-05
37 *364:49 *400:16 0
38 *366:27 *400:16 0
39 *369:69 *400:16 0.000338498
40 *391:10 *400:16 0
41 *393:12 *400:16 0.000112437
42 *393:18 *400:16 0
43 *397:16 *2839:B 0
*RES
1 *2685:Y *400:16 45.18 
2 *400:16 *400:20 22.8222 
3 *400:20 *400:30 47.6632 
4 *400:30 *2686:B 40.6695 
5 *400:20 *2839:B 47.2083 
*END

*D_NET *401 0.00144698
*CONN
*I *2692:C I *D sg13cmos5l_nand4_1
*I *2686:X O *D sg13cmos5l_xor2_1
*CAP
1 *2692:C 0.000168806
2 *2686:X 0.000363106
3 *401:14 0.000531912
4 *2692:C *406:12 1.54008e-05
5 *401:14 *740:37 0
6 *401:14 *1085:8 0
7 *401:14 *1149:41 0
8 *2686:B *401:14 0
9 *2692:B *2692:C 8.00842e-05
10 *393:18 *401:14 0.000287672
*RES
1 *2686:X *401:14 43.4093 
2 *401:14 *2692:C 41.4008 
*END

*D_NET *402 0.00157746
*CONN
*I *2689:B I *D sg13cmos5l_and2_1
*I *2688:B I *D sg13cmos5l_nor2_1
*I *2687:X O *D sg13cmos5l_xor2_1
*CAP
1 *2689:B 0.000103654
2 *2688:B 0.000200271
3 *2687:X 0.000100379
4 *402:10 0.000404304
5 *2688:B *2691:A0 0.000272762
6 *2688:B *3123:CLK 0
7 *2688:B *1153:93 0
8 *2689:B *741:63 4.77425e-05
9 *2689:B *757:39 0.000159926
10 *402:10 *2691:A0 8.00842e-05
11 *402:10 *757:39 0.00012816
12 *402:10 *1153:93 8.01773e-05
*RES
1 *2687:X *402:10 41.133 
2 *402:10 *2688:B 42.0497 
3 *402:10 *2689:B 41.1639 
*END

*D_NET *403 0.00124525
*CONN
*I *2691:A0 I *D sg13cmos5l_mux2_1
*I *2688:Y O *D sg13cmos5l_nor2_1
*CAP
1 *2691:A0 0.000438476
2 *2688:Y 0.000438476
3 *2691:A0 *2691:A1 1.54556e-05
4 *2691:A0 *1153:93 0
5 *2688:B *2691:A0 0.000272762
6 *402:10 *2691:A0 8.00842e-05
*RES
1 *2688:Y *2691:A0 43.7801 
*END

*D_NET *404 0.000793666
*CONN
*I *2691:A1 I *D sg13cmos5l_mux2_1
*I *2689:X O *D sg13cmos5l_and2_1
*CAP
1 *2691:A1 0.00030878
2 *2689:X 0.00030878
3 *2691:A1 *405:16 8.03253e-05
4 *2691:A1 *741:80 0
5 *2691:A1 *743:33 0
6 *2691:A1 *1153:93 8.03253e-05
7 *2691:A0 *2691:A1 1.54556e-05
8 *3141:D *2691:A1 0
*RES
1 *2689:X *2691:A1 43.2136 
*END

*D_NET *405 0.00644489
*CONN
*I *2691:S I *D sg13cmos5l_mux2_1
*I *2690:X O *D sg13cmos5l_xor2_1
*CAP
1 *2691:S 0
2 *2690:X 0.000158973
3 *405:16 0.0014521
4 *405:8 0.00161107
5 *405:8 *688:54 0
6 *405:8 *756:36 0
7 *405:16 *2870:A0 0
8 *405:16 *563:10 0
9 *405:16 *741:80 0
10 *405:16 *741:92 7.96596e-05
11 *405:16 *743:33 0.000921125
12 *405:16 *756:36 0.000468855
13 *405:16 *1126:113 0.0010173
14 *405:16 *1153:93 0
15 *2661:A *405:16 0.000403674
16 *2661:B *405:16 0
17 *2691:A1 *405:16 8.03253e-05
18 *3141:D *405:16 0.000176674
19 *359:33 *405:8 7.51285e-05
*RES
1 *2690:X *405:8 41.339 
2 *405:8 *405:16 35.6972 
3 *405:16 *2691:S 20 
*END

*D_NET *406 0.00472002
*CONN
*I *2692:D I *D sg13cmos5l_nand4_1
*I *2691:X O *D sg13cmos5l_mux2_1
*CAP
1 *2692:D 0
2 *2691:X 0
3 *406:12 0.00109082
4 *406:6 0.00109082
5 *406:12 *407:32 0
6 *406:12 *733:16 0
7 *406:12 *1067:10 0
8 *406:12 *1136:42 0.00252299
9 *2692:C *406:12 1.54008e-05
*RES
1 *2691:X *406:6 40 
2 *406:6 *406:12 33.9874 
3 *406:12 *2692:D 20 
*END

*D_NET *407 0.0096242
*CONN
*I *2723:A I *D sg13cmos5l_nor4_2
*I *2692:Y O *D sg13cmos5l_nand4_1
*CAP
1 *2723:A 0.00052638
2 *2692:Y 0.00279322
3 *407:32 0.0033196
4 *2723:A *2723:B 0.000208195
5 *2723:A *3432:A 0
6 *2723:A *414:10 0.000595931
7 *407:32 *2655:A 0
8 *407:32 *2713:A 1.62936e-05
9 *407:32 *2717:C 0
10 *407:32 *2721:A2 0
11 *407:32 *3432:A 0
12 *407:32 *429:27 0.000920022
13 *407:32 *429:56 0.00035629
14 *407:32 *432:12 8.0023e-05
15 *407:32 *436:10 0
16 *407:32 *437:10 4.77425e-05
17 *407:32 *733:16 0
18 *407:32 *734:46 0
19 *407:32 *734:88 0
20 *407:32 *1067:10 0
21 *407:32 *1079:12 0
22 *407:32 *1149:41 0
23 *2692:A *407:32 1.54008e-05
24 *2717:B *407:32 0
25 *2719:B *407:32 4.77425e-05
26 *2719:A *407:32 8.00954e-05
27 *2721:B2 *407:32 0
28 *358:100 *407:32 0
29 *358:108 *407:32 0
30 *370:28 *407:32 0
31 *372:40 *407:32 5.80401e-06
32 *372:48 *407:32 8.0216e-05
33 *378:22 *407:32 0.000531242
34 *406:12 *407:32 0
*RES
1 *2692:Y *407:32 48.1007 
2 *407:32 *2723:A 25.2942 
*END

*D_NET *408 0.00422104
*CONN
*I *2726:A I *D sg13cmos5l_xnor2_1
*I *2698:A I *D sg13cmos5l_nor2_1
*I *2699:A1 I *D sg13cmos5l_a22oi_1
*I *2693:Y O *D sg13cmos5l_xnor2_1
*CAP
1 *2726:A 0.000416541
2 *2698:A 0
3 *2699:A1 0
4 *2693:Y 0.000377218
5 *408:18 0.000300957
6 *408:12 0.000861003
7 *408:8 0.000520724
8 *2726:A *440:6 1.54556e-05
9 *2726:A *441:54 0
10 *2726:A *666:10 0.000241522
11 *2726:A *1144:39 0.00011182
12 *2726:A *1144:66 0.00032336
13 *408:8 *2906:B 0
14 *408:8 *591:10 0
15 *408:8 *740:114 0
16 *408:8 *995:28 2.20966e-05
17 *408:8 *995:39 0
18 *408:12 *1144:66 0
19 *408:18 *2906:B 0.000128248
20 *408:18 *411:47 0.000659811
21 *408:18 *413:8 0
22 *381:8 *2726:A 0
23 *381:45 *2726:A 0
24 *381:45 *408:12 0.000242281
*RES
1 *2693:Y *408:8 44.0582 
2 *408:8 *408:12 21.6171 
3 *408:12 *408:18 43.5638 
4 *408:18 *2699:A1 20 
5 *408:12 *2698:A 20 
6 *408:12 *2726:A 24.5938 
*END

*D_NET *409 0.00247931
*CONN
*I *2707:B I *D sg13cmos5l_and2_1
*I *2695:A I *D sg13cmos5l_buf_1
*I *2694:X O *D sg13cmos5l_xor2_1
*CAP
1 *2707:B 0.000110964
2 *2695:A 0.000103128
3 *2694:X 0.000178829
4 *409:10 0.00039292
5 *2695:A *2712:A1 0.000234726
6 *2695:A *410:12 0.000287256
7 *2695:A *420:8 7.51285e-05
8 *2707:B *2705:B 0.000394237
9 *2707:B *410:12 0.000553748
10 *2707:B *420:8 5.31192e-05
11 *2707:B *1113:14 0
12 *409:10 *2711:C1 4.77425e-05
13 *409:10 *424:16 0
14 *409:10 *1113:14 4.75151e-05
*RES
1 *2694:X *409:10 41.751 
2 *409:10 *2695:A 41.6583 
3 *409:10 *2707:B 42.575 
*END

*D_NET *410 0.00703884
*CONN
*I *2792:A I *D sg13cmos5l_xnor2_1
*I *2884:B I *D sg13cmos5l_xnor2_1
*I *3253:A I *D sg13cmos5l_buf_1
*I *2695:X O *D sg13cmos5l_buf_1
*CAP
1 *2792:A 0
2 *2884:B 0.000173427
3 *3253:A 0
4 *2695:X 0
5 *410:50 0.000418881
6 *410:33 0.000923283
7 *410:12 0.00116142
8 *410:4 0.000830445
9 *2884:B *2816:D 0
10 *2884:B *2884:A 4.77425e-05
11 *2884:B *464:10 0
12 *2884:B *1117:131 0
13 *2884:B *1123:81 0
14 *2884:B *1143:107 0.000208637
15 *410:12 *2705:B 0
16 *410:12 *2712:A1 0
17 *410:12 *427:10 0
18 *410:12 *427:18 0.000607195
19 *410:33 *2814:A2 0
20 *410:33 *2816:C 0
21 *410:33 *2816:D 0
22 *410:33 *1073:56 0.000767328
23 *410:33 *1113:122 0
24 *410:33 *1130:111 0
25 *410:33 *1143:107 0
26 *410:33 *1144:16 0
27 *410:33 *1154:111 0
28 *410:50 *2712:B1 7.98097e-05
29 *410:50 *2792:B 1.54556e-05
30 *410:50 *425:10 0.000287256
31 *410:50 *427:10 0
32 *410:50 *483:22 0
33 *410:50 *762:63 0
34 *2695:A *410:12 0.000287256
35 *2707:B *410:12 0.000553748
36 *161:10 *2884:B 0.000240978
37 *352:32 *410:33 0.000435973
*RES
1 *2695:X *410:4 20 
2 *410:4 *410:12 45.3663 
3 *410:12 *3253:A 20 
4 *410:12 *410:33 48.4666 
5 *410:33 *2884:B 22.0497 
6 *410:4 *410:50 44.017 
7 *410:50 *2792:A 20 
*END

*D_NET *411 0.0125205
*CONN
*I *2697:B_N I *D sg13cmos5l_nor2b_1
*I *2906:B I *D sg13cmos5l_xor2_1
*I *2698:B I *D sg13cmos5l_nor2_1
*I *2706:B_N I *D sg13cmos5l_nor2b_1
*I *2792:B I *D sg13cmos5l_xnor2_1
*I *2708:A I *D sg13cmos5l_nor2b_1
*I *2696:Y O *D sg13cmos5l_xnor2_1
*CAP
1 *2697:B_N 0
2 *2906:B 0.000585096
3 *2698:B 2.60565e-05
4 *2706:B_N 0
5 *2792:B 0.000188589
6 *2708:A 2.77263e-05
7 *2696:Y 7.36483e-05
8 *411:47 0.00116412
9 *411:41 0.00152636
10 *411:16 0.000244042
11 *411:14 0.00103434
12 *411:8 0.00205366
13 *2792:B *2708:B_N 0
14 *2792:B *423:10 0
15 *2792:B *483:22 0
16 *2792:B *762:63 0
17 *2906:B *591:10 0
18 *2906:B *740:108 0
19 *2906:B *1155:59 0
20 *411:14 *2817:A 0
21 *411:14 *2902:A 0
22 *411:14 *421:8 0
23 *411:14 *483:22 0
24 *411:14 *487:58 0.0010327
25 *411:14 *584:8 0
26 *411:14 *762:71 0
27 *411:14 *1155:49 0
28 *411:41 *3199:A 0
29 *411:41 *487:58 0.000955318
30 *411:41 *565:12 0
31 *411:41 *733:64 0
32 *411:41 *762:158 0
33 *411:41 *995:28 0
34 *411:41 *1155:59 0
35 *411:47 *3199:A 0
36 *411:47 *413:8 0
37 *411:47 *762:158 0
38 *411:47 *995:28 0
39 *411:47 *1155:59 0
40 *381:45 *2698:B 4.77425e-05
41 *395:25 *411:14 0.00151832
42 *395:25 *411:41 0.00119158
43 *397:44 *2698:B 4.77425e-05
44 *408:8 *2906:B 0
45 *408:18 *2906:B 0.000128248
46 *408:18 *411:47 0.000659811
47 *410:50 *2792:B 1.54556e-05
*RES
1 *2696:Y *411:8 40.5356 
2 *411:8 *411:14 34.3891 
3 *411:14 *411:16 0.3502 
4 *411:16 *2708:A 20.3502 
5 *411:16 *2792:B 20.9006 
6 *411:14 *2706:B_N 20 
7 *411:8 *411:41 32.4115 
8 *411:41 *411:47 25.6135 
9 *411:47 *2698:B 40.3193 
10 *411:47 *2906:B 45.5517 
11 *411:41 *2697:B_N 20 
*END

*D_NET *412 0.000270507
*CONN
*I *2699:A2 I *D sg13cmos5l_a22oi_1
*I *2697:Y O *D sg13cmos5l_nor2b_1
*CAP
1 *2699:A2 0.000111303
2 *2697:Y 0.000111303
3 *2699:A2 *2697:A 0
4 *2699:A2 *2699:B2 4.79017e-05
5 *2699:A2 *414:10 0
6 *2699:A2 *762:158 0
*RES
1 *2697:Y *2699:A2 41.133 
*END

*D_NET *413 0.000851265
*CONN
*I *2699:B1 I *D sg13cmos5l_a22oi_1
*I *2698:Y O *D sg13cmos5l_nor2_1
*CAP
1 *2699:B1 3.24251e-05
2 *2698:Y 0.000369251
3 *413:8 0.000401676
4 *2699:B1 *414:10 4.79124e-05
5 *2699:B1 *1143:88 0
6 *413:8 *995:28 0
7 *408:18 *413:8 0
8 *411:47 *413:8 0
*RES
1 *2698:Y *413:8 43.3166 
2 *413:8 *2699:B1 40.3193 
*END

*D_NET *414 0.00302862
*CONN
*I *2704:A I *D sg13cmos5l_or3_1
*I *2699:Y O *D sg13cmos5l_a22oi_1
*CAP
1 *2704:A 0
2 *2699:Y 0.00106411
3 *414:10 0.00106411
4 *414:10 *2699:B2 0.000112695
5 *414:10 *2704:B 0.00014386
6 *414:10 *762:158 0
7 *414:10 *1083:8 0
8 *414:10 *1119:137 0
9 *414:10 *1130:121 0
10 *414:10 *1143:88 0
11 *2699:B1 *414:10 4.79124e-05
12 *2699:A2 *414:10 0
13 *2723:A *414:10 0.000595931
*RES
1 *2699:Y *414:10 29.582 
2 *414:10 *2704:A 20 
*END

*D_NET *415 0.00112414
*CONN
*I *2704:B I *D sg13cmos5l_or3_1
*I *2700:Y O *D sg13cmos5l_nor3_1
*CAP
1 *2704:B 9.19695e-05
2 *2700:Y 0.000187918
3 *415:10 0.000279888
4 *2704:B *739:80 8.0216e-05
5 *415:10 *2723:D 0
6 *415:10 *761:43 0.000340288
7 *414:10 *2704:B 0.00014386
*RES
1 *2700:Y *415:10 42.1218 
2 *415:10 *2704:B 40.9682 
*END

*D_NET *416 0.00138881
*CONN
*I *2703:A I *D sg13cmos5l_nor2b_1
*I *2701:Y O *D sg13cmos5l_nor3_1
*CAP
1 *2703:A 0
2 *2701:Y 0.000311469
3 *416:8 0.000311469
4 *416:8 *734:52 0
5 *416:8 *758:63 0.000765875
*RES
1 *2701:Y *416:8 43.5638 
2 *416:8 *2703:A 40 
*END

*D_NET *417 0.00239428
*CONN
*I *2703:B_N I *D sg13cmos5l_nor2b_1
*I *2702:Y O *D sg13cmos5l_nand4_1
*CAP
1 *2703:B_N 0.000134943
2 *2702:Y 0.000284523
3 *417:8 0.000419466
4 *2703:B_N *429:56 0
5 *2703:B_N *436:10 0.00024122
6 *2703:B_N *734:46 0.000208878
7 *417:8 *679:14 0
8 *417:8 *734:42 0.000234224
9 *417:8 *1150:126 0.000871022
*RES
1 *2702:Y *417:8 44.0582 
2 *417:8 *2703:B_N 41.6171 
*END

*D_NET *418 0.00300923
*CONN
*I *2704:C I *D sg13cmos5l_or3_1
*I *2703:Y O *D sg13cmos5l_nor2b_1
*CAP
1 *2704:C 0.00140021
2 *2703:Y 0.00140021
3 *2704:C *429:56 0
4 *2704:C *436:10 0
5 *2715:A *2704:C 0.000208824
*RES
1 *2703:Y *2704:C 49.2391 
*END

*D_NET *419 0.0012297
*CONN
*I *2723:B I *D sg13cmos5l_nor4_2
*I *2704:X O *D sg13cmos5l_or3_1
*CAP
1 *2723:B 0.000431355
2 *2704:X 0.000431355
3 *2723:B *2723:D 0
4 *2723:B *3432:A 0.000158792
5 *2723:B *1119:137 0
6 *2723:A *2723:B 0.000208195
*RES
1 *2704:X *2723:B 44.2642 
*END

*D_NET *420 0.00193329
*CONN
*I *2711:C1 I *D sg13cmos5l_a221oi_1
*I *2712:A1 I *D sg13cmos5l_a21o_1
*I *2705:X O *D sg13cmos5l_xor2_1
*CAP
1 *2711:C1 0.00043032
2 *2712:A1 0.0002935
3 *2705:X 3.74685e-05
4 *420:8 0.000761289
5 *2711:C1 *423:22 0
6 *2711:C1 *425:10 0
7 *2712:A1 *424:8 0
8 *2712:A1 *427:10 0
9 *2712:A1 *499:10 0
10 *2712:A1 *1130:20 0
11 *420:8 *1113:14 0
12 *2695:A *2712:A1 0.000234726
13 *2695:A *420:8 7.51285e-05
14 *2707:B *420:8 5.31192e-05
15 *409:10 *2711:C1 4.77425e-05
16 *410:12 *2712:A1 0
*RES
1 *2705:X *420:8 40.5974 
2 *420:8 *2712:A1 43.3887 
3 *420:8 *2711:C1 42.8325 
*END

*D_NET *421 0.00338772
*CONN
*I *2817:A I *D sg13cmos5l_or2_1
*I *2711:A1 I *D sg13cmos5l_a221oi_1
*I *2710:A1 I *D sg13cmos5l_a22oi_1
*I *2706:Y O *D sg13cmos5l_nor2b_1
*CAP
1 *2817:A 0.000295447
2 *2711:A1 0.000193886
3 *2710:A1 0
4 *2706:Y 0.000222337
5 *421:17 0.000581321
6 *421:8 0.000314326
7 *2711:A1 *2710:B2 0.000241456
8 *2711:A1 *2710:A2 0.000279087
9 *2711:A1 *422:12 1.54556e-05
10 *2711:A1 *424:16 0
11 *2817:A *2710:B2 0
12 *2817:A *1155:49 0.00026599
13 *421:8 *1155:49 0.000713258
14 *421:17 *1155:49 0.000265159
15 *352:32 *2817:A 0
16 *411:14 *2817:A 0
17 *411:14 *421:8 0
*RES
1 *2706:Y *421:8 43.3166 
2 *421:8 *2710:A1 40 
3 *421:8 *421:17 1.339 
4 *421:17 *2711:A1 42.2866 
5 *421:17 *2817:A 43.1724 
*END

*D_NET *422 0.00192451
*CONN
*I *2710:A2 I *D sg13cmos5l_a22oi_1
*I *2711:B1 I *D sg13cmos5l_a221oi_1
*I *2707:X O *D sg13cmos5l_and2_1
*CAP
1 *2710:A2 0.000207404
2 *2711:B1 0
3 *2707:X 0.000100184
4 *422:12 0.000345587
5 *422:8 0.000238366
6 *2710:A2 *2710:B2 0
7 *2710:A2 *425:10 6.49135e-05
8 *422:8 *2694:A 0
9 *422:8 *427:18 0.00028743
10 *422:12 *424:16 0.000177164
11 *422:12 *425:10 0.000208922
12 *2711:A1 *2710:A2 0.000279087
13 *2711:A1 *422:12 1.54556e-05
*RES
1 *2707:X *422:8 41.339 
2 *422:8 *422:12 21.6171 
3 *422:12 *2711:B1 20 
4 *422:12 *2710:A2 22.2866 
*END

*D_NET *423 0.00256559
*CONN
*I *2710:B1 I *D sg13cmos5l_a22oi_1
*I *2711:B2 I *D sg13cmos5l_a221oi_1
*I *2817:B I *D sg13cmos5l_or2_1
*I *2708:Y O *D sg13cmos5l_nor2b_1
*CAP
1 *2710:B1 0.000120652
2 *2711:B2 0
3 *2817:B 0
4 *2708:Y 0.000544815
5 *423:22 0.000266901
6 *423:14 0.000352307
7 *423:12 0.000206058
8 *423:10 0.000544815
9 *2710:B1 *2897:A 0
10 *2710:B1 *425:10 0.000176127
11 *423:10 *425:10 0
12 *423:10 *426:8 0
13 *423:10 *427:10 0
14 *423:10 *762:63 0
15 *423:10 *762:71 0
16 *423:10 *1073:56 0.000129089
17 *423:10 *1155:49 0
18 *423:14 *425:10 0.000144571
19 *423:22 *2694:A 0
20 *423:22 *425:10 8.02598e-05
21 *423:22 *427:18 0
22 *423:22 *1073:56 0
23 *2711:C1 *423:22 0
24 *2792:B *423:10 0
*RES
1 *2708:Y *423:10 45.3354 
2 *423:10 *423:12 20 
3 *423:12 *423:14 0.9682 
4 *423:14 *423:22 42.0186 
5 *423:22 *2817:B 20 
6 *423:14 *2711:B2 20 
7 *423:12 *2710:B1 21.1845 
*END

*D_NET *424 0.00313199
*CONN
*I *2710:B2 I *D sg13cmos5l_a22oi_1
*I *2711:A2 I *D sg13cmos5l_a221oi_1
*I *2709:Y O *D sg13cmos5l_nor2_1
*CAP
1 *2710:B2 0.000296213
2 *2711:A2 0
3 *2709:Y 0.000260504
4 *424:16 0.000662353
5 *424:8 0.000626644
6 *2710:B2 *425:10 4.78853e-05
7 *2710:B2 *519:10 0
8 *424:8 *1113:14 0.000288087
9 *424:8 *1130:10 0
10 *424:8 *1130:20 0
11 *424:16 *2705:B 4.77425e-05
12 *424:16 *519:10 0.000483941
13 *2710:A2 *2710:B2 0
14 *2711:A1 *2710:B2 0.000241456
15 *2711:A1 *424:16 0
16 *2712:A1 *424:8 0
17 *2817:A *2710:B2 0
18 *352:32 *2710:B2 0
19 *352:32 *424:16 0
20 *409:10 *424:16 0
21 *422:12 *424:16 0.000177164
*RES
1 *2709:Y *424:8 42.575 
2 *424:8 *424:16 24.1123 
3 *424:16 *2711:A2 20 
4 *424:16 *2710:B2 23.691 
*END

*D_NET *425 0.00344548
*CONN
*I *2712:A2 I *D sg13cmos5l_a21o_1
*I *2710:Y O *D sg13cmos5l_a22oi_1
*CAP
1 *2712:A2 0.000122301
2 *2710:Y 0.000566797
3 *425:10 0.000689097
4 *2712:A2 *2712:B1 0
5 *2712:A2 *483:22 0.000211199
6 *2712:A2 *499:10 7.9947e-05
7 *2712:A2 *762:63 0
8 *425:10 *2897:A 0
9 *425:10 *426:8 0
10 *425:10 *427:10 0.000766204
11 *2710:B1 *425:10 0.000176127
12 *2710:B2 *425:10 4.78853e-05
13 *2710:A2 *425:10 6.49135e-05
14 *2711:C1 *425:10 0
15 *410:50 *425:10 0.000287256
16 *422:12 *425:10 0.000208922
17 *423:10 *425:10 0
18 *423:14 *425:10 0.000144571
19 *423:22 *425:10 8.02598e-05
*RES
1 *2710:Y *425:10 47.1276 
2 *425:10 *2712:A2 41.4111 
*END

*D_NET *426 0.00130872
*CONN
*I *2712:B1 I *D sg13cmos5l_a21o_1
*I *2711:Y O *D sg13cmos5l_a221oi_1
*CAP
1 *2712:B1 0.00015132
2 *2711:Y 0.000375
3 *426:8 0.00052632
4 *2712:B1 *499:10 0.000176274
5 *2712:B1 *762:63 0
6 *2712:A2 *2712:B1 0
7 *410:50 *2712:B1 7.98097e-05
8 *423:10 *426:8 0
9 *425:10 *426:8 0
*RES
1 *2711:Y *426:8 43.5638 
2 *426:8 *2712:B1 41.6171 
*END

*D_NET *427 0.00944522
*CONN
*I *2723:C I *D sg13cmos5l_nor4_2
*I *2712:X O *D sg13cmos5l_a21o_1
*CAP
1 *2723:C 0
2 *2712:X 0.0004058
3 *427:24 0.00134907
4 *427:18 0.00202509
5 *427:10 0.00108182
6 *427:10 *499:10 0.000235141
7 *427:18 *2694:A 0
8 *427:18 *2813:B 0.000305088
9 *427:18 *517:12 0.000340288
10 *427:18 *1123:66 0.000176912
11 *427:24 *438:8 0.000554164
12 *427:24 *461:12 0.000235055
13 *427:24 *739:10 0
14 *427:24 *739:12 0
15 *427:24 *1073:14 0
16 *427:24 *1079:22 0
17 *427:24 *1115:76 0
18 *427:24 *1119:137 0
19 *427:24 *1122:72 0.000341119
20 *427:24 *1126:72 0
21 *427:24 *1126:87 0
22 *427:24 *1154:100 7.51285e-05
23 *2712:A1 *427:10 0
24 *165:10 *427:24 0.000659726
25 *410:12 *427:10 0
26 *410:12 *427:18 0.000607195
27 *410:50 *427:10 0
28 *422:8 *427:18 0.00028743
29 *423:10 *427:10 0
30 *423:22 *427:18 0
31 *425:10 *427:10 0.000766204
*RES
1 *2712:X *427:10 45.1191 
2 *427:10 *427:18 48.0855 
3 *427:18 *427:24 34.5127 
4 *427:24 *2723:C 20 
*END

*D_NET *428 0.000611582
*CONN
*I *2722:B I *D sg13cmos5l_nand4_1
*I *2713:Y O *D sg13cmos5l_nand3_1
*CAP
1 *2722:B 2.90123e-05
2 *2713:Y 6.39282e-05
3 *428:8 9.29405e-05
4 *2722:B *2722:C 4.77425e-05
5 *428:8 *437:10 0.000128247
6 *428:8 *441:43 0.000234311
7 *358:108 *2722:B 1.54008e-05
*RES
1 *2713:Y *428:8 41.0918 
2 *428:8 *2722:B 40.3193 
*END

*D_NET *429 0.0196259
*CONN
*I *2715:B I *D sg13cmos5l_nor2_1
*I *2869:A0 I *D sg13cmos5l_mux2_1
*I *2774:B I *D sg13cmos5l_xnor2_1
*I *2714:X O *D sg13cmos5l_xor2_1
*CAP
1 *2715:B 0
2 *2869:A0 6.02356e-05
3 *2774:B 0.000117482
4 *2714:X 0
5 *429:56 0.000827471
6 *429:31 0.000787932
7 *429:27 0.00206674
8 *429:25 0.00105294
9 *429:8 0.00115312
10 *429:4 0.00157701
11 *2774:B *2774:A 0.0001609
12 *2774:B *1126:39 0.000208692
13 *2774:B *1150:80 4.77153e-05
14 *2869:A0 *1119:113 0
15 *2869:A0 *1124:34 6.99179e-05
16 *429:8 *2851:D 0
17 *429:8 *2853:B1 0
18 *429:8 *1115:26 0.000181192
19 *429:8 *1150:84 0.00267743
20 *429:25 *733:32 0.00119295
21 *429:25 *1092:32 0.00043333
22 *429:27 *436:10 0
23 *429:31 *688:54 0.00219981
24 *429:31 *763:89 0.000872269
25 *429:31 *1150:126 0
26 *429:56 *2722:C 0
27 *429:56 *436:10 0.000403373
28 *429:56 *688:50 0
29 *429:56 *734:46 0
30 *429:56 *734:52 0
31 *429:56 *758:63 0.000287343
32 *2703:B_N *429:56 0
33 *2704:C *429:56 0
34 *2714:B *429:25 0
35 *2715:A *429:56 1.54008e-05
36 *208:31 *429:25 0.00119828
37 *359:10 *429:31 0
38 *369:24 *429:27 0.00075809
39 *369:24 *429:31 0
40 *372:25 *429:8 0
41 *407:32 *429:27 0.000920022
42 *407:32 *429:56 0.00035629
*RES
1 *2714:X *429:4 20 
2 *429:4 *429:8 32.7102 
3 *429:8 *2774:B 41.4008 
4 *429:4 *429:25 48.4563 
5 *429:25 *429:27 6.1594 
6 *429:27 *429:31 30.7326 
7 *429:31 *2869:A0 40.6695 
8 *429:27 *429:56 48.2709 
9 *429:56 *2715:B 20 
*END

*D_NET *430 0.000627592
*CONN
*I *2722:C I *D sg13cmos5l_nand4_1
*I *2715:Y O *D sg13cmos5l_nor2_1
*CAP
1 *2722:C 0.000178266
2 *2715:Y 0.000178266
3 *2722:C *436:10 7.90177e-05
4 *2722:C *436:18 0.000144299
5 *2715:A *2722:C 0
6 *2722:B *2722:C 4.77425e-05
7 *358:108 *2722:C 0
8 *429:56 *2722:C 0
*RES
1 *2715:Y *2722:C 41.751 
*END

*D_NET *431 0.000888329
*CONN
*I *2717:C I *D sg13cmos5l_or3_1
*I *2716:Y O *D sg13cmos5l_nand2_1
*CAP
1 *2717:C 0.000157954
2 *2716:Y 7.48974e-05
3 *431:8 0.000232851
4 *431:8 *1081:20 0.00018128
5 *2717:B *2717:C 0
6 *369:32 *2717:C 0.000241347
7 *407:32 *2717:C 0
*RES
1 *2716:Y *431:8 40.8446 
2 *431:8 *2717:C 41.6171 
*END

*D_NET *432 0.0013212
*CONN
*I *2721:A1 I *D sg13cmos5l_a22oi_1
*I *2717:X O *D sg13cmos5l_or3_1
*CAP
1 *2721:A1 4.3607e-05
2 *2717:X 0.000222445
3 *432:12 0.000266052
4 *2721:A1 *2721:B1 8.00954e-05
5 *2721:A1 *734:42 8.00954e-05
6 *432:12 *435:10 7.51285e-05
7 *432:12 *760:59 0.000393736
8 *2719:A *432:12 6.46222e-05
9 *372:40 *432:12 1.54008e-05
10 *407:32 *432:12 8.0023e-05
*RES
1 *2717:X *432:12 42.9046 
2 *432:12 *2721:A1 40.5356 
*END

*D_NET *433 0.00137361
*CONN
*I *2719:C I *D sg13cmos5l_nand3_1
*I *2718:Y O *D sg13cmos5l_nor2_1
*CAP
1 *2719:C 0
2 *2718:Y 0.000201755
3 *433:10 0.000201755
4 *433:10 *760:59 0.000340791
5 *433:10 *1145:99 7.97013e-05
6 *433:10 *1149:59 0.0002089
7 *2786:B *433:10 0.000287672
8 *369:32 *433:10 0
9 *378:33 *433:10 5.30319e-05
*RES
1 *2718:Y *433:10 42.987 
2 *433:10 *2719:C 40 
*END

*D_NET *434 0.000233377
*CONN
*I *2721:A2 I *D sg13cmos5l_a22oi_1
*I *2719:Y O *D sg13cmos5l_nand3_1
*CAP
1 *2721:A2 9.53363e-05
2 *2719:Y 9.53363e-05
3 *2721:A2 *436:10 0
4 *2721:A2 *734:42 0
5 *2721:B2 *2721:A2 4.27045e-05
6 *407:32 *2721:A2 0
*RES
1 *2719:Y *2721:A2 41.1742 
*END

*D_NET *435 0.00200395
*CONN
*I *2721:B1 I *D sg13cmos5l_a22oi_1
*I *2720:Y O *D sg13cmos5l_nor2_1
*CAP
1 *2721:B1 9.1758e-05
2 *2720:Y 0.000608488
3 *435:10 0.000700246
4 *2721:B1 *734:42 0
5 *435:10 *2844:B 0
6 *435:10 *760:59 0
7 *435:10 *760:65 4.77105e-05
8 *435:10 *1131:30 0
9 *435:10 *1131:34 0
10 *435:10 *1145:112 0
11 *2662:A2 *435:10 0
12 *2721:B2 *2721:B1 0
13 *2721:A1 *2721:B1 8.00954e-05
14 *364:8 *435:10 0.000288088
15 *373:20 *2721:B1 0.000112437
16 *432:12 *435:10 7.51285e-05
*RES
1 *2720:Y *435:10 46.0461 
2 *435:10 *2721:B1 40.9682 
*END

*D_NET *436 0.00487005
*CONN
*I *2722:D I *D sg13cmos5l_nand4_1
*I *2721:Y O *D sg13cmos5l_a22oi_1
*CAP
1 *2722:D 0
2 *2721:Y 0.00155076
3 *436:18 0.000137644
4 *436:10 0.00168841
5 *436:10 *679:14 0.00024105
6 *436:10 *734:42 0
7 *436:10 *734:88 0
8 *2703:B_N *436:10 0.00024122
9 *2704:C *436:10 0
10 *2715:A *436:10 0
11 *2715:A *436:18 7.96158e-05
12 *2721:A2 *436:10 0
13 *2722:C *436:10 7.90177e-05
14 *2722:C *436:18 0.000144299
15 *358:108 *436:10 0.000176498
16 *369:24 *436:10 0
17 *378:22 *436:18 0.00012816
18 *407:32 *436:10 0
19 *429:27 *436:10 0
20 *429:56 *436:10 0.000403373
*RES
1 *2721:Y *436:10 34.832 
2 *436:10 *436:18 41.5656 
3 *436:18 *2722:D 20 
*END

*D_NET *437 0.00330334
*CONN
*I *2723:D I *D sg13cmos5l_nor4_2
*I *2722:Y O *D sg13cmos5l_nand4_1
*CAP
1 *2723:D 0.000626565
2 *2722:Y 0.000181043
3 *437:10 0.000807609
4 *2723:D *3432:A 0
5 *2723:D *1079:12 0.000885118
6 *2723:D *1119:137 0.000112826
7 *437:10 *441:43 0
8 *2672:B *2723:D 0
9 *2700:C *2723:D 0.000337353
10 *2723:B *2723:D 0
11 *358:96 *437:10 0.000129089
12 *358:108 *437:10 4.77425e-05
13 *378:22 *437:10 0
14 *407:32 *437:10 4.77425e-05
15 *415:10 *2723:D 0
16 *428:8 *437:10 0.000128247
*RES
1 *2722:Y *437:10 41.9055 
2 *437:10 *2723:D 46.8083 
*END

*D_NET *438 0.00103217
*CONN
*I *2747:B I *D sg13cmos5l_nand4_1
*I *2723:Y O *D sg13cmos5l_nor4_2
*CAP
1 *2747:B 2.84594e-05
2 *2723:Y 0.000178919
3 *438:8 0.000207379
4 *2747:B *449:20 4.78521e-05
5 *438:8 *1079:22 0
6 *2671:B *2747:B 1.54008e-05
7 *427:24 *438:8 0.000554164
*RES
1 *2723:Y *438:8 42.575 
2 *438:8 *2747:B 40.3193 
*END

*D_NET *439 0.00572247
*CONN
*I *2727:A I *D sg13cmos5l_and2_1
*I *2729:A I *D sg13cmos5l_nor2_1
*I *2732:B I *D sg13cmos5l_nor3_1
*I *2724:Y O *D sg13cmos5l_inv_1
*CAP
1 *2727:A 7.61474e-05
2 *2729:A 0.000804976
3 *2732:B 0.000560904
4 *2724:Y 0
5 *439:23 0.000935308
6 *439:6 0.000615088
7 *2727:A *2728:C 5.30319e-05
8 *2727:A *442:10 0.000340704
9 *2727:A *694:49 0.000393736
10 *2729:A *2733:B1 0
11 *2729:A *2733:A2 6.39133e-05
12 *2729:A *444:10 0
13 *2729:A *995:14 0.000241226
14 *2732:B *2728:C 0.00034112
15 *2732:B *2732:A 0
16 *2732:B *694:49 0.000340704
17 *2732:B *1143:88 0.000403116
18 *439:23 *2728:C 0.000265159
19 *439:23 *694:49 0.000287342
20 *381:45 *2729:A 0
21 *381:60 *2729:A 0
*RES
1 *2724:Y *439:6 40 
2 *439:6 *2732:B 46.4684 
3 *439:6 *439:23 1.339 
4 *439:23 *2729:A 44.7792 
5 *439:23 *2727:A 41.8334 
*END

*D_NET *440 0.00398807
*CONN
*I *2726:B I *D sg13cmos5l_xnor2_1
*I *2725:X O *D sg13cmos5l_xor2_1
*CAP
1 *2726:B 0
2 *2725:X 0.00126942
3 *440:6 0.00126942
4 *440:6 *2654:A 0.000305849
5 *440:6 *2725:B 4.77866e-05
6 *440:6 *441:6 0
7 *440:6 *441:18 0.000274359
8 *440:6 *441:54 0
9 *440:6 *745:90 0.000805779
10 *440:6 *761:43 0
11 *440:6 *762:140 0
12 *440:6 *762:148 0
13 *2726:A *440:6 1.54556e-05
14 *369:10 *440:6 0
15 *381:8 *440:6 0
*RES
1 *2725:X *440:6 31.9995 
2 *440:6 *2726:B 20 
*END

*D_NET *441 0.0274955
*CONN
*I *2729:B I *D sg13cmos5l_nor2_1
*I *2732:C I *D sg13cmos5l_nor3_1
*I *2727:B I *D sg13cmos5l_and2_1
*I *2818:A I *D sg13cmos5l_xnor2_1
*I *2844:B I *D sg13cmos5l_xnor2_1
*I *2726:Y O *D sg13cmos5l_xnor2_1
*CAP
1 *2729:B 0
2 *2732:C 0.000391434
3 *2727:B 0
4 *2818:A 5.56078e-05
5 *2844:B 0.00237129
6 *2726:Y 0
7 *441:65 0.000915372
8 *441:54 0.00141232
9 *441:43 0.00264986
10 *441:18 0.00282839
11 *441:6 0.00373308
12 *441:4 0.00157011
13 *2732:C *447:8 0
14 *2818:A *2694:B 8.0194e-05
15 *2844:B *2649:B 4.77425e-05
16 *2844:B *2720:A 4.77425e-05
17 *2844:B *2844:A 0
18 *2844:B *740:50 0
19 *2844:B *740:66 0
20 *2844:B *742:63 0
21 *2844:B *760:65 0.000111957
22 *2844:B *762:113 0
23 *2844:B *762:138 0
24 *441:6 *2654:A 6.46834e-05
25 *441:6 *740:108 0.00114347
26 *441:6 *745:90 0.00082107
27 *441:18 *2654:A 0.000241166
28 *441:18 *736:45 0.000234224
29 *441:18 *740:77 0.000385933
30 *441:18 *740:108 6.46834e-05
31 *441:43 *2865:D 0.000711511
32 *441:43 *745:56 0.000287256
33 *441:43 *745:77 0
34 *441:43 *1073:33 0.000340288
35 *441:43 *1073:41 0
36 *441:43 *1117:85 0.000817575
37 *441:54 *740:108 0.000985988
38 *441:54 *1144:39 0
39 *441:54 *1144:66 0
40 *441:54 *1144:77 0
41 *441:65 *2733:B1 0
42 *441:65 *3352:A 3.23417e-05
43 *441:65 *445:25 0
44 *441:65 *747:44 0.00027438
45 *441:65 *1144:77 0
46 *2656:B *2844:B 0.000305865
47 *2656:C *2844:B 0
48 *2662:A2 *2844:B 0
49 *2678:A *2844:B 0.000853884
50 *2715:A *441:43 0.00103095
51 *2726:A *441:54 0
52 *2798:B *2844:B 0.000241166
53 *358:96 *441:43 0
54 *384:12 *441:43 0.000395396
55 *384:44 *441:43 0.000425173
56 *397:44 *2844:B 0
57 *400:16 *2844:B 0.0011147
58 *428:8 *441:43 0.000234311
59 *435:10 *2844:B 0
60 *437:10 *441:43 0
61 *440:6 *441:6 0
62 *440:6 *441:18 0.000274359
63 *440:6 *441:54 0
*RES
1 *2726:Y *441:4 20 
2 *441:4 *441:6 7.6735 
3 *441:6 *441:18 45.3251 
4 *441:18 *2844:B 43.0926 
5 *441:6 *441:43 47.8615 
6 *441:43 *2818:A 40.5356 
7 *441:4 *441:54 8.3224 
8 *441:54 *2727:B 20 
9 *441:54 *441:65 25.3354 
10 *441:65 *2732:C 43.5638 
11 *441:65 *2729:B 40 
*END

*D_NET *442 0.0044932
*CONN
*I *2733:A2 I *D sg13cmos5l_a22oi_1
*I *2728:C I *D sg13cmos5l_nand3b_1
*I *2727:X O *D sg13cmos5l_and2_1
*CAP
1 *2733:A2 5.7845e-05
2 *2728:C 0.000408081
3 *2727:X 0.000166429
4 *442:10 0.000632355
5 *2728:C *2730:A 0.000112563
6 *2728:C *445:8 0
7 *2728:C *752:46 0.000767328
8 *2728:C *1143:88 0.000435457
9 *442:10 *752:46 0.000479338
10 *2727:A *2728:C 5.30319e-05
11 *2727:A *442:10 0.000340704
12 *2729:A *2733:A2 6.39133e-05
13 *2732:B *2728:C 0.00034112
14 *381:45 *2733:A2 9.6255e-05
15 *381:60 *2728:C 0.000273617
16 *439:23 *2728:C 0.000265159
*RES
1 *2727:X *442:10 42.6471 
2 *442:10 *2728:C 46.4787 
3 *442:10 *2733:A2 40.6437 
*END

*D_NET *443 0.000344535
*CONN
*I *2734:A1 I *D sg13cmos5l_a22oi_1
*I *2728:Y O *D sg13cmos5l_nand3b_1
*CAP
1 *2734:A1 0.000172268
2 *2728:Y 0.000172268
3 *2734:A1 *2732:A 0
4 *2734:A1 *445:8 0
5 *2734:A1 *445:25 0
*RES
1 *2728:Y *2734:A1 42.1218 
*END

*D_NET *444 0.00168356
*CONN
*I *2731:A2 I *D sg13cmos5l_a21oi_1
*I *2729:Y O *D sg13cmos5l_nor2_1
*CAP
1 *2731:A2 0
2 *2729:Y 0.000342147
3 *444:10 0.000342147
4 *444:10 *2731:A1 0.000371223
5 *444:10 *2732:A 0.000234224
6 *444:10 *2733:B1 0
7 *444:10 *446:12 0
8 *444:10 *747:36 0.000393821
9 *444:10 *747:44 0
10 *2729:A *444:10 0
*RES
1 *2729:Y *444:10 44.4702 
2 *444:10 *2731:A2 40 
*END

*D_NET *445 0.00333419
*CONN
*I *2731:B1 I *D sg13cmos5l_a21oi_1
*I *2734:B2 I *D sg13cmos5l_a22oi_1
*I *2730:Y O *D sg13cmos5l_xnor2_1
*CAP
1 *2731:B1 0
2 *2734:B2 0
3 *2730:Y 0.000238943
4 *445:25 0.000667576
5 *445:8 0.000906519
6 *445:8 *2734:B1 0
7 *445:8 *2734:A2 4.77863e-05
8 *445:8 *694:8 0
9 *445:25 *2731:A1 0.000287672
10 *445:25 *2732:A 0.00113784
11 *445:25 *2734:A2 4.78524e-05
12 *445:25 *447:8 0
13 *445:25 *747:36 0
14 *2728:C *445:8 0
15 *2734:A1 *445:8 0
16 *2734:A1 *445:25 0
17 *381:60 *445:8 0
18 *441:65 *445:25 0
*RES
1 *2730:Y *445:8 22.4308 
2 *445:8 *2734:B2 20 
3 *445:8 *445:25 48.9095 
4 *445:25 *2731:B1 20 
*END

*D_NET *446 0.0019998
*CONN
*I *2734:A2 I *D sg13cmos5l_a22oi_1
*I *2731:Y O *D sg13cmos5l_a21oi_1
*CAP
1 *2734:A2 5.1377e-05
2 *2731:Y 0.000900702
3 *446:12 0.000952079
4 *446:12 *448:12 0
5 *446:12 *449:12 0
6 *446:12 *694:49 0
7 *446:12 *747:36 0
8 *446:12 *747:44 0
9 *381:60 *2734:A2 0
10 *444:10 *446:12 0
11 *445:8 *2734:A2 4.77863e-05
12 *445:25 *2734:A2 4.78524e-05
*RES
1 *2731:Y *446:12 47.9104 
2 *446:12 *2734:A2 40.5356 
*END

*D_NET *447 0.00181643
*CONN
*I *2733:B1 I *D sg13cmos5l_a22oi_1
*I *2732:Y O *D sg13cmos5l_nor3_1
*CAP
1 *2733:B1 0.000400051
2 *2732:Y 0.000492323
3 *447:8 0.000892374
4 *2733:B1 *448:12 3.1684e-05
5 *2733:B1 *995:14 0
6 *2733:B1 *1144:77 0
7 *2729:A *2733:B1 0
8 *2732:C *447:8 0
9 *441:65 *2733:B1 0
10 *444:10 *2733:B1 0
11 *445:25 *447:8 0
*RES
1 *2732:Y *447:8 44.3054 
2 *447:8 *2733:B1 43.3475 
*END

*D_NET *448 0.00177838
*CONN
*I *2734:B1 I *D sg13cmos5l_a22oi_1
*I *2733:Y O *D sg13cmos5l_a22oi_1
*CAP
1 *2734:B1 0.000143814
2 *2733:Y 0.000729532
3 *448:12 0.000873346
4 *448:12 *694:49 0
5 *448:12 *995:14 0
6 *2733:B1 *448:12 3.1684e-05
7 *381:60 *448:12 0
8 *445:8 *2734:B1 0
9 *446:12 *448:12 0
*RES
1 *2733:Y *448:12 46.5662 
2 *448:12 *2734:B1 41.1845 
*END

*D_NET *449 0.00368236
*CONN
*I *2747:C I *D sg13cmos5l_nand4_1
*I *2734:Y O *D sg13cmos5l_a22oi_1
*CAP
1 *2747:C 0
2 *2734:Y 0.000371296
3 *449:20 0.00127491
4 *449:12 0.00164621
5 *449:12 *694:14 0
6 *449:12 *694:49 0
7 *449:12 *747:36 0.000181694
8 *449:20 *565:12 0
9 *449:20 *666:22 8.01938e-05
10 *449:20 *747:12 0
11 *449:20 *749:8 0
12 *449:20 *752:14 0
13 *449:20 *752:20 0
14 *449:20 *1142:90 0
15 *2672:C *449:20 0
16 *2672:D *449:20 0
17 *2747:B *449:20 4.78521e-05
18 *2747:A *449:20 8.01983e-05
19 *381:20 *449:20 0
20 *446:12 *449:12 0
*RES
1 *2734:Y *449:12 43.9861 
2 *449:12 *449:20 31.5875 
3 *449:20 *2747:C 20 
*END

*D_NET *450 0.00343301
*CONN
*I *2742:C I *D sg13cmos5l_and4_1
*I *2737:C I *D sg13cmos5l_nor4_1
*I *2738:C I *D sg13cmos5l_nand4_1
*I *2743:C I *D sg13cmos5l_nor4_1
*I *2735:Y O *D sg13cmos5l_xnor2_1
*CAP
1 *2742:C 0
2 *2737:C 0
3 *2738:C 0
4 *2743:C 0
5 *2735:Y 0.000218659
6 *450:31 0.000119241
7 *450:23 0.000304345
8 *450:21 0.000289296
9 *450:8 0.000322851
10 *450:8 *2745:A2 0
11 *450:8 *1130:83 1.54008e-05
12 *450:8 *1150:126 0
13 *450:21 *1130:83 0.000441062
14 *450:21 *1149:70 0.00039332
15 *450:23 *2737:B 9.67074e-05
16 *450:23 *2742:B 4.78195e-05
17 *450:23 *2742:D 4.85344e-05
18 *450:23 *451:45 0.000207964
19 *450:23 *1130:75 0.000175644
20 *450:31 *2737:B 4.77425e-05
21 *450:31 *1092:16 0
22 *450:31 *1146:118 0.000394151
23 *2714:B *450:8 0
24 *2738:A *450:31 0.000181608
25 *183:54 *450:31 0.000128663
*RES
1 *2735:Y *450:8 21.9982 
2 *450:8 *2743:C 20 
3 *450:8 *450:21 42.1527 
4 *450:21 *450:23 2.0497 
5 *450:23 *450:31 42.1527 
6 *450:31 *2738:C 20 
7 *450:23 *2737:C 20 
8 *450:21 *2742:C 20 
*END

*D_NET *451 0.00534534
*CONN
*I *2742:D I *D sg13cmos5l_and4_1
*I *2743:D I *D sg13cmos5l_nor4_1
*I *2737:D I *D sg13cmos5l_nor4_1
*I *2829:B I *D sg13cmos5l_xnor2_1
*I *2738:D I *D sg13cmos5l_nand4_1
*I *2736:Y O *D sg13cmos5l_xnor2_1
*CAP
1 *2742:D 3.05812e-05
2 *2743:D 0
3 *2737:D 0
4 *2829:B 0
5 *2738:D 5.50346e-05
6 *2736:Y 0.000256091
7 *451:51 0.000118258
8 *451:45 0.000269738
9 *451:38 0.000120899
10 *451:31 0.000361551
11 *451:16 0.000545811
12 *451:12 0.000385317
13 *2738:D *2738:B 0
14 *2738:D *758:50 8.01609e-05
15 *451:12 *2735:A 0
16 *451:12 *453:8 0.000234311
17 *451:12 *733:40 0.000241809
18 *451:12 *1146:118 0
19 *451:16 *453:8 0.000341534
20 *451:16 *1146:118 0.000500629
21 *451:31 *2742:B 0
22 *451:31 *2829:A 0.000553661
23 *451:31 *758:50 0.0002574
24 *451:31 *1130:75 0
25 *451:51 *1130:83 0.000287256
26 *183:54 *451:12 0.000177032
27 *359:10 *451:31 0
28 *359:10 *451:51 0
29 *395:49 *2742:D 6.39133e-05
30 *395:49 *451:45 0.000207854
31 *450:23 *2742:D 4.85344e-05
32 *450:23 *451:45 0.000207964
*RES
1 *2736:Y *451:12 43.0282 
2 *451:12 *451:16 22.3278 
3 *451:16 *2738:D 20.5356 
4 *451:16 *451:31 44.4084 
5 *451:31 *2829:B 20 
6 *451:12 *451:38 20 
7 *451:38 *2737:D 20 
8 *451:38 *451:45 1.4008 
9 *451:45 *451:51 41.339 
10 *451:51 *2743:D 20 
11 *451:45 *2742:D 20.4275 
*END

*D_NET *452 0.00185327
*CONN
*I *2739:A I *D sg13cmos5l_nor2b_1
*I *2737:Y O *D sg13cmos5l_nor4_1
*CAP
1 *2739:A 0.00025678
2 *2737:Y 0.000271519
3 *452:8 0.000528299
4 *2739:A *2739:B_N 0
5 *2739:A *1150:126 0.000402431
6 *452:8 *1092:16 0
7 *183:54 *452:8 0.000394236
8 *384:18 *2739:A 0
*RES
1 *2737:Y *452:8 43.0694 
2 *452:8 *2739:A 42.6986 
*END

*D_NET *453 0.00206579
*CONN
*I *2739:B_N I *D sg13cmos5l_nor2b_1
*I *2738:Y O *D sg13cmos5l_nand4_1
*CAP
1 *2739:B_N 0.00018466
2 *2738:Y 0.000442576
3 *453:8 0.000627237
4 *453:8 *762:107 0
5 *453:8 *1130:66 0.00023547
6 *2739:A *2739:B_N 0
7 *384:18 *2739:B_N 0
8 *391:14 *453:8 0
9 *451:12 *453:8 0.000234311
10 *451:16 *453:8 0.000341534
*RES
1 *2738:Y *453:8 44.7998 
2 *453:8 *2739:B_N 41.6171 
*END

*D_NET *454 0.0010797
*CONN
*I *2746:A1 I *D sg13cmos5l_o21ai_1
*I *2739:Y O *D sg13cmos5l_nor2b_1
*CAP
1 *2746:A1 0.000362556
2 *2739:Y 0.000362556
3 *2746:A1 *2746:B1 0
4 *2746:A1 *2746:A2 8.01283e-05
5 *2746:A1 *1150:126 0.000274463
6 *384:18 *2746:A1 0
*RES
1 *2739:Y *2746:A1 43.914 
*END

*D_NET *455 0.0010368
*CONN
*I *2741:B I *D sg13cmos5l_nand2_1
*I *2744:B I *D sg13cmos5l_nor2_1
*I *2740:Y O *D sg13cmos5l_xnor2_1
*CAP
1 *2741:B 0
2 *2744:B 5.38503e-05
3 *2740:Y 0.000464551
4 *455:14 0.000518402
5 *2744:B *2745:B1 0
6 *455:14 *2668:A 0
7 *455:14 *2741:A 0
8 *455:14 *461:6 0
9 *395:49 *455:14 0
*RES
1 *2740:Y *455:14 24.4856 
2 *455:14 *2744:B 20.5974 
3 *455:14 *2741:B 20 
*END

*D_NET *456 0.000695337
*CONN
*I *2746:A2 I *D sg13cmos5l_o21ai_1
*I *2741:Y O *D sg13cmos5l_nand2_1
*CAP
1 *2746:A2 4.33122e-05
2 *2741:Y 7.99342e-05
3 *456:8 0.000123246
4 *2746:A2 *2746:B1 8.01283e-05
5 *456:8 *688:8 0
6 *456:8 *758:63 0.000288587
7 *2746:A1 *2746:A2 8.01283e-05
*RES
1 *2741:Y *456:8 41.339 
2 *456:8 *2746:A2 40.5356 
*END

*D_NET *457 0.000672957
*CONN
*I *2745:A1 I *D sg13cmos5l_o21ai_1
*I *2742:X O *D sg13cmos5l_and4_1
*CAP
1 *2745:A1 0.000148137
2 *2742:X 0.000148137
3 *2745:A1 *2745:A2 0.000144925
4 *395:49 *2745:A1 0.000231758
*RES
1 *2742:X *2745:A1 41.751 
*END

*D_NET *458 0.000885404
*CONN
*I *2745:A2 I *D sg13cmos5l_o21ai_1
*I *2743:Y O *D sg13cmos5l_nor4_1
*CAP
1 *2745:A2 0.000290128
2 *2743:Y 0.000290128
3 *2745:A2 *2745:B1 1.54556e-05
4 *2745:A2 *733:40 0.000144768
5 *2745:A2 *1150:126 0
6 *2745:A1 *2745:A2 0.000144925
7 *450:8 *2745:A2 0
*RES
1 *2743:Y *2745:A2 42.9664 
*END

*D_NET *459 0.000585061
*CONN
*I *2745:B1 I *D sg13cmos5l_o21ai_1
*I *2744:Y O *D sg13cmos5l_nor2_1
*CAP
1 *2745:B1 0.000212168
2 *2744:Y 0.000212168
3 *2745:B1 *2746:B1 0.000145268
4 *2744:B *2745:B1 0
5 *2745:A2 *2745:B1 1.54556e-05
6 *395:49 *2745:B1 0
*RES
1 *2744:Y *2745:B1 42.2145 
*END

*D_NET *460 0.000834939
*CONN
*I *2746:B1 I *D sg13cmos5l_o21ai_1
*I *2745:Y O *D sg13cmos5l_o21ai_1
*CAP
1 *2746:B1 0.000304771
2 *2745:Y 0.000304771
3 *2746:B1 *2741:A 0
4 *2746:B1 *1150:126 0
5 *2745:B1 *2746:B1 0.000145268
6 *2746:A1 *2746:B1 0
7 *2746:A2 *2746:B1 8.01283e-05
8 *395:49 *2746:B1 0
*RES
1 *2745:Y *2746:B1 43.4608 
*END

*D_NET *461 0.0051865
*CONN
*I *2747:D I *D sg13cmos5l_nand4_1
*I *2746:Y O *D sg13cmos5l_o21ai_1
*CAP
1 *2747:D 0
2 *2746:Y 0.00103153
3 *461:12 7.52338e-05
4 *461:6 0.00110677
5 *461:6 *2668:A 0.000144877
6 *461:6 *752:20 0.00117544
7 *461:6 *1142:75 0
8 *461:6 *1142:90 0.00111062
9 *461:12 *1079:22 0
10 *2669:B *461:6 0.000306975
11 *427:24 *461:12 0.000235055
12 *455:14 *461:6 0
*RES
1 *2746:Y *461:6 31.3506 
2 *461:6 *461:12 41.0918 
3 *461:12 *2747:D 20 
*END

*D_NET *462 0.00373505
*CONN
*I *2748:A I *D sg13cmos5l_buf_4
*I *2747:Y O *D sg13cmos5l_nand4_1
*CAP
1 *2748:A 0.000663769
2 *2747:Y 0.000480174
3 *462:12 0.00114394
4 *2748:A *2883:A 0.000530564
5 *2748:A *2883:B 0
6 *2748:A *744:12 0.000209154
7 *2748:A *1079:22 0
8 *462:12 *739:59 0
9 *462:12 *1126:87 0
10 *2672:D *462:12 0
11 *2740:B *2748:A 0.000563512
12 *2747:A *462:12 0.000111591
13 *395:6 *2748:A 3.23417e-05
*RES
1 *2747:Y *462:12 44.3569 
2 *462:12 *2748:A 47.2203 
*END

*D_NET *463 0.00826689
*CONN
*I *2877:B I *D sg13cmos5l_nand4_1
*I *2749:A I *D sg13cmos5l_buf_16
*I *2902:B I *D sg13cmos5l_nand4_1
*I *2888:B I *D sg13cmos5l_nand4_1
*I *2748:X O *D sg13cmos5l_buf_4
*CAP
1 *2877:B 0.000174002
2 *2749:A 4.9078e-05
3 *2902:B 0.000720322
4 *2888:B 0
5 *2748:X 0.000246977
6 *463:33 0.00161115
7 *463:29 0.00115139
8 *463:22 0.000388331
9 *463:12 0.000523969
10 *463:10 0.000246977
11 *2749:A *585:6 0
12 *2877:B *2877:C 4.79124e-05
13 *2877:B *2877:D 0
14 *2877:B *2888:D 0
15 *2877:B *1154:128 0.000306887
16 *2902:B *2901:A1 0
17 *2902:B *2902:C 0.000271915
18 *2902:B *2902:A 0.000274769
19 *2902:B *483:39 0
20 *2902:B *487:73 0
21 *2902:B *584:8 0
22 *463:10 *749:12 0.000499799
23 *463:10 *1122:87 0
24 *463:22 *2876:A1 0
25 *463:22 *2888:D 0
26 *463:22 *3137:D 4.77153e-05
27 *463:22 *573:8 0.00023464
28 *463:22 *1117:131 0.000234224
29 *463:22 *1154:128 0.00040217
30 *463:22 *1155:53 1.54008e-05
31 *463:29 *2876:A1 0
32 *463:29 *3137:D 0.000129607
33 *463:29 *1154:128 0.000241639
34 *463:33 *2885:A1 0
35 *463:33 *483:39 0
36 *463:33 *487:73 0
37 *463:33 *752:12 0
38 *463:33 *1117:131 0
39 *463:33 *1122:87 0.000448012
40 *161:10 *463:33 0
41 *177:18 *2902:B 0
*RES
1 *2748:X *463:10 43.0797 
2 *463:10 *463:12 20 
3 *463:12 *463:22 44.326 
4 *463:22 *2888:B 20 
5 *463:12 *463:29 1.6171 
6 *463:29 *463:33 29.991 
7 *463:33 *2902:B 48.6417 
8 *463:33 *2749:A 40.5356 
9 *463:29 *2877:B 22.0497 
*END

*D_NET *464 0.0131803
*CONN
*I *3238:A I *D sg13cmos5l_buf_1
*I *2861:B I *D sg13cmos5l_nand4_1
*I *2868:B I *D sg13cmos5l_nand4_1
*I *2749:X O *D sg13cmos5l_buf_16
*CAP
1 *3238:A 0
2 *2861:B 0.000533427
3 *2868:B 0.000641104
4 *2749:X 0.000595627
5 *464:22 0.00195823
6 *464:18 0.00174466
7 *464:10 0.00155659
8 *2861:B *2861:C 4.25589e-06
9 *2861:B *2861:D 0
10 *2861:B *550:8 0.000181694
11 *2861:B *556:10 0
12 *2861:B *757:86 8.00842e-05
13 *2861:B *1154:83 0
14 *2868:B *2868:C 0.000177109
15 *2868:B *556:10 0
16 *2868:B *559:18 7.55443e-05
17 *2868:B *560:8 0
18 *2868:B *762:59 0
19 *2868:B *1130:20 0
20 *2868:B *1154:61 0.000530612
21 *2868:B *1155:32 0
22 *464:10 *2884:A 0
23 *464:10 *487:52 0.00027331
24 *464:10 *487:73 0.000208576
25 *464:10 *574:8 0
26 *464:10 *1143:107 0
27 *464:10 *1144:16 0
28 *464:18 *2814:B1 4.35073e-05
29 *464:18 *3423:A 0.00017634
30 *464:18 *487:52 0
31 *464:18 *517:12 4.76053e-05
32 *464:18 *693:38 0.000448209
33 *464:18 *1113:8 0
34 *464:18 *1118:137 0.000181279
35 *464:18 *1123:66 0.000273432
36 *464:18 *1126:72 0
37 *464:18 *1130:10 0
38 *464:18 *1144:16 0
39 *464:22 *2694:B 0.00117709
40 *464:22 *1113:14 0
41 *2884:B *464:10 0
42 *3111:D *464:10 0
43 *3129:D *464:22 0.000337353
44 *209:45 *2861:B 0.00116887
45 *209:45 *2868:B 0.00076579
*RES
1 *2749:X *464:10 25.9637 
2 *464:10 *464:18 49.476 
3 *464:18 *464:22 27.8898 
4 *464:22 *2868:B 47.7662 
5 *464:22 *2861:B 46.695 
6 *464:10 *3238:A 20 
*END

*D_NET *465 0.0106557
*CONN
*I *3248:A I *D sg13cmos5l_buf_1
*I *2914:A2 I *D sg13cmos5l_o21ai_1
*I *2909:A2 I *D sg13cmos5l_o21ai_1
*I *2751:X O *D sg13cmos5l_buf_1
*CAP
1 *3248:A 0.000213989
2 *2914:A2 0.0003234
3 *2909:A2 2.5661e-05
4 *2751:X 0.000784317
5 *465:30 0.000601174
6 *465:26 0.00147942
7 *465:18 0.00148885
8 *465:10 0.00125985
9 *2909:A2 *2909:B1 4.77866e-05
10 *2909:A2 *2909:A1 4.77866e-05
11 *2914:A2 *2914:B1 4.77425e-05
12 *2914:A2 *756:52 0.000342364
13 *2914:A2 *995:39 1.54008e-05
14 *2914:A2 *1155:72 0
15 *3248:A *595:14 4.77425e-05
16 *3248:A *734:75 0.000234224
17 *3248:A *1115:108 0
18 *3248:A *1124:10 0.000128247
19 *3248:A *1124:34 0
20 *465:10 *1115:8 0
21 *465:10 *1143:43 0.00156103
22 *465:18 *734:75 4.78524e-05
23 *465:18 *1126:93 0.000241308
24 *465:26 *2772:A 8.01776e-05
25 *465:26 *2907:A 0
26 *465:26 *3239:A 0.000546823
27 *465:26 *482:24 0
28 *465:26 *664:403 0
29 *465:26 *664:407 0
30 *465:26 *753:18 0
31 *465:26 *753:28 0
32 *465:26 *1126:93 0
33 *465:30 *591:10 0.000128663
34 *465:30 *1155:59 0
35 *2903:S *3248:A 4.77425e-05
36 *2903:S *465:26 0
37 *29:16 *2914:A2 0
38 *29:16 *465:30 0
39 *378:22 *465:10 0
40 *379:12 *465:26 0.000531458
41 *379:24 *3248:A 0.000106064
42 *379:24 *465:10 0.000181192
43 *379:24 *465:18 0
44 *379:24 *465:26 1.54008e-05
45 *380:25 *465:18 8.00842e-05
46 *380:25 *465:26 0
*RES
1 *2751:X *465:10 48.8271 
2 *465:10 *465:18 42.4617 
3 *465:18 *465:26 32.0201 
4 *465:26 *465:30 22.3278 
5 *465:30 *2909:A2 40.3193 
6 *465:30 *2914:A2 43.3887 
7 *465:10 *3248:A 42.8222 
*END

*D_NET *466 0.00359914
*CONN
*I *2848:A1 I *D sg13cmos5l_a21oi_1
*I *2843:A1 I *D sg13cmos5l_a21oi_1
*I *3245:A I *D sg13cmos5l_buf_1
*I *2752:X O *D sg13cmos5l_buf_1
*CAP
1 *2848:A1 0.000490243
2 *2843:A1 0
3 *3245:A 0.000111542
4 *2752:X 0.00043565
5 *466:23 0.000845578
6 *466:10 0.000466878
7 *466:8 0.00043565
8 *2848:A1 *2843:A2 0
9 *2848:A1 *2848:B1 0
10 *2848:A1 *758:110 0
11 *2848:A1 *1124:52 0
12 *3245:A *3105:D 0
13 *3245:A *1121:28 1.54008e-05
14 *466:8 *2780:A 0
15 *466:8 *1061:10 0
16 *466:8 *1124:62 0.000235055
17 *466:8 *1147:30 0
18 *466:23 *1121:28 0.000225896
19 *466:23 *1124:62 0
20 *466:23 *1153:48 0
21 *3420:A *2848:A1 0.000337244
22 *3420:A *466:23 0
*RES
1 *2752:X *466:8 44.0582 
2 *466:8 *466:10 20 
3 *466:10 *3245:A 21.0141 
4 *466:10 *466:23 3.914 
5 *466:23 *2843:A1 20 
6 *466:23 *2848:A1 24.944 
*END

*D_NET *467 0.0100122
*CONN
*I *2845:A I *D sg13cmos5l_nor2_1
*I *2840:A I *D sg13cmos5l_nor2_1
*I *3240:A I *D sg13cmos5l_buf_1
*I *2753:X O *D sg13cmos5l_buf_1
*CAP
1 *2845:A 0
2 *2840:A 0
3 *3240:A 0
4 *2753:X 0.000575518
5 *467:44 0.00111035
6 *467:23 0.0021234
7 *467:12 0.00104853
8 *467:8 0.000611004
9 *467:8 *489:8 0
10 *467:8 *491:8 0.000129077
11 *467:8 *1114:30 0
12 *467:8 *1148:126 0
13 *467:12 *760:21 0
14 *467:23 *760:21 0
15 *467:23 *760:29 0
16 *467:23 *1116:8 0
17 *467:23 *1116:80 0.000287256
18 *467:23 *1116:86 0.00124723
19 *467:23 *1116:101 0.000181608
20 *467:23 *1120:67 0
21 *467:23 *1121:32 0.00199026
22 *467:23 *1121:38 0
23 *467:44 *2800:B 2.21754e-05
24 *467:44 *2802:A2 0.000306964
25 *467:44 *2845:B 1.54008e-05
26 *467:44 *2846:B 0
27 *467:44 *3424:A 0
28 *467:44 *538:12 0
29 *467:44 *664:25 0
30 *467:44 *740:14 0
31 *467:44 *740:27 0
32 *467:44 *763:20 0
33 *467:44 *1120:67 0
34 *467:44 *1121:32 0.000235556
35 *467:44 *1153:46 0
36 *2681:B *467:12 0
37 *2681:B *467:23 0
38 *2839:B *467:44 0.000127827
39 *395:61 *467:23 0
*RES
1 *2753:X *467:8 45.2942 
2 *467:8 *467:12 20.3193 
3 *467:12 *3240:A 20 
4 *467:12 *467:23 33.7711 
5 *467:23 *2840:A 40 
6 *467:23 *467:44 31.124 
7 *467:44 *2845:A 20 
*END

*D_NET *468 0.000603017
*CONN
*I *2755:B I *D sg13cmos5l_xnor2_1
*I *2754:Y O *D sg13cmos5l_nor2_1
*CAP
1 *2755:B 0.000301509
2 *2754:Y 0.000301509
3 *2755:B *1120:67 0
4 *2755:B *1153:60 0
5 *2754:B *2755:B 0
6 *3109:D *2755:B 0
*RES
1 *2754:Y *2755:B 42.8119 
*END

*D_NET *469 0.000578925
*CONN
*I *2758:A2 I *D sg13cmos5l_a21oi_1
*I *2755:Y O *D sg13cmos5l_xnor2_1
*CAP
1 *2758:A2 0.000289462
2 *2755:Y 0.000289462
3 *2758:A2 *2757:B1 0
4 *2758:A2 *2757:A2 0
5 *2758:A2 *2758:A1 0
6 *2758:A2 *1120:67 0
*RES
1 *2755:Y *2758:A2 42.3999 
*END

*D_NET *470 0.00648266
*CONN
*I *2915:A1 I *D sg13cmos5l_a21oi_1
*I *3244:A I *D sg13cmos5l_buf_1
*I *2910:A1 I *D sg13cmos5l_a21oi_1
*I *2756:X O *D sg13cmos5l_buf_1
*CAP
1 *2915:A1 0
2 *3244:A 0.000886178
3 *2910:A1 0.000428019
4 *2756:X 0.000624404
5 *470:37 0.00125163
6 *470:14 0.00141788
7 *2910:A1 *2908:A 0
8 *2910:A1 *2910:A2 0.0001597
9 *2910:A1 *3149:RESET_B 0
10 *2910:A1 *3149:D 0
11 *2910:A1 *901:16 0
12 *2910:A1 *995:39 0.00012816
13 *3244:A *2905:B 0.000177399
14 *3244:A *2914:B1 0
15 *3244:A *2915:A2 0.000242017
16 *3244:A *2915:B1 0.000274403
17 *3244:A *756:20 0
18 *3244:A *756:26 0.000177164
19 *3244:A *1155:80 0
20 *470:14 *2909:A1 0
21 *470:14 *2910:B1 0
22 *470:14 *2913:B 0.000144201
23 *470:14 *595:30 0.000176113
24 *470:14 *995:39 0
25 *470:14 *1155:80 0
26 *470:37 *749:56 0
27 *470:37 *973:16 0
28 *470:37 *995:39 0.000395396
29 *26:10 *2910:A1 0
30 *29:16 *2910:A1 0
31 *29:16 *470:37 0
*RES
1 *2756:X *470:14 46.0323 
2 *470:14 *2910:A1 44.4496 
3 *470:14 *470:37 23.5638 
4 *470:37 *3244:A 29.1567 
5 *470:37 *2915:A1 20 
*END

*D_NET *471 0.000615615
*CONN
*I *2758:B1 I *D sg13cmos5l_a21oi_1
*I *2757:Y O *D sg13cmos5l_o21ai_1
*CAP
1 *2758:B1 0.000267736
2 *2757:Y 0.000267736
3 *2758:B1 *2757:B1 8.01424e-05
4 *2758:B1 *2758:A1 0
*RES
1 *2757:Y *2758:B1 42.8428 
*END

*D_NET *472 0.00166661
*CONN
*I *2760:B I *D sg13cmos5l_xnor2_1
*I *2759:Y O *D sg13cmos5l_nor2_1
*CAP
1 *2760:B 3.23787e-05
2 *2759:Y 0.000460271
3 *472:10 0.000492649
4 *2760:B *2760:A 4.78192e-05
5 *2760:B *1156:31 0
6 *472:10 *673:18 0.000111595
7 *472:10 *1077:8 0.00023464
8 *472:10 *1082:8 0.000287256
9 *219:12 *472:10 0
*RES
1 *2759:Y *472:10 44.7483 
2 *472:10 *2760:B 40.3193 
*END

*D_NET *473 0.00246059
*CONN
*I *2762:A2 I *D sg13cmos5l_a21oi_1
*I *2760:Y O *D sg13cmos5l_xnor2_1
*CAP
1 *2762:A2 0.000508938
2 *2760:Y 0.00030757
3 *473:10 0.000816508
4 *2762:A2 *2770:A1 0
5 *2762:A2 *757:31 0.000177345
6 *473:10 *3095:RESET_B 0
7 *473:10 *479:14 0.00039332
8 *473:10 *707:20 0.000129078
9 *473:10 *1156:31 0
10 *3095:D *2762:A2 1.54008e-05
11 *209:29 *2762:A2 0.000112426
*RES
1 *2760:Y *473:10 43.4505 
2 *473:10 *2762:A2 44.5938 
*END

*D_NET *474 0.00172164
*CONN
*I *2762:B1 I *D sg13cmos5l_a21oi_1
*I *2761:Y O *D sg13cmos5l_o21ai_1
*CAP
1 *2762:B1 0
2 *2761:Y 0.000233003
3 *474:10 0.000233003
4 *474:10 *2761:B1 0.000339317
5 *474:10 *2783:B1 0.000288502
6 *474:10 *707:28 0.000339317
7 *474:10 *757:14 0.000288502
*RES
1 *2761:Y *474:10 43.605 
2 *474:10 *2762:B1 40 
*END

*D_NET *475 0.00140316
*CONN
*I *2764:B I *D sg13cmos5l_xnor2_1
*I *2763:Y O *D sg13cmos5l_nor2b_1
*CAP
1 *2764:B 0
2 *2763:Y 0.000296587
3 *475:8 0.000296587
4 *475:8 *757:14 0.000394151
5 *475:8 *1116:40 0.000340704
6 *475:8 *1147:20 0
7 *475:8 *1148:8 0
8 *475:8 *1151:43 7.51285e-05
*RES
1 *2763:Y *475:8 43.811 
2 *475:8 *2764:B 40 
*END

*D_NET *476 0.00193301
*CONN
*I *2766:A2 I *D sg13cmos5l_a21oi_1
*I *2764:Y O *D sg13cmos5l_xnor2_1
*CAP
1 *2766:A2 4.37077e-05
2 *2764:Y 0.000313425
3 *476:12 0.000357133
4 *2766:A2 *2378:A 8.00842e-05
5 *2766:A2 *1121:67 8.00842e-05
6 *476:12 *2765:A2 0
7 *476:12 *1151:39 0.00011159
8 *152:8 *476:12 0.000659726
9 *330:12 *476:12 0.000287256
*RES
1 *2764:Y *476:12 44.1406 
2 *476:12 *2766:A2 40.5356 
*END

*D_NET *477 9.45957e-05
*CONN
*I *2766:B1 I *D sg13cmos5l_a21oi_1
*I *2765:Y O *D sg13cmos5l_o21ai_1
*CAP
1 *2766:B1 4.72978e-05
2 *2765:Y 4.72978e-05
3 *2766:B1 *1130:46 0
*RES
1 *2765:Y *2766:B1 40.5974 
*END

*D_NET *478 0.00729264
*CONN
*I *2768:B I *D sg13cmos5l_xnor2_1
*I *2767:Y O *D sg13cmos5l_nor2b_1
*CAP
1 *2768:B 0
2 *2767:Y 0
3 *478:12 0.000724017
4 *478:6 0.000724017
5 *478:12 *2768:A 0.000208151
6 *478:12 *732:31 0.000370013
7 *478:12 *987:36 0.0026383
8 *208:25 *478:12 0
9 *219:12 *478:12 0.00262814
*RES
1 *2767:Y *478:6 40 
2 *478:6 *478:12 34.6981 
3 *478:12 *2768:B 20 
*END

*D_NET *479 0.00256954
*CONN
*I *2770:A2 I *D sg13cmos5l_a21oi_1
*I *2768:Y O *D sg13cmos5l_xnor2_1
*CAP
1 *2770:A2 1.52875e-05
2 *2768:Y 0.00082354
3 *479:14 0.000838828
4 *479:14 *707:20 0
5 *479:14 *732:31 0.000498566
6 *479:14 *1125:27 0
7 *479:14 *1156:31 0
8 *3095:D *2770:A2 0
9 *473:10 *479:14 0.00039332
*RES
1 *2768:Y *479:14 47.8512 
2 *479:14 *2770:A2 40.1262 
*END

*D_NET *480 0.000126638
*CONN
*I *2770:B1 I *D sg13cmos5l_a21oi_1
*I *2769:Y O *D sg13cmos5l_o21ai_1
*CAP
1 *2770:B1 0
2 *2769:Y 6.33191e-05
3 *480:8 6.33191e-05
4 *480:8 *790:10 0
*RES
1 *2769:Y *480:8 40.5974 
2 *480:8 *2770:B1 40 
*END

*D_NET *481 0.00600689
*CONN
*I *2778:B2 I *D sg13cmos5l_a22oi_1
*I *2776:A2 I *D sg13cmos5l_a21oi_1
*I *2771:X O *D sg13cmos5l_and2_1
*CAP
1 *2778:B2 0
2 *2776:A2 0
3 *2771:X 0.000317497
4 *481:31 0.00048577
5 *481:16 0.000679282
6 *481:8 0.00148255
7 *481:8 *2771:B 0.00011236
8 *481:8 *1146:12 0
9 *481:16 *2778:B1 0
10 *481:16 *2779:C 0.00103178
11 *481:16 *484:10 0
12 *481:16 *1118:78 8.00842e-05
13 *481:16 *1118:89 1.54008e-05
14 *481:31 *2778:A2 4.77425e-05
15 *481:31 *2778:A1 0
16 *481:31 *2789:A1 0
17 *481:31 *498:10 7.52158e-05
18 *481:31 *890:12 0.000871854
19 *481:31 *1145:10 0
20 *481:31 *1146:12 0
21 *3101:D *481:31 8.00842e-05
22 *354:43 *481:16 0.000181192
23 *354:49 *481:16 0.000401904
24 *358:29 *481:16 0.000144181
*RES
1 *2771:X *481:8 22.8325 
2 *481:8 *481:16 48.2091 
3 *481:16 *2776:A2 20 
4 *481:8 *481:31 45.9946 
5 *481:31 *2778:B2 20 
*END

*D_NET *482 0.00488526
*CONN
*I *2912:A I *D sg13cmos5l_nor2_1
*I *2907:A I *D sg13cmos5l_nor2_1
*I *3239:A I *D sg13cmos5l_buf_1
*I *2772:X O *D sg13cmos5l_buf_1
*CAP
1 *2912:A 0.000182762
2 *2907:A 0.000328502
3 *3239:A 0.000877577
4 *2772:X 0.0012404
5 *482:24 0.00087409
6 *2907:A *2909:A1 0
7 *2907:A *901:16 0.000176586
8 *2912:A *2909:A1 0.000112558
9 *2912:A *595:30 1.51e-05
10 *3239:A *2360:A 8.0216e-05
11 *3239:A *2664:B 3.23472e-05
12 *3239:A *739:104 0.000112642
13 *3239:A *753:28 0
14 *482:24 *595:30 0
15 *482:24 *753:18 0.000305653
16 *2903:S *3239:A 0
17 *185:16 *3239:A 0
18 *378:12 *3239:A 0
19 *379:24 *3239:A 0
20 *465:26 *2907:A 0
21 *465:26 *3239:A 0.000546823
22 *465:26 *482:24 0
*RES
1 *2772:X *3239:A 47.9104 
2 *2772:X *482:24 24.0685 
3 *482:24 *2907:A 23.7595 
4 *482:24 *2912:A 21.7819 
*END

*D_NET *483 0.015626
*CONN
*I *3247:A I *D sg13cmos5l_buf_1
*I *2887:B1 I *D sg13cmos5l_a21o_1
*I *2901:B1 I *D sg13cmos5l_a21o_1
*I *2773:X O *D sg13cmos5l_buf_1
*CAP
1 *3247:A 0
2 *2887:B1 0
3 *2901:B1 0.000101089
4 *2773:X 0.000299593
5 *483:39 0.00105314
6 *483:22 0.00566947
7 *483:18 0.00462724
8 *483:12 0.000290429
9 *483:8 0.000478031
10 *2901:B1 *2901:A1 1.54556e-05
11 *2901:B1 *2902:D 0
12 *2901:B1 *586:8 0
13 *2901:B1 *587:8 0
14 *483:8 *522:10 0
15 *483:8 *1130:53 0.000977502
16 *483:8 *1145:45 0
17 *483:8 *1146:118 0.000446352
18 *483:12 *1145:45 0.000208195
19 *483:22 *2833:C 0
20 *483:22 *2867:B2 0.00011253
21 *483:22 *2867:A2 8.00842e-05
22 *483:22 *2902:C 0
23 *483:22 *2902:D 0
24 *483:22 *499:10 0
25 *483:22 *556:14 4.77425e-05
26 *483:22 *558:8 0.000240196
27 *483:22 *762:59 0
28 *483:22 *762:63 0
29 *483:22 *762:71 8.00842e-05
30 *483:22 *836:10 0
31 *483:22 *1113:22 0
32 *483:22 *1154:29 4.79124e-05
33 *483:22 *1154:46 4.78521e-05
34 *483:22 *1154:61 0
35 *483:39 *2877:D 0
36 *483:39 *2887:A2 0
37 *483:39 *2887:A1 1.54556e-05
38 *483:39 *2900:A 0
39 *483:39 *587:8 0
40 *483:39 *752:12 0
41 *483:39 *752:65 0
42 *483:39 *875:10 0.000501217
43 *2712:A2 *483:22 0.000211199
44 *2792:B *483:22 0
45 *2902:B *483:39 0
46 *177:18 *2901:B1 7.52149e-05
47 *177:18 *483:39 0
48 *209:45 *483:22 0
49 *410:50 *483:22 0
50 *411:14 *483:22 0
51 *463:33 *483:39 0
*RES
1 *2773:X *483:8 44.5526 
2 *483:8 *483:12 21.4008 
3 *483:12 *483:18 41.0918 
4 *483:18 *483:22 47.3568 
5 *483:22 *2901:B1 41.1639 
6 *483:22 *483:39 31.5463 
7 *483:39 *2887:B1 20 
8 *483:12 *3247:A 20 
*END

*D_NET *484 0.0040719
*CONN
*I *2775:D I *D sg13cmos5l_nor4_1
*I *2778:B1 I *D sg13cmos5l_a22oi_1
*I *2774:Y O *D sg13cmos5l_xnor2_1
*CAP
1 *2775:D 0.000274884
2 *2778:B1 0.000267332
3 *2774:Y 0.000255926
4 *484:10 0.000798141
5 *2775:D *485:10 0.000111117
6 *2775:D *485:22 0.000181035
7 *2775:D *1117:49 0
8 *2775:D *1123:134 4.77425e-05
9 *2775:D *1145:22 1.62936e-05
10 *2775:D *1146:87 0
11 *2778:B1 *485:10 0
12 *2778:B1 *890:12 0.000924643
13 *2778:B1 *1145:10 0
14 *484:10 *485:10 0
15 *484:10 *1117:49 0.00024122
16 *484:10 *1126:39 0.00024122
17 *484:10 *1145:10 0
18 *156:8 *2778:B1 0.000712343
19 *481:16 *2778:B1 0
20 *481:16 *484:10 0
*RES
1 *2774:Y *484:10 42.9561 
2 *484:10 *2778:B1 44.7998 
3 *484:10 *2775:D 42.9355 
*END

*D_NET *485 0.00242902
*CONN
*I *2776:B1 I *D sg13cmos5l_a21oi_1
*I *2775:Y O *D sg13cmos5l_nor4_1
*CAP
1 *2776:B1 0
2 *2775:Y 0.000133509
3 *485:22 0.000304654
4 *485:10 0.000438162
5 *485:10 *1145:10 0.00012816
6 *485:10 *1146:87 0
7 *485:22 *3267:A 0.000605949
8 *485:22 *487:10 0.000446352
9 *485:22 *495:10 0
10 *485:22 *1145:22 8.00842e-05
11 *2775:D *485:10 0.000111117
12 *2775:D *485:22 0.000181035
13 *2778:B1 *485:10 0
14 *484:10 *485:10 0
*RES
1 *2775:Y *485:10 41.3493 
2 *485:10 *485:22 44.4599 
3 *485:22 *2776:B1 40 
*END

*D_NET *486 0.00491621
*CONN
*I *2779:C I *D sg13cmos5l_nand4_1
*I *2776:Y O *D sg13cmos5l_a21oi_1
*CAP
1 *2779:C 0.000650771
2 *2776:Y 0.000318247
3 *486:8 0.000969018
4 *2779:C *2779:D 9.5551e-05
5 *2779:C *3268:A 0.00145686
6 *2779:C *499:26 0
7 *2779:C *1113:52 0
8 *2779:C *1113:58 0.000123139
9 *2779:C *1113:82 0
10 *2779:C *1146:8 0
11 *486:8 *1118:61 0
12 *486:8 *1118:78 1.54008e-05
13 *354:43 *486:8 7.92096e-05
14 *358:29 *486:8 0.000176235
15 *481:16 *2779:C 0.00103178
*RES
1 *2776:Y *486:8 42.6986 
2 *486:8 *2779:C 49.9292 
*END

*D_NET *487 0.0165825
*CONN
*I *2897:B I *D sg13cmos5l_nand2_1
*I *2883:B I *D sg13cmos5l_nand2_1
*I *3246:A I *D sg13cmos5l_buf_1
*I *2777:X O *D sg13cmos5l_buf_1
*CAP
1 *2897:B 0
2 *2883:B 9.09319e-05
3 *3246:A 0
4 *2777:X 0.000423994
5 *487:73 0.000521628
6 *487:58 0.000721991
7 *487:52 0.00398995
8 *487:28 0.00293083
9 *487:10 0.000330434
10 *2883:B *3137:CLK 0.000144899
11 *487:10 *2790:B1 0.000128247
12 *487:10 *3267:A 0
13 *487:10 *495:10 0.000636798
14 *487:28 *1092:16 0
15 *487:28 *1115:37 0
16 *487:28 *1145:45 0
17 *487:52 *2814:A2 0
18 *487:52 *2814:B1 4.36018e-05
19 *487:52 *2865:A 6.10305e-05
20 *487:52 *517:12 4.78141e-05
21 *487:52 *559:10 0
22 *487:52 *757:86 1.54008e-05
23 *487:52 *762:49 0
24 *487:52 *1073:33 0.000148205
25 *487:52 *1073:41 0
26 *487:52 *1117:85 0
27 *487:52 *1118:137 0.000338322
28 *487:52 *1123:51 0.000262616
29 *487:52 *1123:66 9.70075e-05
30 *487:52 *1154:94 0
31 *487:52 *1154:111 0
32 *487:58 *2874:A1 0
33 *487:58 *1117:131 0
34 *487:58 *1155:49 0
35 *487:73 *1142:104 0
36 *2748:A *2883:B 0
37 *2865:C *487:52 0
38 *2902:B *487:73 0
39 *3127:D *487:52 0
40 *161:10 *487:73 0.000128662
41 *174:8 *487:58 0.00049947
42 *352:30 *487:10 0.000209533
43 *352:32 *487:52 0
44 *352:32 *487:73 0
45 *358:43 *487:10 0.000209533
46 *358:43 *487:28 7.53209e-05
47 *358:43 *487:52 4.68848e-05
48 *358:47 *487:52 0.000402244
49 *358:58 *487:52 0.00069482
50 *358:69 *487:52 0.000273304
51 *358:84 *487:52 1.54008e-05
52 *359:10 *487:52 4.76296e-05
53 *359:60 *487:52 0.000129767
54 *411:14 *487:58 0.0010327
55 *411:41 *487:58 0.000955318
56 *463:33 *487:73 0
57 *464:10 *487:52 0.00027331
58 *464:10 *487:73 0.000208576
59 *464:18 *487:52 0
60 *485:22 *487:10 0.000446352
*RES
1 *2777:X *487:10 44.9646 
2 *487:10 *3246:A 40 
3 *2777:X *487:28 41.133 
4 *487:28 *487:52 47.4284 
5 *487:52 *487:58 49.2494 
6 *487:58 *2883:B 20.9682 
7 *487:52 *487:73 45.7062 
8 *487:73 *2897:B 20 
*END

*D_NET *488 0.000708822
*CONN
*I *2779:D I *D sg13cmos5l_nand4_1
*I *2778:Y O *D sg13cmos5l_a22oi_1
*CAP
1 *2779:D 0.000234131
2 *2778:Y 0.000234131
3 *2779:D *499:26 0
4 *2779:D *1136:32 0.000145009
5 *2779:C *2779:D 9.5551e-05
*RES
1 *2778:Y *2779:D 42.5338 
*END

*D_NET *489 0.00202786
*CONN
*I *2781:B I *D sg13cmos5l_nor2_1
*I *2780:Y O *D sg13cmos5l_xnor2_1
*CAP
1 *2781:B 0.000128451
2 *2780:Y 0.000278149
3 *489:8 0.0004066
4 *2781:B *2781:A 0
5 *2781:B *490:10 7.88655e-05
6 *2781:B *760:29 0.000208747
7 *2781:B *1072:23 0
8 *489:8 *1114:30 0
9 *489:8 *1148:126 0.000927047
10 *397:33 *489:8 0
11 *467:8 *489:8 0
*RES
1 *2780:Y *489:8 44.3054 
2 *489:8 *2781:B 41.4008 
*END

*D_NET *490 0.00144451
*CONN
*I *2782:B I *D sg13cmos5l_xnor2_1
*I *2781:Y O *D sg13cmos5l_nor2_1
*CAP
1 *2782:B 0.000104864
2 *2781:Y 0.000134509
3 *490:10 0.000239373
4 *2782:B *2782:A 9.58138e-05
5 *2782:B *1119:46 0
6 *490:10 *1147:30 0.000396105
7 *490:10 *1148:126 0.000394981
8 *2781:B *490:10 7.88655e-05
*RES
1 *2781:Y *490:10 42.369 
2 *490:10 *2782:B 40.9682 
*END

*D_NET *491 0.000606044
*CONN
*I *2784:A2 I *D sg13cmos5l_a21oi_1
*I *2782:Y O *D sg13cmos5l_xnor2_1
*CAP
1 *2784:A2 3.8034e-05
2 *2782:Y 0.000192749
3 *491:8 0.000230783
4 *2784:A2 *1121:38 1.54008e-05
5 *2784:A2 *1156:31 0
6 *491:8 *1114:30 0
7 *491:8 *1148:126 0
8 *467:8 *491:8 0.000129077
*RES
1 *2782:Y *491:8 42.0806 
2 *491:8 *2784:A2 40.3193 
*END

*D_NET *492 0.000393837
*CONN
*I *2784:B1 I *D sg13cmos5l_a21oi_1
*I *2783:Y O *D sg13cmos5l_o21ai_1
*CAP
1 *2784:B1 0.000196918
2 *2783:Y 0.000196918
3 *2784:B1 *3099:RESET_B 0
4 *2784:B1 *757:8 0
5 *209:29 *2784:B1 0
*RES
1 *2783:Y *2784:B1 41.751 
*END

*D_NET *493 0.00336837
*CONN
*I *2790:B2 I *D sg13cmos5l_a22oi_1
*I *2789:A2 I *D sg13cmos5l_a21oi_1
*I *2785:X O *D sg13cmos5l_and2_1
*CAP
1 *2790:B2 8.66278e-05
2 *2789:A2 0.000160697
3 *2785:X 0.000513646
4 *493:12 0.000760971
5 *2789:A2 *2789:A1 1.54556e-05
6 *2789:A2 *766:16 0.000181192
7 *2789:A2 *1113:46 0.000144576
8 *2789:A2 *1130:36 0
9 *2790:B2 *2790:A1 0
10 *2790:B2 *498:10 4.78524e-05
11 *2790:B2 *1113:46 0
12 *493:12 *496:8 0
13 *493:12 *766:16 0.000159511
14 *493:12 *766:39 0.00113743
15 *493:12 *1117:49 8.02063e-05
16 *493:12 *1145:22 8.02063e-05
*RES
1 *2785:X *493:12 46.8907 
2 *493:12 *2789:A2 41.8128 
3 *493:12 *2790:B2 40.7519 
*END

*D_NET *494 0.000715999
*CONN
*I *2787:B I *D sg13cmos5l_xnor2_1
*I *2786:Y O *D sg13cmos5l_xnor2_1
*CAP
1 *2787:B 0
2 *2786:Y 0.000358
3 *494:10 0.000358
4 *494:10 *758:87 0
5 *494:10 *1081:20 0
6 *494:10 *1150:94 0
7 *384:18 *494:10 0
*RES
1 *2786:Y *494:10 42.9561 
2 *494:10 *2787:B 40 
*END

*D_NET *495 0.00914585
*CONN
*I *2788:D I *D sg13cmos5l_nor4_1
*I *2790:B1 I *D sg13cmos5l_a22oi_1
*I *2787:Y O *D sg13cmos5l_xnor2_1
*CAP
1 *2788:D 0.000142114
2 *2790:B1 0.000381323
3 *2787:Y 0.000345458
4 *495:10 0.00161334
5 *495:8 0.00143536
6 *2788:D *2775:B 0.000176432
7 *2788:D *1146:97 7.9586e-05
8 *2790:B1 *3267:A 0
9 *2790:B1 *766:39 0.000181694
10 *2790:B1 *1122:104 0.000711927
11 *495:10 *2852:A1 0.000288087
12 *495:10 *3267:A 0
13 *495:10 *760:46 0
14 *495:10 *760:59 0
15 *495:10 *766:39 0.00161522
16 *495:10 *1118:89 0.000605447
17 *495:10 *1122:10 0
18 *2714:A *495:8 0.00024127
19 *183:54 *495:8 0.000563551
20 *395:49 *495:8 0
21 *485:22 *495:10 0
22 *487:10 *2790:B1 0.000128247
23 *487:10 *495:10 0.000636798
*RES
1 *2787:Y *495:8 43.7801 
2 *495:8 *495:10 13.9462 
3 *495:10 *2790:B1 44.7277 
4 *495:10 *2788:D 41.4008 
*END

*D_NET *496 0.0023143
*CONN
*I *2789:B1 I *D sg13cmos5l_a21oi_1
*I *2788:Y O *D sg13cmos5l_nor4_1
*CAP
1 *2789:B1 0.000130716
2 *2788:Y 0.000605466
3 *496:8 0.000736182
4 *2789:B1 *2789:A1 0
5 *2789:B1 *1130:36 0.000209506
6 *2789:B1 *1154:16 0.000237772
7 *496:8 *1092:16 0
8 *496:8 *1154:16 0.000394653
9 *496:8 *1155:10 0
10 *496:8 *1155:16 0
11 *493:12 *496:8 0
*RES
1 *2788:Y *496:8 46.0358 
2 *496:8 *2789:B1 41.5888 
*END

*D_NET *497 0.000851556
*CONN
*I *2791:C I *D sg13cmos5l_nand4_1
*I *2789:Y O *D sg13cmos5l_a21oi_1
*CAP
1 *2791:C 3.02592e-05
2 *2789:Y 0.000195905
3 *497:14 0.000226164
4 *2791:C *2791:D 4.77425e-05
5 *2791:C *1113:46 1.54008e-05
6 *2791:C *1113:52 4.77425e-05
7 *497:14 *2789:A1 0
8 *497:14 *890:12 0.000128247
9 *497:14 *1113:46 4.76924e-05
10 *497:14 *1130:36 0
11 *497:14 *1154:16 0.000112404
*RES
1 *2789:Y *497:14 42.2351 
2 *497:14 *2791:C 40.3193 
*END

*D_NET *498 0.00102158
*CONN
*I *2791:D I *D sg13cmos5l_nand4_1
*I *2790:Y O *D sg13cmos5l_a22oi_1
*CAP
1 *2791:D 4.76786e-05
2 *2790:Y 0.000337666
3 *498:10 0.000385345
4 *2791:D *1113:46 0
5 *2791:D *1136:32 8.00842e-05
6 *498:10 *2778:A2 0
7 *498:10 *2778:A1 0
8 *498:10 *2790:A1 0
9 *498:10 *1113:46 0
10 *2790:B2 *498:10 4.78524e-05
11 *2791:C *2791:D 4.77425e-05
12 *481:31 *498:10 7.52158e-05
*RES
1 *2790:Y *498:10 42.9252 
2 *498:10 *2791:D 40.5356 
*END

*D_NET *499 0.0178911
*CONN
*I *2793:B I *D sg13cmos5l_xnor2_1
*I *2792:Y O *D sg13cmos5l_xnor2_1
*CAP
1 *2793:B 4.87423e-05
2 *2792:Y 0.000332936
3 *499:26 0.00347286
4 *499:20 0.00365505
5 *499:14 0.00205498
6 *499:10 0.00215698
7 *2793:B *3103:CLK 0
8 *2793:B *1148:28 1.54008e-05
9 *2793:B *1148:41 6.48152e-05
10 *499:10 *1130:20 0
11 *499:14 *766:12 0.00302737
12 *499:14 *1130:20 0
13 *499:14 *1155:16 0.00131231
14 *499:14 *1155:34 0
15 *499:20 *522:10 0.000606694
16 *499:20 *1092:16 0
17 *499:26 *2750:B 0
18 *499:26 *2778:A1 0.000177164
19 *499:26 *2790:A1 0.000112558
20 *499:26 *762:18 0
21 *499:26 *876:44 0
22 *499:26 *876:59 0
23 *499:26 *1113:46 0
24 *499:26 *1151:114 0
25 *499:26 *1154:29 1.54008e-05
26 *2643:A *499:26 0
27 *2712:A2 *499:10 7.9947e-05
28 *2712:A1 *499:10 0
29 *2712:B1 *499:10 0.000176274
30 *2779:C *499:26 0
31 *2779:D *499:26 0
32 *149:14 *499:26 0
33 *353:10 *499:26 0.000234726
34 *358:10 *499:26 0.000111716
35 *427:10 *499:10 0.000235141
36 *483:22 *499:10 0
*RES
1 *2792:Y *499:10 44.0067 
2 *499:10 *499:14 40.2189 
3 *499:14 *499:20 43.3166 
4 *499:20 *499:26 42.0523 
5 *499:26 *2793:B 40.5356 
*END

*D_NET *500 0.00237114
*CONN
*I *2794:B I *D sg13cmos5l_nor2_1
*I *2793:Y O *D sg13cmos5l_xnor2_1
*CAP
1 *2794:B 0
2 *2793:Y 0.000539499
3 *500:10 0.000539499
4 *500:10 *3103:CLK 0.000208074
5 *500:10 *881:8 0
6 *500:10 *987:36 0
7 *500:10 *1125:12 0
8 *500:10 *1148:28 0
9 *219:12 *500:10 0.00108407
*RES
1 *2793:Y *500:10 46.4478 
2 *500:10 *2794:B 40 
*END

*D_NET *501 0.000898745
*CONN
*I *2795:B I *D sg13cmos5l_xnor2_1
*I *2794:Y O *D sg13cmos5l_nor2_1
*CAP
1 *2795:B 3.4413e-05
2 *2794:Y 0.000183761
3 *501:8 0.000218175
4 *2795:B *2795:A 1.54556e-05
5 *2795:B *876:28 0
6 *501:8 *881:8 0.00044694
7 *219:12 *501:8 0
8 *293:6 *2795:B 0
*RES
1 *2794:Y *501:8 42.0806 
2 *501:8 *2795:B 40.3193 
*END

*D_NET *502 0.000492854
*CONN
*I *2797:A2 I *D sg13cmos5l_a21oi_1
*I *2795:Y O *D sg13cmos5l_xnor2_1
*CAP
1 *2797:A2 0.000238705
2 *2795:Y 0.000238705
3 *2797:A2 *2596:C 0
4 *2797:A2 *765:27 0
5 *2797:A2 *876:28 0
6 *2797:A2 *1121:67 1.54446e-05
7 *2638:B_N *2797:A2 0
8 *293:6 *2797:A2 0
*RES
1 *2795:Y *2797:A2 42.2145 
*END

*D_NET *503 0.0010591
*CONN
*I *2797:B1 I *D sg13cmos5l_a21oi_1
*I *2796:Y O *D sg13cmos5l_o21ai_1
*CAP
1 *2797:B1 0
2 *2796:Y 0.000199477
3 *503:8 0.000199477
4 *503:8 *1103:20 0
5 *503:8 *1125:12 0.000660142
*RES
1 *2796:Y *503:8 43.0694 
2 *503:8 *2797:B1 40 
*END

*D_NET *504 0.00756328
*CONN
*I *2799:B I *D sg13cmos5l_nor2_1
*I *2798:Y O *D sg13cmos5l_xnor2_1
*CAP
1 *2799:B 0
2 *2798:Y 0.000174283
3 *504:16 0.0022207
4 *504:10 0.00239499
5 *504:10 *758:102 0.000606376
6 *504:10 *1119:57 0.000605863
7 *504:16 *734:27 0.000433819
8 *504:16 *734:42 0.00104785
9 *397:44 *504:10 7.94055e-05
*RES
1 *2798:Y *504:10 43.3578 
2 *504:10 *504:16 35.1616 
3 *504:16 *2799:B 20 
*END

*D_NET *505 0.00232592
*CONN
*I *2800:B I *D sg13cmos5l_xnor2_1
*I *2799:Y O *D sg13cmos5l_nor2_1
*CAP
1 *2800:B 0.000225234
2 *2799:Y 0.000346416
3 *505:8 0.00057165
4 *2800:B *2802:A2 0
5 *2800:B *1153:48 0
6 *505:8 *732:37 0
7 *505:8 *758:110 0
8 *505:8 *1121:28 7.52158e-05
9 *505:8 *1121:32 0.00108523
10 *3413:A *2800:B 0
11 *467:44 *2800:B 2.21754e-05
*RES
1 *2799:Y *505:8 45.2942 
2 *505:8 *2800:B 42.1836 
*END

*D_NET *506 0.000825889
*CONN
*I *2802:A2 I *D sg13cmos5l_a21oi_1
*I *2800:Y O *D sg13cmos5l_xnor2_1
*CAP
1 *2802:A2 0.000235586
2 *2800:Y 0.000235586
3 *2802:A2 *2802:A1 4.77534e-05
4 *2800:B *2802:A2 0
5 *467:44 *2802:A2 0.000306964
*RES
1 *2800:Y *2802:A2 42.3999 
*END

*D_NET *507 0.000424619
*CONN
*I *2802:B1 I *D sg13cmos5l_a21oi_1
*I *2801:Y O *D sg13cmos5l_o21ai_1
*CAP
1 *2802:B1 0.00021231
2 *2801:Y 0.00021231
3 *2802:B1 *2802:A1 0
4 *2802:B1 *1120:67 0
5 *2802:B1 *1153:48 0
6 *3413:A *2802:B1 0
*RES
1 *2801:Y *2802:B1 41.9982 
*END

*D_NET *508 0.000490527
*CONN
*I *2804:B I *D sg13cmos5l_nor2_1
*I *2803:Y O *D sg13cmos5l_xnor2_1
*CAP
1 *2804:B 0.00020565
2 *2803:Y 0.00020565
3 *2804:B *1092:32 7.92265e-05
4 *183:12 *2804:B 0
*RES
1 *2803:Y *2804:B 41.854 
*END

*D_NET *509 0.000830418
*CONN
*I *2805:B I *D sg13cmos5l_xnor2_1
*I *2804:Y O *D sg13cmos5l_nor2_1
*CAP
1 *2805:B 0.000190503
2 *2804:Y 0.000190503
3 *2805:B *2804:A 0.000305011
4 *2805:B *2805:A 0.000144401
5 *2805:B *1092:32 0
*RES
1 *2804:Y *2805:B 42.0497 
*END

*D_NET *510 0.000617176
*CONN
*I *2807:A2 I *D sg13cmos5l_a21oi_1
*I *2805:Y O *D sg13cmos5l_xnor2_1
*CAP
1 *2807:A2 0.000236799
2 *2805:Y 0.000236799
3 *2807:A2 *2804:A 0
4 *2807:A2 *2807:A1 0
5 *3107:D *2807:A2 0.000143577
6 *384:24 *2807:A2 0
*RES
1 *2805:Y *2807:A2 42.3484 
*END

*D_NET *511 0.00028914
*CONN
*I *2807:B1 I *D sg13cmos5l_a21oi_1
*I *2806:Y O *D sg13cmos5l_o21ai_1
*CAP
1 *2807:B1 0
2 *2806:Y 5.37232e-05
3 *511:8 5.37232e-05
4 *511:8 *732:37 0.000181694
5 *511:8 *1121:32 0
*RES
1 *2806:Y *511:8 40.8446 
2 *511:8 *2807:B1 40 
*END

*D_NET *512 0.000849812
*CONN
*I *2809:A0 I *D sg13cmos5l_mux2_1
*I *2808:X O *D sg13cmos5l_xor2_1
*CAP
1 *2809:A0 0
2 *2808:X 0.000109593
3 *512:10 0.000109593
4 *512:10 *1119:25 0.000235142
5 *187:14 *512:10 0.000395483
6 *331:24 *512:10 0
*RES
1 *2808:X *512:10 42.1527 
2 *512:10 *2809:A0 40 
*END

*D_NET *513 0.000439509
*CONN
*I *2810:A1 I *D sg13cmos5l_mux2_1
*I *2809:X O *D sg13cmos5l_mux2_1
*CAP
1 *2810:A1 0.000219755
2 *2809:X 0.000219755
3 *2810:A1 *514:10 0
4 *2810:A1 *664:51 0
5 *2810:A1 *734:27 0
*RES
1 *2809:X *2810:A1 42.0497 
*END

*D_NET *514 0.00290605
*CONN
*I *2811:B I *D sg13cmos5l_and2_1
*I *2810:X O *D sg13cmos5l_mux2_1
*CAP
1 *2811:B 4.54667e-05
2 *2810:X 0.000822533
3 *514:10 0.000868
4 *2811:B *2811:A 4.77425e-05
5 *514:10 *2630:A 0.000660226
6 *514:10 *664:72 0
7 *514:10 *734:27 0.000306794
8 *514:10 *1152:68 7.51285e-05
9 *2810:A1 *514:10 0
10 *331:24 *2811:B 8.01609e-05
*RES
1 *2810:X *514:10 49.0434 
2 *514:10 *2811:B 40.5356 
*END

*D_NET *515 0.00425524
*CONN
*I *2815:B2 I *D sg13cmos5l_a22oi_1
*I *2814:A2 I *D sg13cmos5l_a21oi_1
*I *2812:X O *D sg13cmos5l_and2_1
*CAP
1 *2815:B2 0
2 *2814:A2 0.0005676
3 *2812:X 0.000441472
4 *515:10 0.00100907
5 *2814:A2 *1113:122 0
6 *2814:A2 *1118:137 1.54556e-05
7 *2814:A2 *1143:14 0.000553247
8 *2814:A2 *1154:111 0.000305598
9 *515:10 *2812:A 0
10 *515:10 *809:10 0.00027267
11 *515:10 *1073:14 0
12 *515:10 *1122:72 1.54008e-05
13 *515:10 *1126:87 0
14 *515:10 *1143:14 0.000340288
15 *2813:D *2814:A2 0.000394151
16 *2813:D *515:10 0.000106064
17 *381:20 *515:10 0.000234224
18 *410:33 *2814:A2 0
19 *487:52 *2814:A2 0
*RES
1 *2812:X *515:10 44.9337 
2 *515:10 *2814:A2 46.6023 
3 *515:10 *2815:B2 40 
*END

*D_NET *516 0.00161785
*CONN
*I *2814:B1 I *D sg13cmos5l_a21oi_1
*I *2813:Y O *D sg13cmos5l_nor4_1
*CAP
1 *2814:B1 2.33213e-05
2 *2813:Y 0.000410747
3 *516:12 0.000434068
4 *516:12 *2816:C 0.000143171
5 *516:12 *739:12 0.000499799
6 *516:12 *1073:56 1.9636e-05
7 *516:12 *1123:66 0
8 *464:18 *2814:B1 4.35073e-05
9 *487:52 *2814:B1 4.36018e-05
*RES
1 *2813:Y *516:12 44.2642 
2 *516:12 *2814:B1 40.291 
*END

*D_NET *517 0.00241885
*CONN
*I *2816:C I *D sg13cmos5l_nand4_1
*I *2814:Y O *D sg13cmos5l_a21oi_1
*CAP
1 *2816:C 0.000311938
2 *2814:Y 0.000311447
3 *517:12 0.000623385
4 *2816:C *2816:B 0.000176274
5 *2816:C *2816:D 1.54449e-05
6 *2816:C *1073:56 0.000401486
7 *2816:C *1123:66 0
8 *410:33 *2816:C 0
9 *427:18 *517:12 0.000340288
10 *464:18 *517:12 4.76053e-05
11 *487:52 *517:12 4.78141e-05
12 *516:12 *2816:C 0.000143171
*RES
1 *2814:Y *517:12 43.2136 
2 *517:12 *2816:C 43.3475 
*END

*D_NET *518 0.00128796
*CONN
*I *2816:D I *D sg13cmos5l_nand4_1
*I *2815:Y O *D sg13cmos5l_a22oi_1
*CAP
1 *2816:D 3.58878e-05
2 *2815:Y 0.000405818
3 *518:14 0.000441706
4 *518:14 *2888:D 4.77425e-05
5 *518:14 *1117:108 0
6 *518:14 *1117:131 0.000181192
7 *518:14 *1122:87 0.000112426
8 *518:14 *1155:49 0
9 *518:14 *1155:59 0
10 *2815:B1 *518:14 4.77425e-05
11 *2816:C *2816:D 1.54449e-05
12 *2884:B *2816:D 0
13 *410:33 *2816:D 0
*RES
1 *2815:Y *518:14 44.0273 
2 *518:14 *2816:D 40.3193 
*END

*D_NET *519 0.0029688
*CONN
*I *2818:B I *D sg13cmos5l_xnor2_1
*I *2817:X O *D sg13cmos5l_or2_1
*CAP
1 *2818:B 0
2 *2817:X 0.00113805
3 *519:10 0.00113805
4 *519:10 *2694:B 0
5 *519:10 *2694:A 0
6 *519:10 *2707:A 0
7 *519:10 *2819:A0 0
8 *519:10 *745:22 0.000208758
9 *519:10 *1148:51 0
10 *519:10 *1148:90 0
11 *2710:B2 *519:10 0
12 *352:32 *519:10 0
13 *424:16 *519:10 0.000483941
*RES
1 *2817:X *519:10 30.5987 
2 *519:10 *2818:B 20 
*END

*D_NET *520 0.000972102
*CONN
*I *2819:A0 I *D sg13cmos5l_mux2_1
*I *2818:Y O *D sg13cmos5l_xnor2_1
*CAP
1 *2819:A0 0.000486051
2 *2818:Y 0.000486051
3 *2819:A0 *2694:B 0
4 *2819:A0 *2819:S 0
5 *2819:A0 *1078:12 0
6 *2819:A0 *1126:16 0
7 *2819:A0 *1148:51 0
8 *519:10 *2819:A0 0
*RES
1 *2818:Y *2819:A0 44.1612 
*END

*D_NET *521 0.00298476
*CONN
*I *2821:A2 I *D sg13cmos5l_o21ai_1
*I *2819:X O *D sg13cmos5l_mux2_1
*CAP
1 *2821:A2 7.65913e-05
2 *2819:X 0.00100589
3 *521:12 0.00108248
4 *2821:A2 *2821:B1 0
5 *2821:A2 *2821:A1 1.54556e-05
6 *2821:A2 *1130:20 0
7 *2821:A2 *1155:16 0
8 *521:12 *2694:B 0
9 *521:12 *523:10 0
10 *521:12 *818:10 0
11 *521:12 *1145:62 0
12 *3113:D *521:12 0.000144611
13 *162:12 *521:12 0
14 *164:8 *521:12 0.000659727
*RES
1 *2819:X *521:12 48.6829 
2 *521:12 *2821:A2 40.7519 
*END

*D_NET *522 0.00349355
*CONN
*I *2821:B1 I *D sg13cmos5l_o21ai_1
*I *2820:Y O *D sg13cmos5l_nand2b_1
*CAP
1 *2821:B1 0.000380183
2 *2820:Y 0.000448086
3 *522:10 0.000828269
4 *2821:B1 *2821:A1 0
5 *2821:B1 *523:10 0.000209856
6 *2821:B1 *1130:20 0
7 *2821:B1 *1130:36 0
8 *2821:B1 *1155:16 0.000598997
9 *522:10 *523:10 0
10 *522:10 *1092:16 0
11 *522:10 *1122:27 8.02595e-05
12 *522:10 *1130:36 0
13 *522:10 *1130:53 0
14 *522:10 *1145:45 0.000341204
15 *522:10 *1146:97 0
16 *2821:A2 *2821:B1 0
17 *483:8 *522:10 0
18 *499:20 *522:10 0.000606694
*RES
1 *2820:Y *522:10 46.077 
2 *522:10 *2821:B1 44.5938 
*END

*D_NET *523 0.000782756
*CONN
*I *2822:C I *D sg13cmos5l_nand3_1
*I *2821:Y O *D sg13cmos5l_o21ai_1
*CAP
1 *2822:C 0
2 *2821:Y 0.000275402
3 *523:10 0.000275402
4 *523:10 *2821:A1 0
5 *523:10 *1130:20 0
6 *523:10 *1130:53 0
7 *523:10 *1154:46 2.20966e-05
8 *2821:B1 *523:10 0.000209856
9 *521:12 *523:10 0
10 *522:10 *523:10 0
*RES
1 *2821:Y *523:10 42.987 
2 *523:10 *2822:C 40 
*END

*D_NET *524 0.000940885
*CONN
*I *2824:B I *D sg13cmos5l_xnor2_1
*I *2823:X O *D sg13cmos5l_xor2_1
*CAP
1 *2824:B 0.000138528
2 *2823:X 0.000227541
3 *524:8 0.000366069
4 *2824:B *737:26 0.000208747
5 *524:8 *760:65 0
6 *524:8 *1131:20 0
7 *2824:A *2824:B 0
*RES
1 *2823:X *524:8 41.8334 
2 *524:8 *2824:B 41.4008 
*END

*D_NET *525 0.000835755
*CONN
*I *2825:A0 I *D sg13cmos5l_mux2_1
*I *2824:Y O *D sg13cmos5l_xnor2_1
*CAP
1 *2825:A0 0
2 *2824:Y 0.000201386
3 *525:10 0.000201386
4 *525:10 *737:26 0.000208692
5 *525:10 *1119:76 0.000208834
6 *525:10 *1119:97 1.54556e-05
*RES
1 *2824:Y *525:10 41.9982 
2 *525:10 *2825:A0 40 
*END

*D_NET *526 0.000567297
*CONN
*I *2826:A1 I *D sg13cmos5l_mux2_1
*I *2825:X O *D sg13cmos5l_mux2_1
*CAP
1 *2826:A1 7.9039e-05
2 *2825:X 0.000172926
3 *526:10 0.000251965
4 *2826:A1 *2826:A0 1.54556e-05
5 *2826:A1 *3237:A 4.79124e-05
6 *526:10 *741:92 0
7 *526:10 *766:39 0
8 *2661:A *2826:A1 0
9 *2661:B *2826:A1 0
*RES
1 *2825:X *526:10 41.6892 
2 *526:10 *2826:A1 40.8858 
*END

*D_NET *527 0.00082382
*CONN
*I *2827:B I *D sg13cmos5l_and2_1
*I *2826:X O *D sg13cmos5l_mux2_1
*CAP
1 *2827:B 0.000202951
2 *2826:X 0.000202951
3 *2827:B *3237:A 0
4 *2827:B *774:25 0.000176605
5 *2827:B *780:8 0.000241313
6 *2661:A *2827:B 0
*RES
1 *2826:X *2827:B 42.2145 
*END

*D_NET *528 0.00159766
*CONN
*I *2831:A2 I *D sg13cmos5l_a21oi_1
*I *2832:B2 I *D sg13cmos5l_a22oi_1
*I *2828:X O *D sg13cmos5l_and2_1
*CAP
1 *2831:A2 0.000143579
2 *2832:B2 0.000297615
3 *2828:X 0.00012547
4 *528:8 0.000566664
5 *2831:A2 *2830:B 0.000224817
6 *2831:A2 *2831:B1 0
7 *2831:A2 *1115:43 1.54556e-05
8 *2831:A2 *1118:101 0.000176236
9 *2832:B2 *2830:C 0
10 *2832:B2 *531:16 0
11 *2832:B2 *532:10 4.78192e-05
12 *2832:B2 *1122:27 0
13 *2832:B2 *1123:110 0
14 *528:8 *1118:101 0
*RES
1 *2828:X *528:8 41.0918 
2 *528:8 *2832:B2 42.369 
3 *528:8 *2831:A2 41.6171 
*END

*D_NET *529 0.00350926
*CONN
*I *2830:D I *D sg13cmos5l_nor4_1
*I *2832:B1 I *D sg13cmos5l_a22oi_1
*I *2829:Y O *D sg13cmos5l_xnor2_1
*CAP
1 *2830:D 0.00010231
2 *2832:B1 0.000134771
3 *2829:Y 0.000414248
4 *529:8 0.00065133
5 *2830:D *2830:B 0
6 *2830:D *532:10 0
7 *2830:D *1117:49 0
8 *2830:D *1123:110 0
9 *2832:B1 *2830:C 0
10 *2832:B1 *532:10 9.63868e-05
11 *2832:B1 *1122:53 0.00023464
12 *2832:B1 *1145:62 8.00842e-05
13 *529:8 *762:96 0
14 *529:8 *1122:53 0.00140217
15 *359:60 *529:8 0.00039332
*RES
1 *2829:Y *529:8 46.5302 
2 *529:8 *2832:B1 41.7355 
3 *529:8 *2830:D 40.9682 
*END

*D_NET *530 0.00060384
*CONN
*I *2831:B1 I *D sg13cmos5l_a21oi_1
*I *2830:Y O *D sg13cmos5l_nor4_1
*CAP
1 *2831:B1 0.00021384
2 *2830:Y 0.00021384
3 *2831:B1 *531:16 0.00017616
4 *2831:B1 *1118:101 0
5 *2831:A2 *2831:B1 0
*RES
1 *2830:Y *2831:B1 41.9673 
*END

*D_NET *531 0.00352242
*CONN
*I *2833:C I *D sg13cmos5l_nand4_1
*I *2831:Y O *D sg13cmos5l_a21oi_1
*CAP
1 *2833:C 0.000265949
2 *2831:Y 0.000572208
3 *531:16 0.000838157
4 *2833:C *1113:22 4.79124e-05
5 *2833:C *1113:24 0.000241291
6 *2833:C *1113:46 4.79124e-05
7 *2833:C *1130:20 0
8 *2833:C *1154:29 0.000145
9 *2833:C *1154:46 3.23965e-05
10 *531:16 *2775:B 0
11 *531:16 *1113:46 4.85475e-05
12 *531:16 *1115:43 2.20736e-05
13 *531:16 *1123:100 0
14 *531:16 *1123:110 0
15 *531:16 *1130:53 0.00092447
16 *531:16 *1146:97 8.02595e-05
17 *531:16 *1146:118 8.00842e-05
18 *2831:B1 *531:16 0.00017616
19 *2832:B2 *531:16 0
20 *162:12 *2833:C 0
21 *483:22 *2833:C 0
*RES
1 *2831:Y *531:16 47.1585 
2 *531:16 *2833:C 42.6986 
*END

*D_NET *532 0.00189433
*CONN
*I *2833:D I *D sg13cmos5l_nand4_1
*I *2832:Y O *D sg13cmos5l_a22oi_1
*CAP
1 *2833:D 0
2 *2832:Y 0.000577281
3 *532:10 0.000577281
4 *532:10 *2821:A1 0
5 *532:10 *3264:A 0.000499886
6 *532:10 *1122:36 0
7 *532:10 *1123:110 1.54556e-05
8 *532:10 *1142:8 0
9 *532:10 *1145:62 8.0216e-05
10 *2830:D *532:10 0
11 *2832:B1 *532:10 9.63868e-05
12 *2832:B2 *532:10 4.78192e-05
13 *164:8 *532:10 0
*RES
1 *2832:Y *532:10 45.8298 
2 *532:10 *2833:D 40 
*END

*D_NET *533 0.00227052
*CONN
*I *2837:B2 I *D sg13cmos5l_a22oi_1
*I *2836:A2 I *D sg13cmos5l_a21oi_1
*I *2834:Y O *D sg13cmos5l_nor2_1
*CAP
1 *2837:B2 7.05662e-05
2 *2836:A2 0.000235822
3 *2834:Y 0.00013178
4 *533:8 0.000438168
5 *2836:A2 *2838:D 4.77425e-05
6 *2836:A2 *534:14 0
7 *2836:A2 *536:10 0.000446853
8 *2836:A2 *1118:122 4.78028e-05
9 *2836:A2 *1118:137 1.54008e-05
10 *2836:A2 *1132:106 0.00028745
11 *2837:B2 *536:10 8.00842e-05
12 *2837:B2 *1122:53 8.00842e-05
13 *2837:B2 *1122:72 4.77425e-05
14 *533:8 *536:10 7.51285e-05
15 *533:8 *1132:106 0.000265893
16 *385:10 *533:8 0
*RES
1 *2834:Y *533:8 41.5862 
2 *533:8 *2836:A2 43.2188 
3 *533:8 *2837:B2 40.7519 
*END

*D_NET *534 0.000974113
*CONN
*I *2836:B1 I *D sg13cmos5l_a21oi_1
*I *2835:Y O *D sg13cmos5l_nor4_1
*CAP
1 *2836:B1 5.86097e-05
2 *2835:Y 0.000243717
3 *534:14 0.000302326
4 *2836:B1 *745:22 0
5 *534:14 *2835:C 3.23417e-05
6 *534:14 *1118:122 0
7 *534:14 *1132:98 4.68848e-05
8 *2836:A2 *534:14 0
9 *2859:A1 *534:14 0.000290234
*RES
1 *2835:Y *534:14 42.7604 
2 *534:14 *2836:B1 40.5356 
*END

*D_NET *535 0.00060906
*CONN
*I *2838:C I *D sg13cmos5l_nand4_1
*I *2836:Y O *D sg13cmos5l_a21oi_1
*CAP
1 *2838:C 0.000216774
2 *2836:Y 0.000216774
3 *2838:C *1118:137 0.000175513
*RES
1 *2836:Y *2838:C 41.9673 
*END

*D_NET *536 0.00251062
*CONN
*I *2838:D I *D sg13cmos5l_nand4_1
*I *2837:Y O *D sg13cmos5l_a22oi_1
*CAP
1 *2838:D 0.00032205
2 *2837:Y 0.000407721
3 *536:10 0.000729771
4 *2838:D *2835:A 0.000321182
5 *2838:D *3119:D 0
6 *2838:D *1073:6 0
7 *2838:D *1073:56 0
8 *2836:A2 *2838:D 4.77425e-05
9 *2836:A2 *536:10 0.000446853
10 *2837:B1 *536:10 8.00842e-05
11 *2837:B2 *536:10 8.00842e-05
12 *533:8 *536:10 7.51285e-05
*RES
1 *2837:Y *536:10 43.0797 
2 *536:10 *2838:D 43.0797 
*END

*D_NET *537 0.000911991
*CONN
*I *2840:B I *D sg13cmos5l_nor2_1
*I *2839:Y O *D sg13cmos5l_xnor2_1
*CAP
1 *2840:B 0.000165175
2 *2839:Y 0.000165175
3 *2840:B *538:12 0.00027465
4 *397:16 *2840:B 0.000306991
*RES
1 *2839:Y *2840:B 42.0497 
*END

*D_NET *538 0.00200521
*CONN
*I *2841:B I *D sg13cmos5l_xnor2_1
*I *2840:Y O *D sg13cmos5l_nor2_1
*CAP
1 *2841:B 0
2 *2840:Y 0.000577358
3 *538:12 0.000577358
4 *538:12 *3424:A 0
5 *538:12 *1125:27 0
6 *538:12 *1153:31 0.00012816
7 *538:12 *1153:46 0.000447685
8 *2839:B *538:12 0
9 *2840:B *538:12 0.00027465
10 *397:16 *538:12 0
11 *467:44 *538:12 0
*RES
1 *2840:Y *538:12 46.4581 
2 *538:12 *2841:B 40 
*END

*D_NET *539 0.00056907
*CONN
*I *2843:A2 I *D sg13cmos5l_a21oi_1
*I *2841:Y O *D sg13cmos5l_xnor2_1
*CAP
1 *2843:A2 0.000180228
2 *2841:Y 0.000180228
3 *2843:A2 *758:110 0.000208615
4 *2848:A1 *2843:A2 0
*RES
1 *2841:Y *2843:A2 41.751 
*END

*D_NET *540 9.45957e-05
*CONN
*I *2843:B1 I *D sg13cmos5l_a21oi_1
*I *2842:Y O *D sg13cmos5l_o21ai_1
*CAP
1 *2843:B1 4.72978e-05
2 *2842:Y 4.72978e-05
3 *2843:B1 *3105:D 0
4 *3420:A *2843:B1 0
*RES
1 *2842:Y *2843:B1 40.5974 
*END

*D_NET *541 0.000578409
*CONN
*I *2845:B I *D sg13cmos5l_nor2_1
*I *2844:Y O *D sg13cmos5l_xnor2_1
*CAP
1 *2845:B 0.000281504
2 *2844:Y 0.000281504
3 *2845:B *2846:B 0
4 *2845:B *740:50 0
5 *2845:B *741:42 0
6 *2839:B *2845:B 0
7 *467:44 *2845:B 1.54008e-05
*RES
1 *2844:Y *2845:B 42.3999 
*END

*D_NET *542 0.0003884
*CONN
*I *2846:B I *D sg13cmos5l_xnor2_1
*I *2845:Y O *D sg13cmos5l_nor2_1
*CAP
1 *2846:B 0.000171071
2 *2845:Y 0.000171071
3 *2846:B *740:27 1.54008e-05
4 *2846:B *740:50 1.54008e-05
5 *2846:B *741:28 1.54556e-05
6 *2846:B *758:110 0
7 *2845:B *2846:B 0
8 *467:44 *2846:B 0
*RES
1 *2845:Y *2846:B 41.8746 
*END

*D_NET *543 0.00061293
*CONN
*I *2848:A2 I *D sg13cmos5l_a21oi_1
*I *2846:Y O *D sg13cmos5l_xnor2_1
*CAP
1 *2848:A2 0
2 *2846:Y 0.000242177
3 *543:12 0.000242177
4 *543:12 *544:10 0
5 *543:12 *674:8 0.000128576
6 *543:12 *758:110 0
7 *543:12 *1124:42 0
8 *3425:A *543:12 0
*RES
1 *2846:Y *543:12 42.3484 
2 *543:12 *2848:A2 40 
*END

*D_NET *544 0.00203502
*CONN
*I *2848:B1 I *D sg13cmos5l_a21oi_1
*I *2847:Y O *D sg13cmos5l_o21ai_1
*CAP
1 *2848:B1 6.64253e-05
2 *2847:Y 0.000380897
3 *544:10 0.000447322
4 *2848:B1 *1124:42 0
5 *544:10 *2847:B1 8.0216e-05
6 *544:10 *664:19 0
7 *544:10 *664:32 0
8 *544:10 *674:8 0
9 *2839:B *544:10 8.00842e-05
10 *2848:A1 *2848:B1 0
11 *293:29 *544:10 0.00098008
12 *543:12 *544:10 0
*RES
1 *2847:Y *544:10 45.0882 
2 *544:10 *2848:B1 40.5356 
*END

*D_NET *545 0.00299104
*CONN
*I *2852:A2 I *D sg13cmos5l_a21oi_1
*I *2853:B2 I *D sg13cmos5l_a22oi_1
*I *2849:X O *D sg13cmos5l_and2_1
*CAP
1 *2852:A2 0.000233061
2 *2853:B2 0
3 *2849:X 2.54658e-05
4 *545:12 0.00035243
5 *545:6 0.000610957
6 *2852:A2 *2852:B1 0
7 *2852:A2 *2854:C 0.00024024
8 *2852:A2 *1132:42 3.23417e-05
9 *2852:A2 *1132:57 0.00027267
10 *545:6 *2854:C 4.77425e-05
11 *545:6 *1132:42 4.78743e-05
12 *545:12 *2851:D 0.000394151
13 *545:12 *2853:B1 0.00021263
14 *545:12 *708:55 0
15 *545:12 *1132:50 0.000234224
16 *372:25 *545:12 0.000287256
*RES
1 *2849:X *545:6 20.3193 
2 *545:6 *545:12 44.5526 
3 *545:12 *2853:B2 20 
4 *545:6 *2852:A2 22.6471 
*END

*D_NET *546 0.00220727
*CONN
*I *2853:B1 I *D sg13cmos5l_a22oi_1
*I *2851:D I *D sg13cmos5l_nor4_1
*I *2850:X O *D sg13cmos5l_xor2_1
*CAP
1 *2853:B1 0.00018608
2 *2851:D 0.000333127
3 *2850:X 0.000190561
4 *546:8 0.000709768
5 *2851:D *2852:B1 4.77425e-05
6 *2851:D *708:36 0
7 *2851:D *1081:20 2.20736e-05
8 *2851:D *1086:10 4.78521e-05
9 *2853:B1 *549:12 0
10 *2853:B1 *1085:16 4.78853e-05
11 *546:8 *3435:A 1.54008e-05
12 *546:8 *758:50 0
13 *546:8 *760:46 0
14 *429:8 *2851:D 0
15 *429:8 *2853:B1 0
16 *545:12 *2851:D 0.000394151
17 *545:12 *2853:B1 0.00021263
*RES
1 *2850:X *546:8 41.4008 
2 *546:8 *2851:D 43.8265 
3 *546:8 *2853:B1 42.0085 
*END

*D_NET *547 0.00087204
*CONN
*I *2852:B1 I *D sg13cmos5l_a21oi_1
*I *2851:Y O *D sg13cmos5l_nor4_1
*CAP
1 *2852:B1 0.000260342
2 *2851:Y 0.000260342
3 *2852:B1 *2854:C 0
4 *2852:B1 *761:27 1.54008e-05
5 *2852:B1 *1115:26 0.00024047
6 *2852:B1 *1132:50 4.77425e-05
7 *2851:D *2852:B1 4.77425e-05
8 *2852:A2 *2852:B1 0
*RES
1 *2851:Y *2852:B1 42.7192 
*END

*D_NET *548 0.00218197
*CONN
*I *2854:C I *D sg13cmos5l_nand4_1
*I *2852:Y O *D sg13cmos5l_a21oi_1
*CAP
1 *2854:C 0.000600567
2 *2852:Y 0.000600567
3 *2854:C *2854:D 0.000339015
4 *2854:C *757:80 0
5 *2854:C *1081:20 0.000176731
6 *2854:C *1086:10 0
7 *2854:C *1113:82 0.000177109
8 *2852:A2 *2854:C 0.00024024
9 *2852:B1 *2854:C 0
10 *545:6 *2854:C 4.77425e-05
*RES
1 *2852:Y *2854:C 46.1388 
*END

*D_NET *549 0.000727894
*CONN
*I *3435:A I *D sg13cmos5l_dlygate4sd3_1
*I *2853:Y O *D sg13cmos5l_a22oi_1
*CAP
1 *3435:A 7.82555e-05
2 *2853:Y 0.000136265
3 *549:12 0.000214521
4 *3435:A *760:46 8.00842e-05
5 *549:12 *742:27 0
6 *549:12 *1085:16 2.21754e-05
7 *2853:B1 *549:12 0
8 *372:25 *549:12 0.000181192
9 *546:8 *3435:A 1.54008e-05
*RES
1 *2853:Y *549:12 41.5141 
2 *549:12 *3435:A 40.7519 
*END

*D_NET *550 0.00174346
*CONN
*I *2860:B2 I *D sg13cmos5l_a22oi_1
*I *2859:A2 I *D sg13cmos5l_a21oi_1
*I *2855:X O *D sg13cmos5l_and2_1
*CAP
1 *2860:B2 7.48167e-05
2 *2859:A2 0.000215672
3 *2855:X 0.000115108
4 *550:8 0.000405597
5 *2859:A2 *554:14 0.000128022
6 *2859:A2 *1123:51 0.000153148
7 *2859:A2 *1154:83 0
8 *2860:B2 *555:12 0.000229851
9 *2860:B2 *1123:51 0
10 *550:8 *757:86 0
11 *550:8 *1123:51 0
12 *550:8 *1154:83 0
13 *2859:A1 *2859:A2 3.49866e-06
14 *2861:B *550:8 0.000181694
15 *169:16 *2859:A2 0
16 *169:16 *2860:B2 0.000213787
17 *169:16 *550:8 2.22695e-05
18 *209:45 *550:8 0
*RES
1 *2855:X *550:8 41.339 
2 *550:8 *2859:A2 42.4463 
3 *550:8 *2860:B2 41.4111 
*END

*D_NET *551 0.000465821
*CONN
*I *2857:B I *D sg13cmos5l_xnor2_1
*I *2856:X O *D sg13cmos5l_xor2_1
*CAP
1 *2857:B 0.000128136
2 *2856:X 0.000128136
3 *2857:B *1118:116 0
4 *2857:B *1148:47 0.000209549
*RES
1 *2856:X *2857:B 41.4008 
*END

*D_NET *552 0.0013445
*CONN
*I *2860:B1 I *D sg13cmos5l_a22oi_1
*I *2858:D I *D sg13cmos5l_nor4_1
*I *2857:Y O *D sg13cmos5l_xnor2_1
*CAP
1 *2860:B1 0.000132404
2 *2858:D 0
3 *2857:Y 0
4 *552:12 0.000213824
5 *552:4 0.000346228
6 *2860:B1 *555:12 4.77425e-05
7 *2860:B1 *745:47 0
8 *2860:B1 *757:86 0
9 *2860:B1 *1118:116 0.000177247
10 *552:12 *553:10 1.54556e-05
11 *552:12 *745:47 0
12 *552:12 *1117:66 0
13 *552:12 *1132:87 0.000177378
14 *209:62 *552:12 0.000234224
*RES
1 *2857:Y *552:4 20 
2 *552:4 *552:12 42.2763 
3 *552:12 *2858:D 20 
4 *552:4 *2860:B1 21.4008 
*END

*D_NET *553 0.00157489
*CONN
*I *2859:B1 I *D sg13cmos5l_a21oi_1
*I *2858:Y O *D sg13cmos5l_nor4_1
*CAP
1 *2859:B1 0.000153823
2 *2858:Y 0.000202093
3 *553:10 0.000355915
4 *2859:B1 *554:14 0
5 *553:10 *745:47 0.000208845
6 *553:10 *1132:87 0
7 *553:10 *1132:98 0.000143931
8 *553:10 *1143:60 0.00012816
9 *3127:D *2859:B1 7.9407e-05
10 *169:16 *553:10 0
11 *358:96 *553:10 0.000287256
12 *552:12 *553:10 1.54556e-05
*RES
1 *2858:Y *553:10 42.7398 
2 *553:10 *2859:B1 41.5656 
*END

*D_NET *554 0.000755805
*CONN
*I *2861:C I *D sg13cmos5l_nand4_1
*I *2859:Y O *D sg13cmos5l_a21oi_1
*CAP
1 *2861:C 8.71356e-05
2 *2859:Y 0.000176589
3 *554:14 0.000263724
4 *2861:C *2861:D 1.54556e-05
5 *2861:C *1123:51 0
6 *554:14 *1123:51 8.06227e-05
7 *2859:A2 *554:14 0.000128022
8 *2859:B1 *554:14 0
9 *2861:B *2861:C 4.25589e-06
*RES
1 *2859:Y *554:14 41.7407 
2 *554:14 *2861:C 40.8858 
*END

*D_NET *555 0.000632217
*CONN
*I *2861:D I *D sg13cmos5l_nand4_1
*I *2860:Y O *D sg13cmos5l_a22oi_1
*CAP
1 *2861:D 3.44877e-05
2 *2860:Y 0.000124877
3 *555:12 0.000159364
4 *2861:D *1123:51 0
5 *555:12 *1123:51 0
6 *2860:B1 *555:12 4.77425e-05
7 *2860:B2 *555:12 0.000229851
8 *2861:B *2861:D 0
9 *2861:C *2861:D 1.54556e-05
10 *3127:D *555:12 0
11 *169:16 *555:12 2.04394e-05
*RES
1 *2860:Y *555:12 41.5141 
2 *555:12 *2861:D 40.3193 
*END

*D_NET *556 0.00341757
*CONN
*I *2867:B2 I *D sg13cmos5l_a22oi_1
*I *2866:A2 I *D sg13cmos5l_a21oi_1
*I *2862:X O *D sg13cmos5l_and2_1
*CAP
1 *2867:B2 0.000241539
2 *2866:A2 0
3 *2862:X 0.000803603
4 *556:14 0.000267473
5 *556:10 0.000829537
6 *2867:B2 *2867:A2 8.00842e-05
7 *2867:B2 *561:10 8.00842e-05
8 *2867:B2 *762:59 0
9 *556:10 *3427:A 0.000208785
10 *556:10 *559:18 0.000287672
11 *556:10 *757:86 0.000234311
12 *556:10 *1078:12 0
13 *556:10 *1123:31 0
14 *556:10 *1154:71 0
15 *2861:B *556:10 0
16 *2868:B *556:10 0
17 *209:45 *556:14 4.77699e-05
18 *352:30 *556:10 0.000176443
19 *483:22 *2867:B2 0.00011253
20 *483:22 *556:14 4.77425e-05
*RES
1 *2862:X *556:10 47.931 
2 *556:10 *556:14 20.3193 
3 *556:14 *2866:A2 20 
4 *556:14 *2867:B2 22.5029 
*END

*D_NET *557 0.0028508
*CONN
*I *2864:B I *D sg13cmos5l_xnor2_1
*I *2863:X O *D sg13cmos5l_xor2_1
*CAP
1 *2864:B 0
2 *2863:X 0.000865203
3 *557:12 0.000865203
4 *557:12 *2863:B 4.77425e-05
5 *557:12 *559:10 0
6 *557:12 *885:10 0.000499799
7 *557:12 *1123:31 0.000444691
8 *557:12 *1148:51 0
9 *557:12 *1148:59 0.00012816
*RES
1 *2863:X *557:12 48.8065 
2 *557:12 *2864:B 40 
*END

*D_NET *558 0.00364822
*CONN
*I *2865:D I *D sg13cmos5l_nor4_1
*I *2867:B1 I *D sg13cmos5l_a22oi_1
*I *2864:Y O *D sg13cmos5l_xnor2_1
*CAP
1 *2865:D 0.000693071
2 *2867:B1 0.000139893
3 *2864:Y 0.000166819
4 *558:8 0.000999784
5 *2865:D *2865:A 0
6 *2865:D *1154:71 0
7 *2867:B1 *1155:32 0
8 *558:8 *762:59 0
9 *2865:C *2865:D 3.7631e-05
10 *170:10 *2865:D 0.00065931
11 *441:43 *2865:D 0.000711511
12 *483:22 *558:8 0.000240196
*RES
1 *2864:Y *558:8 41.6171 
2 *558:8 *2867:B1 41.1639 
3 *558:8 *2865:D 48.1216 
*END

*D_NET *559 0.00459267
*CONN
*I *2866:B1 I *D sg13cmos5l_a21oi_1
*I *2865:Y O *D sg13cmos5l_nor4_1
*CAP
1 *2866:B1 0
2 *2865:Y 0.000795866
3 *559:18 0.000795528
4 *559:10 0.00159139
5 *559:10 *2707:A 0
6 *559:10 *2709:A 0
7 *559:10 *2865:A 0
8 *559:10 *1148:59 0.000500214
9 *559:10 *1154:94 0.000336945
10 *559:18 *560:8 0
11 *559:18 *885:10 0
12 *559:18 *1123:10 0.000209505
13 *2868:B *559:18 7.55443e-05
14 *487:52 *559:10 0
15 *556:10 *559:18 0.000287672
16 *557:12 *559:10 0
*RES
1 *2865:Y *559:10 48.0546 
2 *559:10 *559:18 46.7259 
3 *559:18 *2866:B1 40 
*END

*D_NET *560 0.000799193
*CONN
*I *2868:C I *D sg13cmos5l_nand4_1
*I *2866:Y O *D sg13cmos5l_a21oi_1
*CAP
1 *2868:C 0.000143641
2 *2866:Y 0.00014353
3 *560:8 0.000287171
4 *2868:C *2868:D 4.77425e-05
5 *2868:C *762:59 0
6 *560:8 *1078:12 0
7 *2868:B *2868:C 0.000177109
8 *2868:B *560:8 0
9 *559:18 *560:8 0
*RES
1 *2866:Y *560:8 41.339 
2 *560:8 *2868:C 41.4008 
*END

*D_NET *561 0.000941821
*CONN
*I *2868:D I *D sg13cmos5l_nand4_1
*I *2867:Y O *D sg13cmos5l_a22oi_1
*CAP
1 *2868:D 2.60565e-05
2 *2867:Y 0.000122637
3 *561:10 0.000148694
4 *2868:D *762:59 4.77425e-05
5 *561:10 *762:59 0
6 *561:10 *1154:71 0.00023464
7 *2867:B2 *561:10 8.00842e-05
8 *2868:C *2868:D 4.77425e-05
9 *170:10 *561:10 0.000234224
*RES
1 *2867:Y *561:10 41.8437 
2 *561:10 *2868:D 40.3193 
*END

*D_NET *562 0.00104055
*CONN
*I *2870:A1 I *D sg13cmos5l_mux2_1
*I *2869:X O *D sg13cmos5l_mux2_1
*CAP
1 *2870:A1 6.20118e-05
2 *2869:X 0.000199834
3 *562:8 0.000261845
4 *2870:A1 *2870:A0 1.54008e-05
5 *562:8 *688:54 0
6 *562:8 *746:10 0.00050146
*RES
1 *2869:X *562:8 42.3278 
2 *562:8 *2870:A1 40.5356 
*END

*D_NET *563 0.00141911
*CONN
*I *2871:B I *D sg13cmos5l_and2_1
*I *2870:X O *D sg13cmos5l_mux2_1
*CAP
1 *2871:B 0
2 *2870:X 0.000295371
3 *563:10 0.000295371
4 *563:10 *2870:A0 0
5 *563:10 *737:18 0.000234311
6 *563:10 *741:109 0.000337485
7 *563:10 *756:36 0.000144018
8 *563:10 *1071:8 0
9 *359:43 *563:10 0.000112558
10 *405:16 *563:10 0
*RES
1 *2870:X *563:10 43.3578 
2 *563:10 *2871:B 40 
*END

*D_NET *564 0.000753627
*CONN
*I *2877:C I *D sg13cmos5l_nand4_1
*I *2872:Y O *D sg13cmos5l_nand2_1
*CAP
1 *2877:C 0.000277928
2 *2872:Y 0.000277928
3 *2877:C *2872:B 0.000134458
4 *2877:C *2877:D 0
5 *2877:C *2887:A1 0
6 *2877:C *1142:119 1.54008e-05
7 *2877:C *1154:128 0
8 *2877:B *2877:C 4.79124e-05
*RES
1 *2872:Y *2877:C 42.8119 
*END

*D_NET *565 0.00225038
*CONN
*I *2874:A2 I *D sg13cmos5l_o21ai_1
*I *2875:C I *D sg13cmos5l_or3_1
*I *2873:X O *D sg13cmos5l_xor2_1
*CAP
1 *2874:A2 2.60565e-05
2 *2875:C 8.40671e-05
3 *2873:X 0.000656194
4 *565:12 0.000766318
5 *2874:A2 *2874:A1 4.77425e-05
6 *2874:A2 *995:28 4.77425e-05
7 *2875:C *2874:A1 0.00012816
8 *2875:C *573:8 0.000181192
9 *2875:C *1142:96 4.77425e-05
10 *565:12 *573:8 0.000265159
11 *565:12 *752:20 0
12 *565:12 *1155:59 0
13 *411:41 *565:12 0
14 *449:20 *565:12 0
*RES
1 *2873:X *565:12 46.4272 
2 *565:12 *2875:C 41.1639 
3 *565:12 *2874:A2 40.3193 
*END

*D_NET *566 0.00313357
*CONN
*I *2876:A1 I *D sg13cmos5l_a21o_1
*I *2874:Y O *D sg13cmos5l_o21ai_1
*CAP
1 *2876:A1 0.000525002
2 *2874:Y 0.000199396
3 *566:10 0.000724398
4 *2876:A1 *2876:A2 0.000154797
5 *2876:A1 *2877:D 0
6 *2876:A1 *2888:D 0
7 *2876:A1 *3137:D 0.000177323
8 *2876:A1 *1117:108 4.77425e-05
9 *2876:A1 *1123:89 0
10 *2876:A1 *1155:53 4.78521e-05
11 *2876:A1 *1155:59 1.54556e-05
12 *566:10 *573:8 0
13 *566:10 *1117:108 0.00034079
14 *566:10 *1142:90 0.00018261
15 *566:10 *1155:59 0.000718206
16 *463:22 *2876:A1 0
17 *463:29 *2876:A1 0
*RES
1 *2874:Y *566:10 43.6668 
2 *566:10 *2876:A1 45.0264 
*END

*D_NET *567 0.00170752
*CONN
*I *2876:A2 I *D sg13cmos5l_a21o_1
*I *2875:X O *D sg13cmos5l_or3_1
*CAP
1 *2876:A2 0.000105679
2 *2875:X 0.000253665
3 *567:10 0.000359344
4 *2876:A2 *2888:D 0
5 *567:10 *735:18 0.000273392
6 *567:10 *749:12 0.000287256
7 *567:10 *1142:104 0
8 *567:10 *1154:128 0.000273392
9 *2876:A1 *2876:A2 0.000154797
*RES
1 *2875:X *567:10 43.1724 
2 *567:10 *2876:A2 41.0351 
*END

*D_NET *568 0.000731951
*CONN
*I *2877:D I *D sg13cmos5l_nand4_1
*I *2876:X O *D sg13cmos5l_a21o_1
*CAP
1 *2877:D 0.000282496
2 *2876:X 0.000282496
3 *2877:D *2887:A2 0
4 *2877:D *2888:D 0.000166959
5 *2876:A1 *2877:D 0
6 *2877:B *2877:D 0
7 *2877:C *2877:D 0
8 *483:39 *2877:D 0
*RES
1 *2876:X *2877:D 43.0247 
*END

*D_NET *569 0.000593144
*CONN
*I *2879:B I *D sg13cmos5l_nor2_1
*I *2878:Y O *D sg13cmos5l_xnor2_1
*CAP
1 *2879:B 0.000296572
2 *2878:Y 0.000296572
3 *2879:B *2676:A 0
4 *2879:B *2878:A 0
5 *2903:S *2879:B 0
6 *2911:B *2879:B 0
*RES
1 *2878:Y *2879:B 43.2033 
*END

*D_NET *570 0.00455689
*CONN
*I *2880:B I *D sg13cmos5l_xnor2_1
*I *2879:Y O *D sg13cmos5l_nor2_1
*CAP
1 *2880:B 0.000758007
2 *2879:Y 0.000205253
3 *570:16 0.00111285
4 *570:8 0.000560096
5 *2880:B *2880:A 1.05462e-05
6 *2880:B *2882:A2 0
7 *2880:B *3361:A 0
8 *2880:B *741:134 8.00954e-05
9 *2880:B *741:143 0.000111969
10 *2880:B *746:42 0
11 *2880:B *1124:153 0
12 *570:8 *679:14 0.000500301
13 *570:16 *2911:A 0.00012816
14 *570:16 *679:8 0.000273716
15 *570:16 *741:115 0.000128663
16 *570:16 *1120:32 0.000500267
17 *570:16 *1126:103 0.000186966
18 *366:17 *570:8 0
*RES
1 *2879:Y *570:8 42.3278 
2 *570:8 *570:16 44.4393 
3 *570:16 *2880:B 47.7054 
*END

*D_NET *571 0.00017942
*CONN
*I *2882:A2 I *D sg13cmos5l_a21oi_1
*I *2880:Y O *D sg13cmos5l_xnor2_1
*CAP
1 *2882:A2 8.97101e-05
2 *2880:Y 8.97101e-05
3 *2880:B *2882:A2 0
*RES
1 *2880:Y *2882:A2 40.9167 
*END

*D_NET *572 0.000515502
*CONN
*I *2882:B1 I *D sg13cmos5l_a21oi_1
*I *2881:Y O *D sg13cmos5l_o21ai_1
*CAP
1 *2882:B1 0.000169052
2 *2881:Y 0.000169052
3 *2882:B1 *2880:A 0
4 *2882:B1 *2892:B1 0
5 *2882:B1 *1155:96 0
6 *173:10 *2882:B1 0.000177399
*RES
1 *2881:Y *2882:B1 41.6428 
*END

*D_NET *573 0.00222631
*CONN
*I *2888:C I *D sg13cmos5l_nand4_1
*I *2883:Y O *D sg13cmos5l_nand2_1
*CAP
1 *2888:C 0
2 *2883:Y 0.000340899
3 *573:8 0.000340899
4 *573:8 *1117:108 0.000340288
5 *573:8 *1142:90 0.000394981
6 *573:8 *1155:49 0.000128247
7 *2875:C *573:8 0.000181192
8 *463:22 *573:8 0.00023464
9 *565:12 *573:8 0.000265159
10 *566:10 *573:8 0
*RES
1 *2883:Y *573:8 45.047 
2 *573:8 *2888:C 40 
*END

*D_NET *574 0.00115977
*CONN
*I *2885:A2 I *D sg13cmos5l_o21ai_1
*I *2886:C I *D sg13cmos5l_or3_1
*I *2884:Y O *D sg13cmos5l_xnor2_1
*CAP
1 *2885:A2 0.000258699
2 *2886:C 0
3 *2884:Y 0.00018409
4 *574:8 0.000442789
5 *2885:A2 *2885:B1 0
6 *2885:A2 *2885:A1 0.000258788
7 *574:8 *2885:A1 1.54008e-05
8 *574:8 *749:20 0
9 *574:8 *1117:131 0
10 *574:8 *1143:107 0
11 *3111:D *574:8 0
12 *464:10 *574:8 0
*RES
1 *2884:Y *574:8 21.9982 
2 *574:8 *2886:C 20 
3 *574:8 *2885:A2 22.7192 
*END

*D_NET *575 0.00053183
*CONN
*I *2887:A1 I *D sg13cmos5l_a21o_1
*I *2885:Y O *D sg13cmos5l_o21ai_1
*CAP
1 *2887:A1 0.00021723
2 *2885:Y 0.00021723
3 *2887:A1 *2885:B1 0
4 *2887:A1 *2887:A2 8.19147e-05
5 *2887:A1 *752:65 0
6 *2877:C *2887:A1 0
7 *483:39 *2887:A1 1.54556e-05
*RES
1 *2885:Y *2887:A1 42.3484 
*END

*D_NET *576 0.000529983
*CONN
*I *2887:A2 I *D sg13cmos5l_a21o_1
*I *2886:X O *D sg13cmos5l_or3_1
*CAP
1 *2887:A2 0.000224034
2 *2886:X 0.000224034
3 *2887:A2 *2885:B1 0
4 *2887:A2 *752:65 0
5 *2877:D *2887:A2 0
6 *2887:A1 *2887:A2 8.19147e-05
7 *483:39 *2887:A2 0
*RES
1 *2886:X *2887:A2 42.06 
*END

*D_NET *577 0.00166736
*CONN
*I *2888:D I *D sg13cmos5l_nand4_1
*I *2887:X O *D sg13cmos5l_a21o_1
*CAP
1 *2888:D 0.00068622
2 *2887:X 0.00068622
3 *2888:D *2885:B1 0
4 *2888:D *1122:87 0
5 *2888:D *1123:89 8.0216e-05
6 *2888:D *1143:115 0
7 *2876:A2 *2888:D 0
8 *2876:A1 *2888:D 0
9 *2877:B *2888:D 0
10 *2877:D *2888:D 0.000166959
11 *463:22 *2888:D 0
12 *518:14 *2888:D 4.77425e-05
*RES
1 *2887:X *2888:D 46.8701 
*END

*D_NET *578 0.00182734
*CONN
*I *2890:B I *D sg13cmos5l_nor2_1
*I *2889:Y O *D sg13cmos5l_xnor2_1
*CAP
1 *2890:B 0.000137334
2 *2889:Y 0.00017424
3 *578:8 0.000311574
4 *2890:B *579:12 0.000208956
5 *2890:B *1119:113 4.77425e-05
6 *2890:B *1124:34 0
7 *578:8 *736:62 0.000606279
8 *578:8 *738:35 0.000341216
*RES
1 *2889:Y *578:8 42.8222 
2 *578:8 *2890:B 41.4008 
*END

*D_NET *579 0.00267267
*CONN
*I *2891:B I *D sg13cmos5l_xnor2_1
*I *2890:Y O *D sg13cmos5l_nor2_1
*CAP
1 *2891:B 5.59945e-05
2 *2890:Y 0.000645434
3 *579:12 0.000701428
4 *2891:B *3361:A 0
5 *2891:B *746:42 8.00842e-05
6 *579:12 *740:95 0.000340704
7 *579:12 *741:115 0
8 *579:12 *1120:32 0.000640068
9 *579:12 *1124:34 0
10 *579:12 *1124:128 0
11 *2890:B *579:12 0.000208956
*RES
1 *2890:Y *579:12 47.1688 
2 *579:12 *2891:B 40.5356 
*END

*D_NET *580 0.000753888
*CONN
*I *3361:A I *D sg13cmos5l_dlygate4sd3_1
*I *2891:Y O *D sg13cmos5l_xnor2_1
*CAP
1 *3361:A 0.000304794
2 *2891:Y 0.000304794
3 *3361:A *746:42 0
4 *2880:B *3361:A 0
5 *2891:B *3361:A 0
6 *3362:A *3361:A 0.000144299
7 *185:24 *3361:A 0
*RES
1 *2891:Y *3361:A 42.9664 
*END

*D_NET *581 9.55465e-05
*CONN
*I *2893:B1 I *D sg13cmos5l_a21oi_1
*I *2892:Y O *D sg13cmos5l_o21ai_1
*CAP
1 *2893:B1 4.77732e-05
2 *2892:Y 4.77732e-05
3 *2893:B1 *2892:B1 0
4 *2893:B1 *1005:10 0
*RES
1 *2892:Y *2893:B1 40.5974 
*END

*D_NET *582 0.000572808
*CONN
*I *2895:A1 I *D sg13cmos5l_mux2_1
*I *2894:X O *D sg13cmos5l_mux2_1
*CAP
1 *2895:A1 0
2 *2894:X 0.000246362
3 *582:10 0.000246362
4 *582:10 *2894:A1 0
5 *582:10 *751:8 0
6 *582:10 *1124:34 8.00842e-05
*RES
1 *2894:X *582:10 42.369 
2 *582:10 *2895:A1 40 
*END

*D_NET *583 0.000557693
*CONN
*I *2896:B I *D sg13cmos5l_and2_1
*I *2895:X O *D sg13cmos5l_mux2_1
*CAP
1 *2896:B 0.000238799
2 *2895:X 0.000238799
3 *2896:B *741:80 0
4 *2896:B *1120:46 0
5 *2896:B *1153:93 8.00954e-05
6 *3141:D *2896:B 0
*RES
1 *2895:X *2896:B 42.266 
*END

*D_NET *584 0.0020399
*CONN
*I *2902:C I *D sg13cmos5l_nand4_1
*I *2897:Y O *D sg13cmos5l_nand2_1
*CAP
1 *2902:C 0.000412028
2 *2897:Y 0.000469532
3 *584:8 0.00088156
4 *2902:C *2902:A 0
5 *2902:C *2902:D 4.86068e-06
6 *2902:B *2902:C 0.000271915
7 *2902:B *584:8 0
8 *411:14 *584:8 0
9 *483:22 *2902:C 0
*RES
1 *2897:Y *584:8 45.5414 
2 *584:8 *2902:C 44.3363 
*END

*D_NET *585 0.00170607
*CONN
*I *2899:A2 I *D sg13cmos5l_o21ai_1
*I *2900:C I *D sg13cmos5l_or3_1
*I *2898:X O *D sg13cmos5l_xor2_1
*CAP
1 *2899:A2 0.000168602
2 *2900:C 0.000125645
3 *2898:X 0.00044627
4 *585:6 0.000740518
5 *2899:A2 *2899:B1 8.0194e-05
6 *2900:C *2899:B1 0
7 *2900:C *2900:A 0
8 *2749:A *585:6 0
9 *2900:B *2900:C 0
10 *352:32 *2899:A2 0.000144836
11 *352:32 *585:6 0
*RES
1 *2898:X *585:6 24.6453 
2 *585:6 *2900:C 21.3184 
3 *585:6 *2899:A2 21.8128 
*END

*D_NET *586 0.00221866
*CONN
*I *2901:A1 I *D sg13cmos5l_a21o_1
*I *2899:Y O *D sg13cmos5l_o21ai_1
*CAP
1 *2901:A1 0.000148148
2 *2899:Y 0.000364799
3 *586:8 0.000512947
4 *2901:A1 *2901:A2 0.000122521
5 *2901:A1 *2902:A 0
6 *586:8 *2900:A 0.000288087
7 *586:8 *587:8 0.000766706
8 *586:8 *875:10 0
9 *2901:B1 *2901:A1 1.54556e-05
10 *2901:B1 *586:8 0
11 *2902:B *2901:A1 0
*RES
1 *2899:Y *586:8 45.5414 
2 *586:8 *2901:A1 41.6171 
*END

*D_NET *587 0.00153382
*CONN
*I *2901:A2 I *D sg13cmos5l_a21o_1
*I *2900:X O *D sg13cmos5l_or3_1
*CAP
1 *2901:A2 8.54802e-05
2 *2900:X 0.000236816
3 *587:8 0.000322296
4 *587:8 *875:10 0
5 *2901:A1 *2901:A2 0.000122521
6 *2901:B1 *587:8 0
7 *483:39 *587:8 0
8 *586:8 *587:8 0.000766706
*RES
1 *2900:X *587:8 43.5638 
2 *587:8 *2901:A2 40.8189 
*END

*D_NET *588 0.00021991
*CONN
*I *2902:D I *D sg13cmos5l_nand4_1
*I *2901:X O *D sg13cmos5l_a21o_1
*CAP
1 *2902:D 0.000107525
2 *2901:X 0.000107525
3 *2901:B1 *2902:D 0
4 *2902:C *2902:D 4.86068e-06
5 *483:22 *2902:D 0
*RES
1 *2901:X *2902:D 41.133 
*END

*D_NET *589 0.000854708
*CONN
*I *2904:A1 I *D sg13cmos5l_mux2_2
*I *2903:X O *D sg13cmos5l_mux2_1
*CAP
1 *2904:A1 0
2 *2903:X 0.000229447
3 *589:10 0.000229447
4 *589:10 *2756:A 0
5 *589:10 *595:30 0.000112749
6 *589:10 *746:42 0
7 *589:10 *753:18 0
8 *589:10 *1083:14 0
9 *589:10 *1155:96 4.78359e-05
10 *359:43 *589:10 0.000235228
*RES
1 *2903:X *589:10 42.5853 
2 *589:10 *2904:A1 40 
*END

*D_NET *590 0.00123391
*CONN
*I *2905:B I *D sg13cmos5l_and2_1
*I *2904:X O *D sg13cmos5l_mux2_2
*CAP
1 *2905:B 0.000297281
2 *2904:X 0.000103531
3 *590:10 0.000400811
4 *2905:B *2905:A 0
5 *2905:B *756:26 0
6 *2905:B *1120:14 4.74263e-05
7 *2905:B *1155:80 0
8 *2905:B *1155:96 0
9 *590:10 *746:42 3.16276e-05
10 *3244:A *2905:B 0.000177399
11 *359:43 *2905:B 0.000144583
12 *359:43 *590:10 3.12555e-05
*RES
1 *2904:X *590:10 40.8086 
2 *590:10 *2905:B 43.1518 
*END

*D_NET *591 0.000958904
*CONN
*I *2907:B I *D sg13cmos5l_nor2_1
*I *2906:X O *D sg13cmos5l_xor2_1
*CAP
1 *2907:B 0
2 *2906:X 0.00041512
3 *591:10 0.00041512
4 *591:10 *592:10 0
5 *591:10 *740:114 0
6 *591:10 *995:39 0
7 *591:10 *1155:59 0
8 *2906:B *591:10 0
9 *29:12 *591:10 0
10 *29:16 *591:10 0
11 *408:8 *591:10 0
12 *465:30 *591:10 0.000128663
*RES
1 *2906:X *591:10 44.3157 
2 *591:10 *2907:B 40 
*END

*D_NET *592 0.00103649
*CONN
*I *2908:B I *D sg13cmos5l_xnor2_1
*I *2907:Y O *D sg13cmos5l_nor2_1
*CAP
1 *2908:B 0
2 *2907:Y 0.00033451
3 *592:10 0.00033451
4 *592:10 *901:16 0
5 *592:10 *995:39 0.000287256
6 *29:12 *592:10 8.0216e-05
7 *29:16 *592:10 0
8 *591:10 *592:10 0
*RES
1 *2907:Y *592:10 43.3887 
2 *592:10 *2908:B 40 
*END

*D_NET *593 0.000967613
*CONN
*I *2910:A2 I *D sg13cmos5l_a21oi_1
*I *2908:Y O *D sg13cmos5l_xnor2_1
*CAP
1 *2910:A2 0.000304504
2 *2908:Y 0.000304504
3 *2910:A2 *2908:A 2.21754e-05
4 *2910:A2 *2910:B1 0.00017673
5 *2910:A1 *2910:A2 0.0001597
*RES
1 *2908:Y *2910:A2 42.9664 
*END

*D_NET *594 0.00153723
*CONN
*I *2910:B1 I *D sg13cmos5l_a21oi_1
*I *2909:Y O *D sg13cmos5l_o21ai_1
*CAP
1 *2910:B1 0.000381757
2 *2909:Y 0.000381757
3 *2910:B1 *2909:B1 0
4 *2910:B1 *901:16 0.000596992
5 *2910:A2 *2910:B1 0.00017673
6 *470:14 *2910:B1 0
*RES
1 *2909:Y *2910:B1 44.3466 
*END

*D_NET *595 0.00512099
*CONN
*I *2912:B I *D sg13cmos5l_nor2_1
*I *2911:Y O *D sg13cmos5l_xnor2_1
*CAP
1 *2912:B 0
2 *2911:Y 0.000405632
3 *595:30 0.00132573
4 *595:14 0.00173137
5 *595:14 *2663:A 7.55443e-05
6 *595:14 *2893:A2 0.000176317
7 *595:14 *734:75 7.92595e-05
8 *595:14 *740:95 9.06497e-05
9 *595:14 *1115:108 0.00020944
10 *595:14 *1120:32 0
11 *595:14 *1124:34 0.000241782
12 *595:30 *2756:A 0
13 *595:30 *746:42 0
14 *595:30 *753:18 0
15 *595:30 *753:28 0
16 *595:30 *1083:14 0
17 *595:30 *1120:20 0.000304989
18 *595:30 *1124:153 0
19 *595:30 *1155:96 0
20 *2903:S *595:14 0
21 *2903:S *595:30 0
22 *2912:A *595:30 1.51e-05
23 *3248:A *595:14 4.77425e-05
24 *185:16 *595:14 0.000128576
25 *470:14 *595:30 0.000176113
26 *482:24 *595:30 0
27 *589:10 *595:30 0.000112749
*RES
1 *2911:Y *595:14 45.047 
2 *595:14 *595:30 31.6905 
3 *595:30 *2912:B 20 
*END

*D_NET *596 0.00086028
*CONN
*I *2913:B I *D sg13cmos5l_xnor2_1
*I *2912:Y O *D sg13cmos5l_nor2_1
*CAP
1 *2913:B 0.000145614
2 *2912:Y 9.50629e-05
3 *596:8 0.000240677
4 *2913:B *2914:B1 0
5 *2913:B *995:39 0
6 *2913:B *1155:80 0
7 *596:8 *664:414 0
8 *596:8 *901:22 0.000234726
9 *470:14 *2913:B 0.000144201
*RES
1 *2912:Y *596:8 41.0918 
2 *596:8 *2913:B 41.4008 
*END

*D_NET *597 0.00126559
*CONN
*I *2915:A2 I *D sg13cmos5l_a21oi_1
*I *2913:Y O *D sg13cmos5l_xnor2_1
*CAP
1 *2915:A2 0.000130935
2 *2913:Y 0.000275998
3 *597:8 0.000406933
4 *2915:A2 *756:20 0.000209703
5 *2915:A2 *1129:50 0
6 *597:8 *756:52 0
7 *3244:A *2915:A2 0.000242017
8 *29:16 *597:8 0
*RES
1 *2913:Y *597:8 42.8222 
2 *597:8 *2915:A2 41.6171 
*END

*D_NET *598 0.000891321
*CONN
*I *2915:B1 I *D sg13cmos5l_a21oi_1
*I *2914:Y O *D sg13cmos5l_o21ai_1
*CAP
1 *2915:B1 0.000300759
2 *2914:Y 0.000300759
3 *2915:B1 *2914:B1 1.54008e-05
4 *2915:B1 *995:39 0
5 *3244:A *2915:B1 0.000274403
6 *3353:A *2915:B1 0
*RES
1 *2914:Y *2915:B1 43.5638 
*END

*D_NET *599 0.000498448
*CONN
*I *2918:B I *D sg13cmos5l_nor2_1
*I *2917:Y O *D sg13cmos5l_xnor2_1
*CAP
1 *2918:B 7.36249e-05
2 *2917:Y 0.000175599
3 *599:8 0.000249224
4 *599:8 *1159:12 0
5 *2918:A *2918:B 0
*RES
1 *2917:Y *599:8 41.8334 
2 *599:8 *2918:B 40.5356 
*END

*D_NET *600 0.00515326
*CONN
*I *2453:A I *D sg13cmos5l_nand2_1
*I *3320:A I *D sg13cmos5l_dlygate4sd3_1
*I *2919:S I *D sg13cmos5l_mux2_1
*I *2921:Q O *D sg13cmos5l_dfrbpq_1
*CAP
1 *2453:A 0.000551673
2 *3320:A 0
3 *2919:S 0.000253261
4 *2921:Q 0.000230389
5 *600:29 0.000513007
6 *600:21 0.00132958
7 *600:10 0.000518163
8 *600:8 0.000230389
9 *2453:A *2929:RESET_B 0.000272955
10 *2453:A *3011:RESET_B 0
11 *2919:S *2428:A 0
12 *2919:S *2919:A1 0
13 *2919:S *2921:CLK 0
14 *2919:S *662:27 0
15 *2919:S *684:6 4.77425e-05
16 *600:8 *684:23 0.00050063
17 *600:8 *1125:27 0
18 *600:8 *1125:58 0
19 *600:21 *2428:A 0
20 *600:21 *662:27 0
21 *600:21 *684:6 0.00028961
22 *600:29 *2440:A 0
23 *600:29 *2929:CLK 1.54008e-05
24 *600:29 *662:27 0
25 *600:29 *953:16 0
26 *600:29 *1094:20 0
27 *600:29 *1140:66 8.00842e-05
28 *2441:B *2453:A 0.000273562
29 *2441:C *600:21 0
30 *2453:B *2453:A 0
31 *2550:A *2453:A 0
32 *2929:D *2453:A 0
33 *3011:D *600:21 0
34 *3355:A *2919:S 0
35 *222:12 *600:29 4.68099e-05
*RES
1 *2921:Q *600:8 42.575 
2 *600:8 *600:10 20 
3 *600:10 *2919:S 21.2567 
4 *600:10 *600:21 2.6986 
5 *600:21 *600:29 44.2539 
6 *600:29 *3320:A 20 
7 *600:21 *2453:A 25.5311 
*END

*D_NET *601 0.00730875
*CONN
*I *3325:A I *D sg13cmos5l_dlygate4sd3_1
*I *2354:S I *D sg13cmos5l_mux2_1
*I *2458:A I *D sg13cmos5l_nand2_1
*I *2941:Q O *D sg13cmos5l_dfrbpq_1
*CAP
1 *3325:A 0
2 *2354:S 0
3 *2458:A 0.000274432
4 *2941:Q 3.77166e-05
5 *601:40 0.000340439
6 *601:25 0.001312
7 *601:8 0.00128371
8 *2458:A *2458:B 0
9 *2458:A *635:27 0.000176537
10 *2458:A *1139:111 0.000181192
11 *2458:A *1139:138 0.000212127
12 *601:25 *634:31 0
13 *601:25 *1139:138 0.00199258
14 *601:40 *3454:A 0.000242017
15 *601:40 *3482:A 0.000209676
16 *601:40 *634:31 0
17 *601:40 *733:83 0.000181192
18 *601:40 *884:8 0.000447182
19 *2569:S *601:25 0.00017658
20 *2569:S *601:40 9.71127e-05
21 *246:8 *2458:A 0.000144261
22 *252:10 *2458:A 0
*RES
1 *2941:Q *601:8 40.3193 
2 *601:8 *2458:A 43.0179 
3 *601:8 *601:25 30.4339 
4 *601:25 *2354:S 20 
5 *601:25 *601:40 44.4496 
6 *601:40 *3325:A 20 
*END

*D_NET *602 0.00530795
*CONN
*I *2355:S I *D sg13cmos5l_mux2_1
*I *3322:A I *D sg13cmos5l_dlygate4sd3_1
*I *2462:A I *D sg13cmos5l_nand2_1
*I *2943:Q O *D sg13cmos5l_dfrbpq_1
*CAP
1 *2355:S 0
2 *3322:A 0
3 *2462:A 0.000416149
4 *2943:Q 7.33043e-05
5 *602:40 0.000316624
6 *602:25 0.000790061
7 *602:8 0.000962891
8 *2462:A *699:12 0
9 *2462:A *733:83 0.000821727
10 *2462:A *1097:14 0
11 *602:8 *734:107 0
12 *602:25 *2487:A 0.000176731
13 *602:25 *3454:A 0.000176731
14 *602:25 *733:83 0.00079631
15 *602:25 *1097:14 0
16 *602:40 *2487:A 0.000226446
17 *602:40 *3454:A 0.000241847
18 *602:40 *734:113 0.000181192
19 *602:40 *1098:14 0
20 *2569:S *602:40 4.77425e-05
21 *249:10 *2462:A 8.01886e-05
*RES
1 *2943:Q *602:8 40.5356 
2 *602:8 *2462:A 44.9955 
3 *602:8 *602:25 25.7371 
4 *602:25 *3322:A 20 
5 *602:25 *602:40 43.5226 
6 *602:40 *2355:S 20 
*END

*D_NET *603 0.00479409
*CONN
*I *3310:A I *D sg13cmos5l_dlygate4sd3_1
*I *2356:S I *D sg13cmos5l_mux2_1
*I *2945:Q O *D sg13cmos5l_dfrbpq_1
*CAP
1 *3310:A 0.00023739
2 *2356:S 0.000346566
3 *2945:Q 0.000429631
4 *603:8 0.00101359
5 *2356:S *960:8 0
6 *3310:A *700:32 0
7 *3310:A *779:27 8.02598e-05
8 *603:8 *3039:RESET_B 0.000530885
9 *603:8 *639:10 0
10 *603:8 *1010:16 0.000723712
11 *16:26 *3310:A 8.02598e-05
12 *186:26 *2356:S 0.000766593
13 *186:26 *3310:A 0.000585207
14 *241:37 *2356:S 0
15 *241:56 *2356:S 0
16 *259:10 *2356:S 0
*RES
1 *2945:Q *603:8 44.8616 
2 *603:8 *2356:S 44.0994 
3 *603:8 *3310:A 43.3578 
*END

*D_NET *604 0.00332584
*CONN
*I *3296:A I *D sg13cmos5l_dlygate4sd3_1
*I *2495:A I *D sg13cmos5l_nand2_1
*I *2357:S I *D sg13cmos5l_mux2_1
*I *2947:Q O *D sg13cmos5l_dfrbpq_1
*CAP
1 *3296:A 0.000211421
2 *2495:A 0.000527802
3 *2357:S 0.000117133
4 *2947:Q 0.00053131
5 *604:12 0.000644935
6 *604:10 0.000319889
7 *2357:S *2482:A 0
8 *2495:A *2357:A0 0
9 *2495:A *2482:A 0.000435204
10 *2495:A *2955:D 0
11 *2495:A *780:45 7.21305e-05
12 *3296:A *2357:A0 0
13 *3296:A *2480:A 0
14 *3296:A *2955:D 0
15 *604:10 *668:12 4.75229e-05
16 *604:10 *1128:27 0
17 *604:10 *1128:35 0
18 *2482:B *2495:A 0.000241089
19 *262:10 *2357:S 0.000177406
20 *262:10 *2495:A 0
21 *263:37 *604:10 0
*RES
1 *2947:Q *604:10 43.3887 
2 *604:10 *604:12 20 
3 *604:12 *2357:S 21.1845 
4 *604:12 *2495:A 25.3946 
5 *2947:Q *3296:A 41.9673 
*END

*D_NET *605 0.00262336
*CONN
*I *3294:A I *D sg13cmos5l_dlygate4sd3_1
*I *2358:S I *D sg13cmos5l_mux2_1
*I *2949:Q O *D sg13cmos5l_dfrbpq_1
*CAP
1 *3294:A 0.000215664
2 *2358:S 0.000290789
3 *2949:Q 0.000447039
4 *605:10 0.000522165
5 *2358:S *3231:A 0
6 *2358:S *637:27 4.77425e-05
7 *2358:S *1128:55 0
8 *3294:A *680:22 7.97646e-05
9 *605:10 *680:22 7.96263e-05
10 *605:10 *738:35 0.000393407
11 *3250:A *2358:S 7.94493e-05
12 *257:10 *3294:A 0
13 *258:14 *2358:S 0
14 *294:52 *2358:S 0.000467712
*RES
1 *2949:Q *605:10 42.369 
2 *605:10 *2358:S 43.1312 
3 *2949:Q *3294:A 41.6171 
*END

*D_NET *606 0.00456501
*CONN
*I *3300:A I *D sg13cmos5l_dlygate4sd3_1
*I *2359:S I *D sg13cmos5l_mux2_1
*I *2951:Q O *D sg13cmos5l_dfrbpq_1
*CAP
1 *3300:A 0.000430503
2 *2359:S 0.000466871
3 *2951:Q 0.000211492
4 *606:8 0.00110887
5 *2359:S *2359:A0 0
6 *2359:S *2578:A0 0
7 *2359:S *3196:A 0.000111839
8 *2359:S *740:99 0
9 *3300:A *2574:S 0
10 *3300:A *780:45 0.000660197
11 *606:8 *740:99 0
12 *2951:D *2359:S 0.000273655
13 *3393:A *3300:A 0
14 *18:24 *2359:S 0.000767122
15 *18:24 *606:8 0.000534469
*RES
1 *2951:Q *606:8 42.575 
2 *606:8 *2359:S 45.3972 
3 *606:8 *3300:A 44.429 
*END

*D_NET *607 0.0116827
*CONN
*I *2504:A I *D sg13cmos5l_nand2_1
*I *2361:B I *D sg13cmos5l_nand2_1
*I *3321:A I *D sg13cmos5l_dlygate4sd3_1
*I *2362:A2 I *D sg13cmos5l_o21ai_1
*I *2953:Q O *D sg13cmos5l_dfrbpq_1
*CAP
1 *2504:A 0.000751947
2 *2361:B 0
3 *3321:A 0.000178977
4 *2362:A2 0.000894964
5 *2953:Q 2.58588e-05
6 *607:50 0.000548769
7 *607:40 0.00163441
8 *607:27 0.000787303
9 *607:8 0.00119546
10 *2362:A2 *2955:CLK 0.00023547
11 *2362:A2 *640:34 0
12 *2362:A2 *664:130 0
13 *2362:A2 *664:327 0
14 *2362:A2 *698:10 0.000106064
15 *2362:A2 *912:26 0.000144768
16 *2362:A2 *1144:55 0
17 *2504:A *2975:D 0.000273683
18 *3321:A *1010:16 0.000273474
19 *607:8 *2580:A0 4.77425e-05
20 *607:8 *635:27 4.77866e-05
21 *607:27 *619:8 0.000393823
22 *607:40 *619:8 0.000796637
23 *607:50 *2975:RESET_B 8.00842e-05
24 *607:50 *2975:D 0.00017619
25 *607:50 *639:44 0.00124482
26 *607:50 *843:12 0
27 *607:50 *865:10 0.00129765
28 *2362:A1 *2362:A2 1.54008e-05
29 *186:26 *2362:A2 0.000306597
30 *241:37 *2362:A2 0
31 *269:47 *2504:A 0
32 *269:47 *607:50 0
33 *278:8 *2504:A 4.78028e-05
34 *281:22 *2362:A2 0
35 *281:22 *607:27 0
36 *281:22 *607:40 0
37 *282:22 *3321:A 0
38 *283:22 *607:50 0.000177049
*RES
1 *2953:Q *607:8 40.3193 
2 *607:8 *2362:A2 49.0434 
3 *607:8 *607:27 2.8222 
4 *607:27 *3321:A 41.8334 
5 *607:27 *607:40 23.811 
6 *607:40 *607:50 48.8992 
7 *607:50 *2361:B 20 
8 *607:40 *2504:A 26.6744 
*END

*D_NET *608 0.00359113
*CONN
*I *3304:A I *D sg13cmos5l_dlygate4sd3_1
*I *2363:S I *D sg13cmos5l_mux2_1
*I *2507:A I *D sg13cmos5l_nand2_1
*I *2955:Q O *D sg13cmos5l_dfrbpq_1
*CAP
1 *3304:A 0.000303082
2 *2363:S 0
3 *2507:A 0.000313595
4 *2955:Q 0.000115984
5 *608:16 0.0006616
6 *608:10 0.000767072
7 *2507:A *2510:B 4.77425e-05
8 *2507:A *1138:57 0.000176274
9 *3304:A *664:327 0
10 *3304:A *877:18 0.000554162
11 *3304:A *941:8 0
12 *608:16 *2510:B 0
13 *608:16 *609:28 0.000242018
14 *608:16 *877:18 0
15 *608:16 *941:8 0.000394151
16 *186:26 *3304:A 0
17 *241:37 *3304:A 1.54449e-05
18 *241:56 *3304:A 0
19 *251:30 *2507:A 0
20 *251:30 *608:16 0
*RES
1 *2955:Q *608:10 41.1021 
2 *608:10 *608:16 23.8831 
3 *608:16 *2507:A 23.2754 
4 *608:16 *2363:S 20 
5 *608:10 *3304:A 43.8625 
*END

*D_NET *609 0.0135317
*CONN
*I *2364:S I *D sg13cmos5l_mux2_1
*I *2484:A I *D sg13cmos5l_nand2_1
*I *2510:A I *D sg13cmos5l_nand2_1
*I *2957:Q O *D sg13cmos5l_dfrbpq_1
*CAP
1 *2364:S 0
2 *2484:A 0
3 *2510:A 0
4 *2957:Q 0.000342602
5 *609:51 0.00052227
6 *609:39 0.00115722
7 *609:28 0.00134811
8 *609:16 0.00166104
9 *609:8 0.00129049
10 *609:8 *912:32 0
11 *609:8 *926:28 0.000497542
12 *609:16 *3033:RESET_B 4.77425e-05
13 *609:16 *635:44 0.000337353
14 *609:16 *748:38 0.000394566
15 *609:16 *948:10 0.000288502
16 *609:28 *2510:B 0
17 *609:28 *2955:CLK 0
18 *609:28 *740:99 0.000234398
19 *609:28 *1138:74 0.00119262
20 *609:39 *2584:A0 4.77425e-05
21 *609:39 *748:38 0.00100927
22 *609:39 *779:46 0
23 *609:39 *948:10 0.00050063
24 *609:39 *1134:82 3.23417e-05
25 *609:51 *2584:A0 4.77425e-05
26 *609:51 *741:145 0.00018128
27 *609:51 *775:93 0
28 *609:51 *779:46 0
29 *609:51 *1013:10 0
30 *609:51 *1013:16 0
31 *609:51 *1127:116 0
32 *609:51 *1134:82 0.000208769
33 config_o[19] *609:39 0.00108481
34 *2486:B *609:51 1.54556e-05
35 *2514:C *609:51 0
36 *3305:A *609:28 4.77425e-05
37 *16:20 *609:28 8.03692e-05
38 *18:24 *609:28 0
39 *18:24 *609:51 0
40 *20:24 *609:51 0
41 *241:56 *609:16 0
42 *251:30 *609:28 0
43 *265:28 *609:51 0.000123746
44 *281:16 *609:28 0
45 *282:8 *609:28 0.000306788
46 *322:8 *609:28 0.000288588
47 *608:16 *609:28 0.000242018
*RES
1 *2957:Q *609:8 43.3475 
2 *609:8 *609:16 44.0994 
3 *609:16 *609:28 35.0071 
4 *609:28 *2510:A 20 
5 *609:8 *609:39 29.5687 
6 *609:39 *609:51 45.356 
7 *609:51 *2484:A 20 
8 *609:39 *2364:S 20 
*END

*D_NET *610 0.00571199
*CONN
*I *2513:A I *D sg13cmos5l_nand2_1
*I *2365:S I *D sg13cmos5l_mux2_1
*I *2487:A I *D sg13cmos5l_nand2_1
*I *2959:Q O *D sg13cmos5l_dfrbpq_1
*CAP
1 *2513:A 0
2 *2365:S 0
3 *2487:A 0.000722694
4 *2959:Q 0.000304401
5 *610:48 0.000246719
6 *610:33 0.000463033
7 *610:10 0.00124341
8 *2487:A *2354:A0 0
9 *2487:A *2354:A1 2.21754e-05
10 *2487:A *2355:A1 4.77425e-05
11 *2487:A *2569:A0 0
12 *2487:A *3454:A 0
13 *2487:A *3455:A 0
14 *2487:A *3482:A 2.88393e-05
15 *2487:A *634:31 0
16 *2487:A *919:14 0.000102286
17 *610:10 *734:113 0
18 *610:33 *919:14 0.000339245
19 *610:48 *919:14 0.000192827
20 config_o[13] *610:48 0
21 *3023:D *610:10 4.79014e-05
22 *3396:A *610:33 0.000339245
23 *3396:A *610:48 0.000208282
24 *263:49 *610:10 0.000871853
25 *263:49 *610:33 0.00012816
26 *269:47 *610:48 0
27 *602:25 *2487:A 0.000176731
28 *602:40 *2487:A 0.000226446
*RES
1 *2959:Q *610:10 44.3775 
2 *610:10 *2487:A 47.38 
3 *610:10 *610:33 22.8634 
4 *610:33 *2365:S 20 
5 *610:33 *610:48 42.9664 
6 *610:48 *2513:A 20 
*END

*D_NET *611 0.00828429
*CONN
*I *2456:A I *D sg13cmos5l_nand2_1
*I *2920:S I *D sg13cmos5l_mux2_1
*I *3324:A I *D sg13cmos5l_dlygate4sd3_1
*I *2923:Q O *D sg13cmos5l_dfrbpq_1
*CAP
1 *2456:A 0.000788089
2 *2920:S 0.000575188
3 *3324:A 0.000107835
4 *2923:Q 0.000459243
5 *611:29 0.00215131
6 *611:16 0.00135512
7 *2456:A *2429:A 2.56334e-05
8 *2456:A *2431:B 0
9 *2456:A *2456:B 0
10 *2456:A *3011:RESET_B 0
11 *2456:A *627:29 0
12 *2456:A *1008:12 0.00010131
13 *2920:S *2557:A0 0
14 *2920:S *636:10 0
15 *2920:S *636:34 7.9274e-05
16 *2920:S *1135:14 4.77425e-05
17 *2920:S *1135:21 0
18 *3324:A *2931:RESET_B 0.00017562
19 *3324:A *1140:32 0.000143278
20 *3324:A *1140:39 4.77425e-05
21 *611:16 *2931:RESET_B 0
22 *611:16 *710:20 0.000290042
23 *611:16 *1052:12 0
24 *611:16 *1140:32 0
25 *611:29 *2349:S 0
26 *611:29 *710:20 0
27 *611:29 *956:16 0.00012816
28 *611:29 *1052:12 0
29 *611:29 *1140:32 0.00012816
30 *2429:B *2456:A 0
31 *3364:A *2920:S 0
32 *66:18 *2456:A 0.000176685
33 *111:10 *2456:A 0.00028745
34 *220:33 *611:29 0
35 *228:8 *2456:A 0
36 *235:10 *611:16 7.98053e-05
37 *245:14 *2456:A 0
38 *294:31 *2456:A 0
39 *294:31 *611:29 0.0011366
*RES
1 *2923:Q *611:16 44.841 
2 *611:16 *3324:A 41.1845 
3 *611:16 *611:29 8.5799 
4 *611:29 *2920:S 45.2118 
5 *611:29 *2456:A 47.3954 
*END

*D_NET *612 0.00690848
*CONN
*I *2490:A I *D sg13cmos5l_nand2_1
*I *2516:A I *D sg13cmos5l_nand2_1
*I *2366:S I *D sg13cmos5l_mux2_1
*I *2961:Q O *D sg13cmos5l_dfrbpq_1
*CAP
1 *2490:A 0.000523034
2 *2516:A 0.000720683
3 *2366:S 0.000119769
4 *2961:Q 0.000414505
5 *612:21 0.00135824
6 *612:10 0.0006488
7 *2366:S *994:10 0.000176405
8 *2490:A *2585:B 0
9 *2490:A *3290:A 0
10 *2490:A *910:22 0.000209676
11 *2490:A *1127:106 0.000499483
12 *2516:A *764:8 0
13 *2516:A *861:12 0
14 *2516:A *910:22 0.0010826
15 *612:10 *2572:S 4.78688e-05
16 *612:10 *861:18 0.000979163
17 *612:10 *1127:106 0
18 *612:10 *1134:72 0
19 *612:21 *861:18 0.000128248
20 *612:21 *1127:106 0
21 config_o[25] *612:21 0
22 *2516:B *2516:A 0
23 *3351:A *2366:S 0
24 *12:10 *2490:A 0
25 *14:12 *2490:A 0
26 *126:8 *2516:A 0
*RES
1 *2961:Q *612:10 44.8719 
2 *612:10 *2366:S 41.1845 
3 *612:10 *612:21 1.339 
4 *612:21 *2516:A 47.2409 
5 *612:21 *2490:A 45.2427 
*END

*D_NET *613 0.00563866
*CONN
*I *3292:A I *D sg13cmos5l_dlygate4sd3_1
*I *2367:S I *D sg13cmos5l_mux2_2
*I *2519:A I *D sg13cmos5l_nand2_1
*I *2963:Q O *D sg13cmos5l_dfrbpq_1
*CAP
1 *3292:A 0.000257461
2 *2367:S 6.10812e-05
3 *2519:A 0.000577012
4 *2963:Q 7.02574e-05
5 *613:27 0.000372849
6 *613:14 0.000992159
7 *613:8 0.000431097
8 *2367:S *782:16 0.000112308
9 *2367:S *899:22 0.000112308
10 *2519:A *2494:A 0.000175853
11 *2519:A *782:10 0
12 *2519:A *928:8 0.00012816
13 *2519:A *1134:14 0
14 *2519:A *1138:101 0
15 *2519:A *1138:116 0
16 *3292:A *750:52 0
17 *3292:A *928:8 0.000159096
18 *613:8 *988:14 0.000184171
19 *613:14 *2367:A1 7.98567e-05
20 *613:14 *745:102 0
21 *613:14 *916:22 0
22 *613:14 *1138:25 0
23 *613:27 *928:8 0.000265159
24 *19:10 *2519:A 0.00012816
25 *19:10 *3292:A 0.000553246
26 *19:10 *613:27 0.000287256
27 *269:25 *2519:A 0.0004343
28 *269:25 *613:14 0.000144672
29 *277:22 *3292:A 0.000112198
*RES
1 *2963:Q *613:8 40.8446 
2 *613:8 *613:14 43.3475 
3 *613:14 *2519:A 45.6753 
4 *613:14 *613:27 1.339 
5 *613:27 *2367:S 40.7519 
6 *613:27 *3292:A 43.3269 
*END

*D_NET *614 0.00728771
*CONN
*I *2497:A I *D sg13cmos5l_nand2_1
*I *2522:A I *D sg13cmos5l_nand2_1
*I *2368:S I *D sg13cmos5l_mux2_1
*I *2965:Q O *D sg13cmos5l_dfrbpq_1
*CAP
1 *2497:A 0.000371697
2 *2522:A 0.00033188
3 *2368:S 0
4 *2965:Q 0.000372114
5 *614:26 0.000371584
6 *614:18 0.000962409
7 *614:12 0.00100276
8 *2497:A *745:90 0.000181694
9 *2497:A *745:102 0.000659407
10 *2497:A *773:20 0.000231341
11 *2497:A *848:12 0.00049947
12 *2497:A *965:10 0
13 *2522:A *695:38 0
14 *2522:A *1021:20 0.000144768
15 *614:12 *748:8 0
16 *614:12 *1021:20 0
17 *614:18 *745:90 0.000235141
18 *614:18 *1021:20 0.000306925
19 *614:26 *745:90 0
20 *614:26 *750:52 0
21 *614:26 *943:18 0.000343073
22 *614:26 *965:10 0
23 *2522:B *2522:A 0
24 *20:12 *614:12 0
25 *21:18 *614:26 0.00119337
26 *225:53 *2522:A 0
27 *225:53 *614:18 0
28 *294:59 *614:26 8.00842e-05
*RES
1 *2965:Q *614:12 43.3681 
2 *614:12 *614:18 23.1415 
3 *614:18 *614:26 46.077 
4 *614:26 *2368:S 20 
5 *614:18 *2522:A 23.0488 
6 *614:12 *2497:A 45.3689 
*END

*D_NET *615 0.00359806
*CONN
*I *2525:A I *D sg13cmos5l_nand2_1
*I *2500:A I *D sg13cmos5l_nand2_1
*I *2369:S I *D sg13cmos5l_mux2_1
*I *2967:Q O *D sg13cmos5l_dfrbpq_1
*CAP
1 *2525:A 0
2 *2500:A 5.40583e-05
3 *2369:S 0.00017808
4 *2967:Q 0.000258158
5 *615:14 0.000423162
6 *615:10 0.000449181
7 *2369:S *780:45 1.54008e-05
8 *2369:S *780:64 0
9 *2369:S *943:14 0.000241088
10 *2500:A *744:54 0.000265247
11 *2500:A *1134:31 0.000287343
12 *615:10 *2578:A0 0
13 *615:10 *1134:31 0
14 *615:14 *744:54 0.000659311
15 *615:14 *999:16 0
16 *615:14 *1134:31 0.000767035
*RES
1 *2967:Q *615:10 22.3175 
2 *615:10 *615:14 23.811 
3 *615:14 *2369:S 41.8334 
4 *615:14 *2500:A 41.339 
5 *615:10 *2525:A 20 
*END

*D_NET *616 0.00484678
*CONN
*I *3282:A I *D sg13cmos5l_dlygate4sd3_1
*I *2370:S I *D sg13cmos5l_mux2_1
*I *2969:Q O *D sg13cmos5l_dfrbpq_1
*CAP
1 *3282:A 0.000559651
2 *2370:S 0.000386449
3 *2969:Q 0.00027871
4 *616:10 0.00122481
5 *2370:S *2957:D 0
6 *3282:A *776:25 0.00111943
7 *3282:A *910:12 0.00014391
8 *616:10 *776:25 0.000714297
9 *616:10 *877:30 7.92311e-05
10 *616:10 *988:14 0.000340288
11 *616:10 *1010:16 0
12 *268:20 *3282:A 0
13 *268:20 *616:10 0
14 *269:47 *2370:S 0
*RES
1 *2969:Q *616:10 43.8522 
2 *616:10 *2370:S 43.1312 
3 *616:10 *3282:A 46.2624 
*END

*D_NET *617 0.00122597
*CONN
*I *2371:S I *D sg13cmos5l_mux2_1
*I *3280:A I *D sg13cmos5l_dlygate4sd3_1
*I *2971:Q O *D sg13cmos5l_dfrbpq_1
*CAP
1 *2371:S 0.000307252
2 *3280:A 0
3 *2971:Q 6.32829e-05
4 *617:8 0.000370535
5 *2371:S *2371:A0 0
6 *2371:S *776:67 0.000209093
7 *2371:S *948:51 0
8 *2371:S *1127:68 0.000118704
9 *617:8 *2371:A0 0
10 *617:8 *948:51 0.0001232
11 *3311:A *2371:S 3.39041e-05
*RES
1 *2971:Q *617:8 20.9167 
2 *617:8 *3280:A 20 
3 *617:8 *2371:S 23.8522 
*END

*D_NET *618 0.00259283
*CONN
*I *3290:A I *D sg13cmos5l_dlygate4sd3_1
*I *2372:S I *D sg13cmos5l_mux2_1
*I *2973:Q O *D sg13cmos5l_dfrbpq_1
*CAP
1 *3290:A 0.000413776
2 *2372:S 0
3 *2973:Q 0.000536219
4 *618:12 0.000441774
5 *618:8 0.000564217
6 *3290:A *2372:A1 0.000112503
7 *3290:A *2584:A1 0
8 *3290:A *910:12 6.47382e-05
9 *3290:A *910:22 0
10 *3290:A *994:10 0.000177053
11 *3290:A *1134:72 0
12 *618:8 *750:60 0
13 *618:8 *1010:8 0
14 *618:12 *910:12 4.78195e-05
15 config_o[22] *618:8 0.000234727
16 *2490:A *3290:A 0
17 *19:10 *618:8 0
18 *268:14 *3290:A 0
19 *268:14 *618:12 0
*RES
1 *2973:Q *618:8 44.5526 
2 *618:8 *618:12 20.3193 
3 *618:12 *2372:S 20 
4 *618:12 *3290:A 23.3452 
*END

*D_NET *619 0.00544313
*CONN
*I *2373:S I *D sg13cmos5l_mux2_1
*I *3284:A I *D sg13cmos5l_dlygate4sd3_1
*I *2975:Q O *D sg13cmos5l_dfrbpq_1
*CAP
1 *2373:S 0.000326236
2 *3284:A 0.000234849
3 *2975:Q 0.000656651
4 *619:8 0.00121774
5 *2373:S *3458:A 0
6 *2373:S *639:44 0
7 *2373:S *846:8 0.000371552
8 *2373:S *919:14 0.00030533
9 *3284:A *2586:S 0.000274077
10 *619:8 *846:8 0.000818493
11 *619:8 *865:10 0
12 config_o[14] *2373:S 0
13 *186:26 *619:8 0
14 *281:22 *619:8 0
15 *283:22 *2373:S 0
16 *325:10 *2373:S 4.77425e-05
17 *607:27 *619:8 0.000393823
18 *607:40 *619:8 0.000796637
*RES
1 *2975:Q *619:8 49.0022 
2 *619:8 *3284:A 42.0497 
3 *619:8 *2373:S 43.8831 
*END

*D_NET *620 0.00419758
*CONN
*I *3298:A I *D sg13cmos5l_dlygate4sd3_1
*I *2374:S I *D sg13cmos5l_mux2_1
*I *2977:Q O *D sg13cmos5l_dfrbpq_1
*CAP
1 *3298:A 0.000749097
2 *2374:S 0
3 *2977:Q 0.000218404
4 *620:12 0.000812516
5 *620:8 0.000281824
6 *3298:A *2366:A1 0
7 *3298:A *2588:A1 4.77425e-05
8 *3298:A *3390:A 0.00027443
9 *620:8 *2374:A0 0.000819323
10 *620:8 *778:35 0.000978834
11 config_o[27] *620:8 0
12 *3371:A *3298:A 1.5412e-05
13 *126:8 *3298:A 0
*RES
1 *2977:Q *620:8 44.5526 
2 *620:8 *620:12 20.5356 
3 *620:12 *2374:S 20 
4 *620:12 *3298:A 26.9628 
*END

*D_NET *621 0.00273951
*CONN
*I *3286:A I *D sg13cmos5l_dlygate4sd3_1
*I *2375:S I *D sg13cmos5l_mux2_1
*I *2979:Q O *D sg13cmos5l_dfrbpq_1
*CAP
1 *3286:A 0
2 *2375:S 0.000252974
3 *2979:Q 0.000756146
4 *621:24 0.000503172
5 *2375:S *753:52 1.54008e-05
6 *2375:S *948:51 7.53965e-05
7 *2375:S *1127:68 0
8 *621:24 *3346:A 0
9 *621:24 *935:8 0
10 *621:24 *948:51 0.000531458
11 *270:22 *621:24 0.000209484
12 *285:32 *621:24 0.000395481
*RES
1 *2979:Q *2375:S 42.2145 
2 *2979:Q *621:24 45.3972 
3 *621:24 *3286:A 40 
*END

*D_NET *622 0.00303203
*CONN
*I *2345:B I *D sg13cmos5l_nand2_1
*I *3318:A I *D sg13cmos5l_dlygate4sd3_1
*I *2346:A2 I *D sg13cmos5l_o21ai_1
*I *2925:Q O *D sg13cmos5l_dfrbpq_1
*CAP
1 *2345:B 0.000471292
2 *3318:A 0.000261646
3 *2346:A2 0
4 *2925:Q 0.000237913
5 *622:12 0.000326566
6 *622:8 0.000774125
7 *2345:B *654:24 0
8 *2345:B *1093:18 0
9 *2345:B *1094:32 0
10 *2345:B *1129:134 0
11 *3318:A *634:29 0
12 *3318:A *634:31 0
13 config_o[1] *2345:B 0.000145052
14 *2346:B1 *3318:A 1.54008e-05
15 *2346:B1 *622:12 0.000112426
16 *2346:A1 *622:12 8.00842e-05
17 *2554:B *2345:B 0
18 *31:10 *2345:B 0
19 *108:10 *2345:B 0
20 *108:10 *622:8 0
21 *183:22 *622:8 0.000607525
22 *230:16 *2345:B 0
*RES
1 *2925:Q *622:8 43.0694 
2 *622:8 *622:12 20.7519 
3 *622:12 *2346:A2 20 
4 *622:12 *3318:A 22.2866 
5 *622:8 *2345:B 44.4393 
*END

*D_NET *623 0.00224868
*CONN
*I *2376:S I *D sg13cmos5l_mux2_1
*I *3312:A I *D sg13cmos5l_dlygate4sd3_1
*I *2981:Q O *D sg13cmos5l_dfrbpq_1
*CAP
1 *2376:S 0
2 *3312:A 0
3 *2981:Q 0.000416788
4 *623:14 0.00020937
5 *623:8 0.000626158
6 *623:8 *655:12 8.00842e-05
7 *623:8 *655:25 0.000175513
8 *623:8 *773:78 0
9 *623:8 *784:10 0
10 *623:8 *1002:10 0.000111801
11 *623:8 *1003:10 0
12 *623:14 *1043:10 0.000553748
13 *3047:D *623:14 7.52158e-05
14 *27:10 *623:14 0
*RES
1 *2981:Q *623:8 23.6977 
2 *623:8 *623:14 42.575 
3 *623:14 *3312:A 20 
4 *623:8 *2376:S 20 
*END

*D_NET *624 0.00142857
*CONN
*I *3306:A I *D sg13cmos5l_dlygate4sd3_1
*I *2377:S I *D sg13cmos5l_mux2_1
*I *2983:Q O *D sg13cmos5l_dfrbpq_1
*CAP
1 *3306:A 4.72978e-05
2 *2377:S 0.000164727
3 *2983:Q 0.00050226
4 *624:8 0.000714284
5 *624:8 *1134:14 0
6 *624:8 *1138:116 0
7 *3257:A *624:8 0
*RES
1 *2983:Q *624:8 24.1612 
2 *624:8 *2377:S 22.0806 
3 *624:8 *3306:A 20.5974 
*END

*D_NET *625 0.00180466
*CONN
*I *3288:A I *D sg13cmos5l_dlygate4sd3_1
*I *2347:S I *D sg13cmos5l_mux2_1
*I *2927:Q O *D sg13cmos5l_dfrbpq_1
*CAP
1 *3288:A 0.000205619
2 *2347:S 0
3 *2927:Q 0.000465261
4 *625:14 0.00024223
5 *625:10 0.000501872
6 *3288:A *2464:A 0
7 *625:10 *3190:A 0.000207986
8 *625:10 *757:55 0.000181694
9 *625:14 *2464:A 0
10 *2461:B *625:10 0
*RES
1 *2927:Q *625:10 43.9758 
2 *625:10 *625:14 20.3193 
3 *625:14 *2347:S 20 
4 *625:14 *3288:A 21.8334 
*END

*D_NET *626 0.00136484
*CONN
*I *3315:A I *D sg13cmos5l_dlygate4sd3_1
*I *2348:S I *D sg13cmos5l_mux2_1
*I *2929:Q O *D sg13cmos5l_dfrbpq_1
*CAP
1 *3315:A 0.000238278
2 *2348:S 0
3 *2929:Q 4.42805e-05
4 *626:14 0.000346567
5 *626:8 0.000152569
6 *3315:A *664:180 0
7 *3315:A *902:8 0
8 *626:8 *658:36 0.000236081
9 *626:8 *757:55 0.00023464
10 *626:14 *902:8 0.000112426
*RES
1 *2929:Q *626:8 41.0918 
2 *626:8 *626:14 21.1021 
3 *626:14 *2348:S 20 
4 *626:14 *3315:A 21.8334 
*END

*D_NET *627 0.00653543
*CONN
*I *2469:A I *D sg13cmos5l_nand2_1
*I *3317:A I *D sg13cmos5l_dlygate4sd3_1
*I *2349:S I *D sg13cmos5l_mux2_1
*I *2931:Q O *D sg13cmos5l_dfrbpq_1
*CAP
1 *2469:A 0
2 *3317:A 0
3 *2349:S 0.000351332
4 *2931:Q 0.000142203
5 *627:44 0.00050542
6 *627:29 0.000863392
7 *627:12 0.000851507
8 *2349:S *2351:A1 0
9 *2349:S *661:18 0
10 *2349:S *963:8 0.000181192
11 *627:12 *2443:A 0
12 *627:12 *661:18 1.53295e-05
13 *627:12 *710:20 0
14 *627:12 *956:16 0
15 *627:29 *659:20 0.00012816
16 *627:29 *956:16 0.000605447
17 *627:29 *963:8 0.00119046
18 *627:29 *1052:12 8.0194e-05
19 *627:44 *663:37 0.00030522
20 *627:44 *757:55 0.000287343
21 *627:44 *1052:12 0.000289857
22 *627:44 *1135:80 0.000240306
23 *2456:A *627:29 0
24 *3364:A *627:29 8.0194e-05
25 *3364:A *627:44 1.54556e-05
26 *245:14 *627:44 0
27 *294:52 *2349:S 0.000402421
28 *611:29 *2349:S 0
*RES
1 *2931:Q *627:12 41.4214 
2 *627:12 *2349:S 43.5432 
3 *627:12 *627:29 26.077 
4 *627:29 *3317:A 20 
5 *627:29 *627:44 45.4384 
6 *627:44 *2469:A 20 
*END

*D_NET *628 0.00255652
*CONN
*I *3314:A I *D sg13cmos5l_dlygate4sd3_1
*I *2350:S I *D sg13cmos5l_mux2_1
*I *2933:Q O *D sg13cmos5l_dfrbpq_1
*CAP
1 *3314:A 0.000474731
2 *2350:S 0
3 *2933:Q 0.000292835
4 *628:12 0.000644237
5 *628:8 0.000462341
6 *3314:A *2350:A0 0
7 *3314:A *2560:B 0
8 *3314:A *2933:CLK 0.00025892
9 *3314:A *952:22 0
10 *3314:A *1139:26 0
11 *628:12 *2933:CLK 0.000241847
12 *628:12 *1139:26 0
13 *221:10 *628:8 0
14 *225:31 *628:8 0.000181608
*RES
1 *2933:Q *628:8 42.8222 
2 *628:8 *628:12 21.6171 
3 *628:12 *2350:S 20 
4 *628:12 *3314:A 24.3466 
*END

*D_NET *629 0.00150349
*CONN
*I *3316:A I *D sg13cmos5l_dlygate4sd3_1
*I *2351:S I *D sg13cmos5l_mux2_1
*I *2935:Q O *D sg13cmos5l_dfrbpq_1
*CAP
1 *3316:A 0.00021313
2 *2351:S 0.000150381
3 *2935:Q 0.000424454
4 *629:8 0.000361704
5 *3316:A *2475:A 0.000144921
6 *629:8 *733:83 0
7 *629:8 *1095:10 0
8 *254:14 *2351:S 0
9 *294:52 *2351:S 0.000208901
*RES
1 *2935:Q *629:8 41.8334 
2 *629:8 *2351:S 41.4008 
3 *2935:Q *3316:A 41.6171 
*END

*D_NET *630 0.00216825
*CONN
*I *3302:A I *D sg13cmos5l_dlygate4sd3_1
*I *2352:S I *D sg13cmos5l_mux2_1
*I *2937:Q O *D sg13cmos5l_dfrbpq_1
*CAP
1 *3302:A 0.000166385
2 *2352:S 0
3 *2937:Q 0
4 *630:12 0.000447133
5 *630:4 0.000613518
6 *3302:A *664:180 0
7 *3302:A *902:8 0.000209505
8 *630:12 *2452:B 0.000177219
9 *630:12 *2478:A 0
10 *630:12 *662:43 0
11 *630:12 *939:10 0
12 *630:12 *1139:100 0.000554493
*RES
1 *2937:Q *630:4 20 
2 *630:4 *630:12 45.2736 
3 *630:12 *2352:S 20 
4 *630:4 *3302:A 21.751 
*END

*D_NET *631 0.00376733
*CONN
*I *3308:A I *D sg13cmos5l_dlygate4sd3_1
*I *2481:A I *D sg13cmos5l_nand2_1
*I *2353:S I *D sg13cmos5l_mux2_1
*I *2939:Q O *D sg13cmos5l_dfrbpq_1
*CAP
1 *3308:A 0.000476558
2 *2481:A 6.63636e-05
3 *2353:S 0.000342558
4 *2939:Q 0.000257442
5 *631:21 0.000700327
6 *631:10 0.000757406
7 *2353:S *2561:A0 0
8 *2353:S *1135:80 0.000501069
9 *2481:A *663:37 0.000112426
10 *3308:A *947:10 0
11 *631:10 *636:34 0.000111667
12 *631:10 *1095:10 0.000234224
13 *2439:B *3308:A 1.54008e-05
14 *224:59 *631:10 0.000111804
15 *262:10 *2481:A 8.00842e-05
*RES
1 *2939:Q *631:10 42.5853 
2 *631:10 *2353:S 43.3475 
3 *631:10 *631:21 1.339 
4 *631:21 *2481:A 40.7519 
5 *631:21 *3308:A 44.0685 
*END

*D_NET *632 0.0026309
*CONN
*I *2919:A1 I *D sg13cmos5l_mux2_1
*I *3354:A I *D sg13cmos5l_dlygate4sd3_1
*I *2985:Q O *D sg13cmos5l_dfrbpq_1
*CAP
1 *2919:A1 0.000191602
2 *3354:A 0
3 *2985:Q 0.000471828
4 *632:16 0.000354431
5 *632:8 0.00101786
6 *2919:A1 *662:27 0.00027437
7 *632:8 *2547:B 0
8 *632:8 *3001:RESET_B 0
9 *632:8 *643:21 0
10 *632:8 *662:27 0.000112426
11 *632:8 *768:85 0
12 *632:16 *658:28 8.0216e-05
13 *632:16 *662:10 0
14 *632:16 *1125:58 0
15 *632:16 *1129:115 0
16 *2919:S *2919:A1 0
17 *3355:A *632:8 0
18 *295:19 *632:16 0.00012816
19 *295:33 *632:8 0
*RES
1 *2985:Q *632:8 24.1303 
2 *632:8 *632:16 43.605 
3 *632:16 *3354:A 20 
4 *632:8 *2919:A1 22.1836 
*END

*D_NET *633 0.00702195
*CONN
*I *3376:A I *D sg13cmos5l_dlygate4sd3_1
*I *2354:A1 I *D sg13cmos5l_mux2_1
*I *3005:Q O *D sg13cmos5l_dfrbpq_1
*CAP
1 *3376:A 0
2 *2354:A1 0.000692567
3 *3005:Q 0.000449409
4 *633:16 0.00180232
5 *633:10 0.00155917
6 *2354:A1 *2567:A0 0
7 *2354:A1 *2567:A1 0.000176742
8 *2354:A1 *3482:A 0
9 *2354:A1 *634:31 0
10 *2354:A1 *957:8 0
11 *633:10 *657:26 0.000337313
12 *633:10 *1087:8 0.000692462
13 *633:16 *770:89 0
14 *633:16 *770:97 0
15 *633:16 *1095:42 0
16 *633:16 *1139:138 0
17 *2461:B *633:16 0.00114505
18 *2487:A *2354:A1 2.21754e-05
19 *2925:D *633:10 0.000144742
20 *3377:A *2354:A1 0
21 *116:12 *2354:A1 0
*RES
1 *3005:Q *633:10 44.9955 
2 *633:10 *633:16 31.4536 
3 *633:16 *2354:A1 26.2109 
4 *633:16 *3376:A 20 
*END

*D_NET *634 0.0107176
*CONN
*I *2355:A1 I *D sg13cmos5l_mux2_1
*I *2569:A0 I *D sg13cmos5l_mux2_1
*I *3409:A I *D sg13cmos5l_dlygate4sd3_1
*I *3007:Q O *D sg13cmos5l_dfrbpq_1
*CAP
1 *2355:A1 7.38271e-05
2 *2569:A0 0.000276118
3 *3409:A 0
4 *3007:Q 0.000662065
5 *634:31 0.00167194
6 *634:29 0.0019752
7 *634:12 0.000882627
8 *634:8 0.000891486
9 *2569:A0 *2373:A0 0
10 *2569:A0 *919:14 0
11 *2569:A0 *1042:14 0
12 *634:8 *734:103 0
13 *634:8 *811:8 0
14 *634:8 *1087:12 0.00183274
15 *634:12 *1054:10 0
16 *634:29 *2434:B 0
17 *634:29 *2553:S 0.000122871
18 *634:29 *770:97 7.99147e-05
19 *634:29 *1054:10 0.000273299
20 *634:29 *1094:32 0.000234224
21 *634:31 *2354:A0 0.00014491
22 *634:31 *2567:A0 0.000853566
23 *634:31 *3482:A 0
24 *634:31 *770:97 0
25 *2346:B1 *634:29 0
26 *2354:A1 *634:31 0
27 *2487:A *2355:A1 4.77425e-05
28 *2487:A *2569:A0 0
29 *2487:A *634:31 0
30 *2569:S *2569:A0 0.000388528
31 *2569:S *634:31 0.000306531
32 *3318:A *634:29 0
33 *3318:A *634:31 0
34 *108:10 *634:29 0
35 *109:10 *634:8 0
36 *306:43 *634:31 0
37 *601:25 *634:31 0
38 *601:40 *634:31 0
*RES
1 *3007:Q *634:8 49.0022 
2 *634:8 *634:12 21.8334 
3 *634:12 *3409:A 20 
4 *634:12 *634:29 46.4066 
5 *634:29 *634:31 12.2158 
6 *634:31 *2569:A0 23.0488 
7 *634:31 *2355:A1 20.9167 
*END

*D_NET *635 0.0194336
*CONN
*I *2572:A0 I *D sg13cmos5l_mux2_1
*I *2356:A1 I *D sg13cmos5l_mux2_1
*I *2555:A1 I *D sg13cmos5l_mux2_1
*I *3009:Q O *D sg13cmos5l_dfrbpq_1
*CAP
1 *2572:A0 4.90447e-05
2 *2356:A1 0
3 *2555:A1 0
4 *3009:Q 0.000448247
5 *635:50 0.00117382
6 *635:44 0.00211465
7 *635:27 0.00383936
8 *635:12 0.00294697
9 *635:8 0.000545739
10 *2572:A0 *2572:A1 1.54008e-05
11 *2572:A0 *866:16 8.00842e-05
12 *635:8 *734:103 0
13 *635:8 *1103:64 0.000181192
14 *635:8 *1129:130 0.000340288
15 *635:8 *1135:41 0
16 *635:12 *924:8 0.00017669
17 *635:12 *1027:27 0.000176537
18 *635:27 *2356:A0 0.000369826
19 *635:27 *2464:A 0.00104799
20 *635:27 *2564:A 0.000790949
21 *635:27 *2580:A0 0
22 *635:27 *2943:D 0
23 *635:27 *2959:RESET_B 0
24 *635:27 *3017:CLK 0
25 *635:27 *639:10 0
26 *635:27 *642:10 0
27 *635:27 *698:37 0.000273087
28 *635:27 *880:10 0.000337825
29 *635:27 *924:8 0.000484274
30 *635:27 *1027:27 4.77699e-05
31 *635:27 *1093:8 0.000273299
32 *635:27 *1114:86 0
33 *635:44 *2505:A 0
34 *635:44 *2580:A0 0
35 *635:44 *2969:CLK 0.000501132
36 *635:44 *3033:RESET_B 0
37 *635:44 *776:25 0
38 *635:44 *926:28 0
39 *635:44 *948:18 0.000305088
40 *635:50 *2961:D 0
41 *635:50 *848:12 0
42 *635:50 *877:30 0
43 *635:50 *912:32 0
44 *635:50 *915:20 0
45 *635:50 *943:14 0.000820482
46 *635:50 *1010:16 0.0004652
47 config_o[25] *635:50 0.000825003
48 *2458:A *635:27 0.000176537
49 *3289:A *635:27 0.000241946
50 *230:16 *635:27 0
51 *241:37 *635:27 0
52 *241:56 *635:44 0
53 *246:8 *635:27 0
54 *252:10 *635:27 0
55 *267:12 *635:27 0
56 *270:22 *635:50 0
57 *607:8 *635:27 4.77866e-05
58 *609:16 *635:44 0.000337353
*RES
1 *3009:Q *635:8 45.7886 
2 *635:8 *635:12 21.1845 
3 *635:12 *2555:A1 20 
4 *635:12 *635:27 28.4451 
5 *635:27 *2356:A1 20 
6 *635:27 *635:44 49.8983 
7 *635:44 *635:50 32.7823 
8 *635:50 *2572:A0 40.5356 
*END

*D_NET *636 0.0157352
*CONN
*I *2357:A1 I *D sg13cmos5l_mux2_1
*I *2574:A0 I *D sg13cmos5l_mux2_1
*I *2557:A1 I *D sg13cmos5l_mux2_1
*I *3011:Q O *D sg13cmos5l_dfrbpq_1
*CAP
1 *2357:A1 0.000381378
2 *2574:A0 0
3 *2557:A1 0
4 *3011:Q 0.00202794
5 *636:48 0.000163704
6 *636:42 0.00117897
7 *636:38 0.00156092
8 *636:34 0.00191912
9 *636:10 0.000273096
10 *2357:A1 *2357:A0 1.54556e-05
11 *2357:A1 *2482:A 0.000306903
12 *2357:A1 *2566:A 4.77425e-05
13 *2357:A1 *3236:A 0
14 *2357:A1 *762:117 0.000320048
15 *2357:A1 *775:16 7.51285e-05
16 *2357:A1 *780:23 0
17 *2357:A1 *854:8 0
18 *2357:A1 *1128:27 0
19 *636:10 *1135:14 0.000282054
20 *636:34 *2561:A0 0
21 *636:34 *661:26 4.77425e-05
22 *636:34 *956:16 7.92265e-05
23 *636:34 *1052:12 0
24 *636:34 *1095:28 0
25 *636:38 *762:117 0.000504221
26 *636:38 *780:23 0
27 *636:42 *2495:B 4.77534e-05
28 *636:42 *2561:A1 0.000145031
29 *636:42 *2578:A0 0.000597204
30 *636:42 *3015:CLK 0
31 *636:42 *638:27 0.00108293
32 *636:42 *780:45 0.00105058
33 *636:48 *741:145 0
34 *636:48 *748:38 0.000554163
35 *636:48 *1039:8 7.57164e-05
36 *2432:C *636:10 0.000287845
37 *2920:S *636:10 0
38 *2920:S *636:34 7.9274e-05
39 *3309:A *636:34 0
40 *224:52 *636:34 0.000337982
41 *224:59 *636:34 0.000225088
42 *224:72 *636:34 0.000112426
43 *241:14 *636:34 0.000375902
44 *262:10 *636:42 0
45 *263:6 *636:34 0.000726033
46 *272:10 *636:42 0.000499976
47 *312:10 *636:34 0.000241979
48 *631:10 *636:34 0.000111667
*RES
1 *3011:Q *636:10 42.9561 
2 *636:10 *2557:A1 40 
3 *3011:Q *636:34 37.7984 
4 *636:34 *636:38 22.3278 
5 *636:38 *636:42 32.2158 
6 *636:42 *636:48 42.575 
7 *636:48 *2574:A0 20 
8 *636:38 *2357:A1 44.738 
*END

*D_NET *637 0.0113259
*CONN
*I *2358:A1 I *D sg13cmos5l_mux2_1
*I *2576:A0 I *D sg13cmos5l_mux2_1
*I *2559:A1 I *D sg13cmos5l_mux2_1
*I *3013:Q O *D sg13cmos5l_dfrbpq_1
*CAP
1 *2358:A1 5.8365e-05
2 *2576:A0 0
3 *2559:A1 0
4 *3013:Q 0.000120246
5 *637:37 0.00215373
6 *637:27 0.0027094
7 *637:18 0.000481248
8 *637:10 0.000978549
9 *637:8 0.000120246
10 *2358:A1 *690:44 0.000159096
11 *2358:A1 *1021:8 0.000181608
12 *637:8 *762:117 0.000340482
13 *637:18 *774:40 0.000340704
14 *637:27 *2358:A0 0.000274452
15 *637:37 *2358:A0 0
16 *637:37 *2949:RESET_B 0.00024139
17 *637:37 *680:14 0
18 *637:37 *689:35 0
19 *637:37 *690:44 0.000287256
20 *637:37 *737:10 0
21 *637:37 *745:96 7.9768e-05
22 *637:37 *746:71 0
23 *637:37 *750:52 4.79124e-05
24 *637:37 *753:8 7.9524e-05
25 *637:37 *753:46 0
26 *637:37 *1021:8 0.000872683
27 *637:37 *1021:20 0
28 *2358:S *637:27 4.77425e-05
29 *2949:D *637:37 0
30 *20:12 *637:37 0.000984326
31 *113:12 *637:8 7.52158e-05
32 *220:45 *637:37 0
33 *224:72 *637:18 0
34 *254:14 *637:18 0.000564062
35 *254:14 *637:27 8.0194e-05
36 *258:14 *2358:A1 4.77425e-05
37 *258:14 *637:27 0
38 *294:52 *637:18 0
39 *294:52 *637:27 0
40 *320:12 *637:37 0
*RES
1 *3013:Q *637:8 41.5862 
2 *637:8 *637:10 20 
3 *637:10 *637:18 45.3663 
4 *637:18 *2559:A1 20 
5 *637:10 *637:27 24.6453 
6 *637:27 *637:37 42.0123 
7 *637:37 *2576:A0 20 
8 *637:27 *2358:A1 41.1639 
*END

*D_NET *638 0.0104344
*CONN
*I *2578:A0 I *D sg13cmos5l_mux2_1
*I *2359:A1 I *D sg13cmos5l_mux2_1
*I *2561:A1 I *D sg13cmos5l_mux2_1
*I *3015:Q O *D sg13cmos5l_dfrbpq_1
*CAP
1 *2578:A0 0.00177715
2 *2359:A1 0
3 *2561:A1 0.000395417
4 *3015:Q 0.000293416
5 *638:33 9.22229e-05
6 *638:27 0.00252514
7 *638:10 0.00105117
8 *638:8 0.000293416
9 *2561:A1 *2561:A0 0
10 *2561:A1 *3015:RESET_B 0
11 *2561:A1 *1135:108 2.21754e-05
12 *2578:A0 *2501:B 0.000231341
13 *2578:A0 *2575:B 0
14 *2578:A0 *2578:S 0
15 *2578:A0 *2951:RESET_B 0
16 *2578:A0 *2963:D 0.000332986
17 *2578:A0 *691:10 0
18 *2578:A0 *744:48 0.000112061
19 *2578:A0 *780:45 0
20 *2578:A0 *937:10 7.92311e-05
21 *2578:A0 *938:10 0
22 *2578:A0 *1134:31 0.000112394
23 *638:8 *3236:A 0.000767035
24 *638:8 *780:23 0.00012816
25 *638:8 *854:14 0
26 *638:27 *2359:A0 0
27 *638:27 *3015:RESET_B 0
28 *638:27 *1128:35 0
29 *638:33 *2498:B 0.00023547
30 *638:33 *664:126 0
31 *2359:S *2578:A0 0
32 *2459:A *2561:A1 0
33 *2502:B *2578:A0 0
34 *2951:D *638:27 0
35 *3297:A *638:27 0.000112635
36 *121:12 *2578:A0 0
37 *253:10 *638:27 0
38 *263:6 *2561:A1 4.78356e-05
39 *263:37 *638:8 0
40 *272:10 *2578:A0 0
41 *615:10 *2578:A0 0
42 *636:42 *2561:A1 0.000145031
43 *636:42 *2578:A0 0.000597204
44 *636:42 *638:27 0.00108293
*RES
1 *3015:Q *638:8 44.0582 
2 *638:8 *638:10 20 
3 *638:10 *2561:A1 24.1612 
4 *638:10 *638:27 7.2409 
5 *638:27 *638:33 41.0918 
6 *638:33 *2359:A1 20 
7 *638:27 *2578:A0 36.3794 
*END

*D_NET *639 0.00963786
*CONN
*I *2361:A I *D sg13cmos5l_nand2_1
*I *3383:A I *D sg13cmos5l_dlygate4sd3_1
*I *2580:A0 I *D sg13cmos5l_mux2_1
*I *3017:Q O *D sg13cmos5l_dfrbpq_1
*CAP
1 *2361:A 0
2 *3383:A 0.000518239
3 *2580:A0 0.000699012
4 *3017:Q 0.000480596
5 *639:44 0.00083206
6 *639:25 0.00154288
7 *639:10 0.00137219
8 *2580:A0 *843:8 0.000530158
9 *2580:A0 *865:10 0
10 *2580:A0 *926:28 0.000134733
11 *2580:A0 *926:34 0.000128248
12 *3383:A *3039:CLK 0
13 *3383:A *3174:A 0
14 *3383:A *3204:A 0
15 *3383:A *779:23 0
16 *3383:A *779:27 0
17 *3383:A *1010:16 0
18 *639:10 *3039:RESET_B 0
19 *639:10 *880:10 0
20 *639:10 *1010:16 0
21 *639:25 *865:10 0
22 *639:44 *2373:A1 0.000766291
23 *639:44 *3367:A 0.000395067
24 *639:44 *3458:A 7.86835e-05
25 *639:44 *843:12 0
26 *639:44 *865:10 0
27 *639:44 *1021:8 0
28 *2373:S *639:44 0
29 *3039:D *639:10 0.00014474
30 *282:22 *2580:A0 0.000287758
31 *282:22 *3383:A 4.76053e-05
32 *282:22 *639:25 0.000371639
33 *325:10 *639:44 1.54008e-05
34 *603:8 *639:10 0
35 *607:8 *2580:A0 4.77425e-05
36 *607:50 *639:44 0.00124482
37 *635:27 *2580:A0 0
38 *635:27 *639:10 0
39 *635:44 *2580:A0 0
*RES
1 *3017:Q *639:10 44.5629 
2 *639:10 *2580:A0 46.9834 
3 *639:10 *639:25 2.0806 
4 *639:25 *3383:A 43.5592 
5 *639:25 *639:44 30.609 
6 *639:44 *2361:A 20 
*END

*D_NET *640 0.00961171
*CONN
*I *2582:A0 I *D sg13cmos5l_mux2_1
*I *2363:A1 I *D sg13cmos5l_mux2_1
*I *3402:A I *D sg13cmos5l_dlygate4sd3_1
*I *3019:Q O *D sg13cmos5l_dfrbpq_1
*CAP
1 *2582:A0 0.00020048
2 *2363:A1 3.22215e-05
3 *3402:A 0.000203349
4 *3019:Q 0.000781701
5 *640:51 0.00137091
6 *640:34 0.00203934
7 *640:30 0.00141504
8 *2582:A0 *2971:RESET_B 0.000272889
9 *2582:A0 *899:22 0
10 *640:30 *2479:A 6.34045e-05
11 *640:30 *2563:A1 0
12 *640:30 *775:57 0.000144659
13 *640:30 *800:12 0.00029097
14 *640:30 *854:14 0.000450066
15 *640:34 *664:130 0
16 *640:51 *3392:A 8.0128e-05
17 *640:51 *778:51 0.000240926
18 *640:51 *899:22 0.000869221
19 *640:51 *916:12 0.00011159
20 config_o[23] *640:51 0
21 *2362:A2 *640:34 0
22 *2467:C *3402:A 0
23 *2953:D *640:34 0.00046555
24 *3017:D *3402:A 0.000177295
25 *3017:D *640:30 0
26 *3384:A *3402:A 0
27 *241:37 *640:30 0
28 *251:22 *640:51 0.000401972
29 *251:30 *640:34 0
30 *251:30 *640:51 0
31 *260:10 *640:30 0
*RES
1 *3019:Q *3402:A 42.3175 
2 *3019:Q *640:30 46.7774 
3 *640:30 *640:34 27.6735 
4 *640:34 *2363:A1 20.3502 
5 *640:34 *640:51 31.1343 
6 *640:51 *2582:A0 41.8334 
*END

*D_NET *641 0.0139454
*CONN
*I *2567:A1 I *D sg13cmos5l_mux2_1
*I *2364:A1 I *D sg13cmos5l_mux2_1
*I *2584:A0 I *D sg13cmos5l_mux2_1
*I *3021:Q O *D sg13cmos5l_dfrbpq_1
*CAP
1 *2567:A1 0.000453893
2 *2364:A1 6.17622e-05
3 *2584:A0 0.000800581
4 *3021:Q 0.0009153
5 *641:18 0.00104403
6 *641:14 0.00285738
7 *641:10 0.00404488
8 *2364:A1 *779:46 0.000159183
9 *2567:A1 *2567:A0 0.000176742
10 *2567:A1 *958:8 0
11 *2584:A0 *2372:A1 0.000175908
12 *2584:A0 *910:12 0
13 *2584:A0 *1134:72 3.75762e-05
14 *2584:A0 *1134:82 0.00085739
15 *641:10 *2463:A 0
16 *641:10 *795:10 0
17 *641:10 *958:8 0
18 *641:18 *779:46 0.000446352
19 config_o[19] *2364:A1 0
20 *2354:A1 *2567:A1 0.000176742
21 *20:24 *2584:A0 0.000884287
22 *281:22 *641:14 0.00075792
23 *609:39 *2584:A0 4.77425e-05
24 *609:51 *2584:A0 4.77425e-05
*RES
1 *3021:Q *641:10 48.0546 
2 *641:10 *641:14 42.1656 
3 *641:14 *641:18 22.0806 
4 *641:18 *2584:A0 48.7035 
5 *641:18 *2364:A1 40.8446 
6 *641:10 *2567:A1 44.0067 
*END

*D_NET *642 0.00970768
*CONN
*I *2586:A0 I *D sg13cmos5l_mux2_1
*I *2365:A1 I *D sg13cmos5l_mux2_1
*I *3395:A I *D sg13cmos5l_dlygate4sd3_1
*I *3023:Q O *D sg13cmos5l_dfrbpq_1
*CAP
1 *2586:A0 0.000661167
2 *2365:A1 0
3 *3395:A 0.000310315
4 *3023:Q 0.000363057
5 *642:27 0.0012992
6 *642:10 0.00131141
7 *2586:A0 *2373:A0 0.000532379
8 *2586:A0 *2373:A1 4.77425e-05
9 *2586:A0 *2586:A1 0.00011247
10 *2586:A0 *742:94 7.55443e-05
11 *2586:A0 *775:87 0
12 *2586:A0 *793:12 0.000106807
13 *2586:A0 *919:14 0.000694471
14 *3395:A *2564:A 0
15 *3395:A *3017:CLK 0
16 *3395:A *664:164 0
17 *3395:A *921:12 0.000447597
18 *3395:A *1029:8 0.000447597
19 *642:10 *2959:RESET_B 0
20 *642:10 *2959:D 0.000175815
21 *642:10 *1010:16 0
22 *642:27 *742:94 0.00124524
23 *642:27 *751:48 0
24 *642:27 *793:12 0.000925388
25 *642:27 *921:12 0.000289003
26 *642:27 *962:8 0.000449015
27 *642:27 *1029:8 0.00021346
28 *3289:A *642:10 0
29 *635:27 *642:10 0
*RES
1 *3023:Q *642:10 43.6977 
2 *642:10 *3395:A 43.914 
3 *642:10 *642:27 10.4133 
4 *642:27 *2365:A1 40 
5 *642:27 *2586:A0 47.4263 
*END

*D_NET *643 0.0048308
*CONN
*I *2920:A1 I *D sg13cmos5l_mux2_1
*I *3388:A I *D sg13cmos5l_dlygate4sd3_1
*I *2987:Q O *D sg13cmos5l_dfrbpq_1
*CAP
1 *2920:A1 0.000472891
2 *3388:A 0
3 *2987:Q 0.00020667
4 *643:21 0.00118848
5 *643:8 0.000922255
6 *2920:A1 *2549:B 0
7 *2920:A1 *2557:A0 0.000242209
8 *2920:A1 *743:51 0.000598357
9 *2920:A1 *932:10 0
10 *2920:A1 *1007:8 0
11 *643:8 *2985:CLK 0
12 *643:8 *1157:76 0
13 *643:21 *2548:A1 0
14 *643:21 *2985:CLK 0
15 *643:21 *663:12 0
16 *643:21 *663:14 0
17 *643:21 *1114:30 0.00119994
18 *3389:A *2920:A1 0
19 *632:8 *643:21 0
*RES
1 *2987:Q *643:8 22.2145 
2 *643:8 *3388:A 20 
3 *643:8 *643:21 48.4563 
4 *643:21 *2920:A1 25.0779 
*END

*D_NET *644 0.004548
*CONN
*I *3390:A I *D sg13cmos5l_dlygate4sd3_1
*I *2588:A0 I *D sg13cmos5l_mux2_1
*I *2366:A1 I *D sg13cmos5l_mux2_1
*I *3025:Q O *D sg13cmos5l_dfrbpq_1
*CAP
1 *3390:A 0.000201608
2 *2588:A0 0
3 *2366:A1 0.000708029
4 *3025:Q 0.00030823
5 *644:12 0.000708029
6 *644:10 0.000509837
7 *2366:A1 *2374:A1 0.000208824
8 *2366:A1 *2588:A1 0
9 *2366:A1 *1037:10 0
10 *3390:A *866:10 0
11 *644:10 *866:10 0
12 config_o[27] *2366:A1 0
13 *3298:A *2366:A1 0
14 *3298:A *3390:A 0.00027443
15 *3351:A *2366:A1 0.000338911
16 *3371:A *3390:A 0.00027443
17 *286:18 *3390:A 0.000181694
18 *286:18 *644:10 0.000818578
19 *317:35 *2366:A1 1.54008e-05
*RES
1 *3025:Q *644:10 44.1303 
2 *644:10 *644:12 20 
3 *644:12 *2366:A1 27.107 
4 *644:12 *2588:A0 20 
5 *644:10 *3390:A 42.678 
*END

*D_NET *645 0.00918484
*CONN
*I *2590:A0 I *D sg13cmos5l_mux2_1
*I *2367:A1 I *D sg13cmos5l_mux2_2
*I *3392:A I *D sg13cmos5l_dlygate4sd3_1
*I *3027:Q O *D sg13cmos5l_dfrbpq_1
*CAP
1 *2590:A0 0.000704068
2 *2367:A1 0.000422131
3 *3392:A 4.28222e-05
4 *3027:Q 0.000773553
5 *645:28 0.00168536
6 *645:10 0.000257216
7 *2367:A1 *782:10 0.000305349
8 *2367:A1 *999:16 0.000500312
9 *2590:A0 *2590:A1 1.54446e-05
10 *2590:A0 *778:45 0.000659557
11 *2590:A0 *888:26 0.00046655
12 *2590:A0 *899:22 0
13 *2590:A0 *999:16 0.000181192
14 *3392:A *899:22 8.02379e-05
15 *645:10 *748:38 0.00018128
16 *645:10 *778:51 0.000175513
17 *645:28 *778:51 0.000981538
18 *645:28 *888:26 0.000401316
19 config_o[24] *2367:A1 0.000500312
20 config_o[24] *2590:A0 0.000160219
21 *269:25 *2367:A1 0
22 *277:22 *2590:A0 0
23 *280:18 *645:28 0.000530885
24 *613:14 *2367:A1 7.98567e-05
25 *640:51 *3392:A 8.0128e-05
*RES
1 *3027:Q *645:10 42.0291 
2 *645:10 *3392:A 40.5356 
3 *3027:Q *645:28 46.592 
4 *645:28 *2367:A1 45.2427 
5 *645:28 *2590:A0 47.9773 
*END

*D_NET *646 0.00318432
*CONN
*I *3372:A I *D sg13cmos5l_dlygate4sd3_1
*I *2368:A1 I *D sg13cmos5l_mux2_1
*I *2592:A0 I *D sg13cmos5l_mux2_1
*I *3029:Q O *D sg13cmos5l_dfrbpq_1
*CAP
1 *3372:A 5.76957e-05
2 *2368:A1 0.000414369
3 *2592:A0 0.000264631
4 *3029:Q 0.00012958
5 *646:10 0.000801972
6 *646:8 0.000310247
7 *2368:A1 *2368:A0 8.00842e-05
8 *2368:A1 *753:8 0
9 *2368:A1 *753:46 0
10 *2368:A1 *773:20 0.000466191
11 *2368:A1 *1017:10 0.000175513
12 *2592:A0 *773:24 0
13 *2592:A0 *773:28 0
14 config_o[25] *3372:A 0
15 *294:71 *646:8 0.000242018
16 *294:86 *2592:A0 0
17 *317:8 *646:8 0.000242018
*RES
1 *3029:Q *646:8 41.6171 
2 *646:8 *646:10 1.0918 
3 *646:10 *2592:A0 42.3278 
4 *646:10 *2368:A1 44.4496 
5 *646:8 *3372:A 40.5974 
*END

*D_NET *647 0.00398651
*CONN
*I *3374:A I *D sg13cmos5l_dlygate4sd3_1
*I *2369:A1 I *D sg13cmos5l_mux2_1
*I *2594:A0 I *D sg13cmos5l_mux2_1
*I *3031:Q O *D sg13cmos5l_dfrbpq_1
*CAP
1 *3374:A 2.77984e-05
2 *2369:A1 3.34444e-05
3 *2594:A0 0.00038321
4 *3031:Q 0.000167998
5 *647:14 0.000844895
6 *647:8 0.000624037
7 *2369:A1 *2369:A0 4.77425e-05
8 *2594:A0 *1019:10 0.000446352
9 *647:8 *1138:116 0
10 *647:14 *943:14 0
11 *647:14 *1019:10 0.000372055
12 *647:14 *1138:116 0
13 *2520:C *647:8 0.000143369
14 *25:14 *2594:A0 0.000181192
15 *25:14 *647:14 0.000714418
16 *29:20 *647:8 0
17 *29:20 *647:14 0
18 *121:12 *2594:A0 0
19 *287:26 *647:8 0
*RES
1 *3031:Q *647:8 21.751 
2 *647:8 *647:14 25.3663 
3 *647:14 *2594:A0 44.4805 
4 *647:14 *2369:A1 40.3193 
5 *647:8 *3374:A 20.3502 
*END

*D_NET *648 0.00510476
*CONN
*I *2370:A1 I *D sg13cmos5l_mux2_1
*I *3340:A I *D sg13cmos5l_dlygate4sd3_1
*I *3033:Q O *D sg13cmos5l_dfrbpq_1
*CAP
1 *2370:A1 0.000137449
2 *3340:A 0.000474867
3 *3033:Q 4.66458e-05
4 *648:8 0.000658961
5 *2370:A1 *741:145 0.000265354
6 *2370:A1 *1013:16 0.000287256
7 *3340:A *741:145 0.00161677
8 *3340:A *748:38 0
9 *3340:A *1013:16 0.000340288
10 *3340:A *1134:110 0.000927352
11 *648:8 *877:18 7.9407e-05
12 *648:8 *905:28 7.9407e-05
13 *16:26 *2370:A1 0.000111749
14 *278:14 *3340:A 7.92643e-05
*RES
1 *3033:Q *648:8 40.5356 
2 *648:8 *3340:A 48.4872 
3 *648:8 *2370:A1 42.0909 
*END

*D_NET *649 0.00180823
*CONN
*I *3342:A I *D sg13cmos5l_dlygate4sd3_1
*I *2371:A1 I *D sg13cmos5l_mux2_1
*I *3035:Q O *D sg13cmos5l_dfrbpq_1
*CAP
1 *3342:A 0.000198809
2 *2371:A1 0.000159068
3 *3035:Q 5.83767e-05
4 *649:12 0.000357878
5 *649:10 5.83767e-05
6 *2371:A1 *2371:A0 0.000240957
7 *2371:A1 *1127:68 0
8 *3342:A *2371:A0 0.00032339
9 *3342:A *1127:68 0
10 *649:10 *3206:A 0.000181608
11 *649:10 *943:14 0.000182023
12 *649:10 *1127:68 4.77425e-05
*RES
1 *3035:Q *649:10 41.1639 
2 *649:10 *649:12 20 
3 *649:12 *2371:A1 21.6171 
4 *649:12 *3342:A 22.266 
*END

*D_NET *650 0.00449024
*CONN
*I *3350:A I *D sg13cmos5l_dlygate4sd3_1
*I *2372:A1 I *D sg13cmos5l_mux2_1
*I *3037:Q O *D sg13cmos5l_dfrbpq_1
*CAP
1 *3350:A 0.000393704
2 *2372:A1 0.000255796
3 *3037:Q 0.000242443
4 *650:8 0.000891944
5 *2372:A1 *2584:A1 4.77425e-05
6 *2372:A1 *910:12 0
7 *3350:A *994:10 0
8 *3350:A *1127:106 0.000306794
9 *650:8 *926:28 0.00060678
10 config_o[23] *3350:A 0.000531237
11 config_o[23] *650:8 0.000925387
12 *2584:A0 *2372:A1 0.000175908
13 *3290:A *2372:A1 0.000112503
14 *14:12 *3350:A 0
15 *324:8 *3350:A 0
16 *324:8 *650:8 0
*RES
1 *3037:Q *650:8 44.3054 
2 *650:8 *2372:A1 42.781 
3 *650:8 *3350:A 44.6247 
*END

*D_NET *651 0.0045074
*CONN
*I *2373:A1 I *D sg13cmos5l_mux2_1
*I *3367:A I *D sg13cmos5l_dlygate4sd3_1
*I *3039:Q O *D sg13cmos5l_dfrbpq_1
*CAP
1 *2373:A1 0.000245418
2 *3367:A 0.000351084
3 *3039:Q 0
4 *651:6 0.000596501
5 *2373:A1 *2373:A0 1.54556e-05
6 *2373:A1 *775:87 0.000112535
7 *2373:A1 *843:12 0
8 *2373:A1 *1021:8 0.000584597
9 *3367:A *3205:A 0.000498818
10 *3367:A *1021:8 0.000395067
11 *2586:A0 *2373:A1 4.77425e-05
12 *16:26 *3367:A 0.000498818
13 *639:44 *2373:A1 0.000766291
14 *639:44 *3367:A 0.000395067
*RES
1 *3039:Q *651:6 40 
2 *651:6 *3367:A 45.1809 
3 *651:6 *2373:A1 44.3157 
*END

*D_NET *652 0.00392391
*CONN
*I *2374:A1 I *D sg13cmos5l_mux2_1
*I *3370:A I *D sg13cmos5l_dlygate4sd3_1
*I *3041:Q O *D sg13cmos5l_dfrbpq_1
*CAP
1 *2374:A1 0.000607994
2 *3370:A 0.0010841
3 *3041:Q 6.96721e-05
4 *652:8 0.00176176
5 *2374:A1 *2374:A0 8.00842e-05
6 *2374:A1 *888:30 0
7 *3370:A *2572:A1 0
8 *3370:A *3210:A 0
9 *3370:A *866:16 0
10 *3370:A *888:30 0
11 config_o[27] *2374:A1 0
12 *2366:A1 *2374:A1 0.000208824
13 *126:8 *2374:A1 0
14 *126:14 *2374:A1 0
15 *126:14 *3370:A 0
16 *318:10 *3370:A 0.000111474
*RES
1 *3041:Q *652:8 40.5356 
2 *652:8 *3370:A 49.4189 
3 *652:8 *2374:A1 44.9646 
*END

*D_NET *653 0.00318919
*CONN
*I *3346:A I *D sg13cmos5l_dlygate4sd3_1
*I *2375:A1 I *D sg13cmos5l_mux2_1
*I *3043:Q O *D sg13cmos5l_dfrbpq_1
*CAP
1 *3346:A 0.000316767
2 *2375:A1 0.000496507
3 *3043:Q 6.55053e-05
4 *653:8 0.000878779
5 *2375:A1 *948:51 0
6 *2375:A1 *989:10 0.000434301
7 *3346:A *2492:B 0
8 *3346:A *948:51 1.54556e-05
9 *653:8 *1127:87 0
10 config_o[29] *2375:A1 0
11 *269:66 *2375:A1 0
12 *270:10 *3346:A 0
13 *270:22 *3346:A 8.00842e-05
14 *277:8 *2375:A1 0.000447182
15 *277:8 *653:8 0.000182023
16 *279:22 *2375:A1 0.000272582
17 *621:24 *3346:A 0
*RES
1 *3043:Q *653:8 40.8446 
2 *653:8 *2375:A1 45.6444 
3 *653:8 *3346:A 42.6986 
*END

*D_NET *654 0.00302627
*CONN
*I *3399:A I *D sg13cmos5l_dlygate4sd3_1
*I *2345:A I *D sg13cmos5l_nand2_1
*I *2989:Q O *D sg13cmos5l_dfrbpq_1
*CAP
1 *3399:A 0
2 *2345:A 0
3 *2989:Q 0.000551075
4 *654:24 0.000612728
5 *654:12 0.000745189
6 *654:8 0.000683535
7 *654:8 *771:94 0
8 *654:8 *932:16 0
9 *654:8 *1101:24 0
10 *654:12 *1057:29 0
11 *654:24 *2553:A1 0.000112425
12 *654:24 *3497:A 0
13 *654:24 *811:8 0
14 *654:24 *813:14 0
15 *654:24 *1057:29 0
16 sel_load_src_o[5] *654:12 0.000208878
17 sel_load_src_o[5] *654:24 0
18 *2345:B *654:24 0
19 *2554:B *654:24 0.000112437
20 *109:10 *654:24 0
*RES
1 *2989:Q *654:8 44.5526 
2 *654:8 *654:12 21.4008 
3 *654:12 *654:24 45.5414 
4 *654:24 *2345:A 20 
5 *654:12 *3399:A 20 
*END

*D_NET *655 0.00223466
*CONN
*I *2376:A1 I *D sg13cmos5l_mux2_1
*I *3358:A I *D sg13cmos5l_dlygate4sd3_1
*I *3045:Q O *D sg13cmos5l_dfrbpq_1
*CAP
1 *2376:A1 0
2 *3358:A 0
3 *3045:Q 0
4 *655:25 0.000157038
5 *655:12 0.000163946
6 *655:4 0.000320983
7 *655:12 *773:78 8.01609e-05
8 *655:12 *784:10 0.000340288
9 *655:12 *841:14 0.000499383
10 *655:25 *755:31 7.55443e-05
11 *655:25 *773:78 0.000160112
12 *27:10 *655:25 0.000181608
13 *623:8 *655:12 8.00842e-05
14 *623:8 *655:25 0.000175513
*RES
1 *3045:Q *655:4 20 
2 *655:4 *655:12 42.8634 
3 *655:12 *3358:A 20 
4 *655:4 *655:25 42.0291 
5 *655:25 *2376:A1 20 
*END

*D_NET *656 0.00348002
*CONN
*I *3365:A I *D sg13cmos5l_dlygate4sd3_1
*I *2377:A1 I *D sg13cmos5l_mux2_1
*I *3047:Q O *D sg13cmos5l_dfrbpq_1
*CAP
1 *3365:A 0.000488478
2 *2377:A1 0.000350214
3 *3047:Q 6.2679e-05
4 *656:8 0.000901372
5 *2377:A1 *756:78 1.54008e-05
6 *2377:A1 *837:10 0.000555822
7 *2377:A1 *944:12 0
8 *2377:A1 *1076:16 0
9 *3365:A *702:8 8.00842e-05
10 *3365:A *837:10 0.000424255
11 *3365:A *1134:14 0
12 *3365:A *1138:116 0.000234224
13 *3257:A *3365:A 7.91347e-05
14 *127:10 *3365:A 0
15 *287:14 *2377:A1 0
16 *287:26 *2377:A1 0
17 *287:26 *656:8 7.91347e-05
18 *317:16 *3365:A 0.000209225
19 *329:14 *2377:A1 0
*RES
1 *3047:Q *656:8 40.5356 
2 *656:8 *2377:A1 43.7595 
3 *656:8 *3365:A 45.3457 
*END

*D_NET *657 0.0069614
*CONN
*I *3408:A I *D sg13cmos5l_dlygate4sd3_1
*I *2347:A1 I *D sg13cmos5l_mux2_1
*I *2991:Q O *D sg13cmos5l_dfrbpq_1
*CAP
1 *3408:A 0.000572127
2 *2347:A1 0
3 *2991:Q 0.000312997
4 *657:26 0.00188484
5 *657:8 0.00276997
6 *3408:A *2989:CLK 0
7 *3408:A *3188:A 0
8 *3408:A *3191:A 0
9 *3408:A *686:10 0
10 *3408:A *686:21 0
11 *657:8 *716:8 0
12 *657:8 *810:16 0
13 *657:26 *2464:A 0
14 *657:26 *2989:RESET_B 0
15 *657:26 *3191:A 0
16 *657:26 *658:18 0
17 *657:26 *686:27 0
18 *657:26 *757:55 8.00842e-05
19 *657:26 *810:16 0
20 *657:26 *830:10 0.000182109
21 *657:26 *1087:8 0.000144872
22 *657:26 *1114:86 0
23 *657:26 *1129:130 0.00053235
24 *2925:D *657:26 0.000144742
25 *2989:D *657:26 0
26 *633:10 *657:26 0.000337313
*RES
1 *2991:Q *657:8 43.5638 
2 *657:8 *657:26 37.4512 
3 *657:26 *2347:A1 20 
4 *657:8 *3408:A 44.9955 
*END

*D_NET *658 0.00816782
*CONN
*I *3381:A I *D sg13cmos5l_dlygate4sd3_1
*I *2348:A1 I *D sg13cmos5l_mux2_1
*I *2993:Q O *D sg13cmos5l_dfrbpq_1
*CAP
1 *3381:A 5.86827e-05
2 *2348:A1 0
3 *2993:Q 0.000675486
4 *658:36 0.000481204
5 *658:28 0.00155655
6 *658:18 0.00180951
7 *3381:A *664:230 0
8 *3381:A *664:254 0
9 *658:18 *771:94 0
10 *658:18 *808:14 0.000341119
11 *658:18 *1114:86 0.000176405
12 *658:18 *1137:101 0.000241847
13 *658:28 *2424:B 8.02595e-05
14 *658:28 *2440:B 0.000225967
15 *658:28 *2535:A 0
16 *658:28 *2538:A1 0
17 *658:28 *662:10 0.00034079
18 *658:28 *662:39 0.000144848
19 *658:28 *1027:27 0.00014514
20 *658:28 *1125:58 0
21 *658:28 *1129:115 0.000145042
22 *658:28 *1129:122 3.24568e-05
23 *658:28 *1140:66 0.000467535
24 *658:36 *662:39 0.000234224
25 *658:36 *757:55 0
26 *658:36 *758:141 4.77425e-05
27 *658:36 *924:8 0.000144583
28 *658:36 *1095:42 0
29 *2438:C *658:28 0
30 *2989:D *658:18 4.77425e-05
31 *100:12 *658:18 0.000181279
32 *100:12 *658:28 0.000129077
33 *222:12 *658:28 0
34 *234:12 *658:28 0.000144025
35 *626:8 *658:36 0.000236081
36 *632:16 *658:28 8.0216e-05
37 *657:26 *658:18 0
*RES
1 *2993:Q *658:18 47.3233 
2 *658:18 *658:28 31.7214 
3 *658:28 *658:36 44.7792 
4 *658:36 *2348:A1 20 
5 *658:18 *3381:A 40.5176 
*END

*D_NET *659 0.00527078
*CONN
*I *3363:A I *D sg13cmos5l_dlygate4sd3_1
*I *2349:A1 I *D sg13cmos5l_mux2_1
*I *2995:Q O *D sg13cmos5l_dfrbpq_1
*CAP
1 *3363:A 0.000257696
2 *2349:A1 0.000306247
3 *2995:Q 5.29658e-05
4 *659:20 0.00107702
5 *659:8 0.00108143
6 *2349:A1 *2349:A0 0.000240405
7 *2349:A1 *661:18 0
8 *2349:A1 *1094:14 0
9 *3363:A *734:103 0
10 *3363:A *743:51 0
11 *659:8 *734:103 0
12 *659:20 *2443:A 0.000724602
13 *659:20 *2923:RESET_B 0
14 *659:20 *956:16 7.51285e-05
15 *659:20 *1094:14 0.000207854
16 *659:20 *1129:80 0
17 *2923:D *659:20 0.000176405
18 *224:37 *2349:A1 0.000176161
19 *295:19 *3363:A 0.000584095
20 *295:19 *659:8 0.00018261
21 *627:29 *659:20 0.00012816
*RES
1 *2995:Q *659:8 40.8446 
2 *659:8 *659:20 47.8589 
3 *659:20 *2349:A1 42.9149 
4 *659:8 *3363:A 43.3578 
*END

*D_NET *660 0.00751628
*CONN
*I *3386:A I *D sg13cmos5l_dlygate4sd3_1
*I *2350:A1 I *D sg13cmos5l_mux2_1
*I *2997:Q O *D sg13cmos5l_dfrbpq_1
*CAP
1 *3386:A 0
2 *2350:A1 0.000732015
3 *2997:Q 0.00153323
4 *660:39 0.000181272
5 *660:20 0.00244652
6 *2350:A1 *2350:A0 1.54008e-05
7 *2350:A1 *1033:30 0
8 *2350:A1 *1139:26 0
9 *660:20 *2430:A 0
10 *660:20 *2540:S 0
11 *660:20 *2542:S 0
12 *660:20 *2598:A 0
13 *660:20 *2999:RESET_B 0
14 *660:20 *2999:CLK 0.000274397
15 *660:20 *710:20 0.000466064
16 *660:20 *767:27 0
17 *660:20 *1033:10 0.000595865
18 *660:20 *1129:8 7.94972e-05
19 *660:39 *963:8 0.000340374
20 *220:33 *2350:A1 0
21 *220:33 *660:20 0
22 *225:8 *660:39 0
23 *225:18 *2350:A1 1.54008e-05
24 *225:18 *660:20 0.000241341
25 *225:31 *2350:A1 0.000594907
*RES
1 *2997:Q *660:20 35.4732 
2 *660:20 *2350:A1 26.677 
3 *660:20 *660:39 42.1192 
4 *660:39 *3386:A 20 
*END

*D_NET *661 0.00728555
*CONN
*I *2351:A1 I *D sg13cmos5l_mux2_1
*I *3404:A I *D sg13cmos5l_dlygate4sd3_1
*I *2999:Q O *D sg13cmos5l_dfrbpq_1
*CAP
1 *2351:A1 0.000513563
2 *3404:A 0
3 *2999:Q 0.00178693
4 *661:26 0.000418145
5 *661:18 0.00271864
6 *2351:A1 *2349:A0 4.77425e-05
7 *2351:A1 *2351:A0 1.54008e-05
8 *2351:A1 *2475:A 0
9 *661:18 *2349:A0 0.000208063
10 *661:18 *2432:A 0.000144899
11 *661:18 *2923:RESET_B 0
12 *661:18 *1033:10 0
13 *661:26 *757:55 0.000872269
14 *2349:A1 *661:18 0
15 *2349:S *2351:A1 0
16 *2349:S *661:18 0
17 *2432:C *661:18 0.000176564
18 *224:37 *2351:A1 0
19 *236:12 *661:18 0
20 *254:14 *2351:A1 0
21 *258:14 *2351:A1 0.000240984
22 *294:27 *661:18 0
23 *294:52 *2351:A1 0
24 *294:52 *661:18 7.9274e-05
25 *627:12 *661:18 1.53295e-05
26 *636:34 *661:26 4.77425e-05
*RES
1 *2999:Q *661:18 35.5198 
2 *661:18 *661:26 44.3775 
3 *661:26 *3404:A 20 
4 *661:18 *2351:A1 24.9131 
*END

*D_NET *662 0.0104892
*CONN
*I *2563:A0 I *D sg13cmos5l_mux2_1
*I *2352:A1 I *D sg13cmos5l_mux2_1
*I *2546:A1 I *D sg13cmos5l_mux2_1
*I *3001:Q O *D sg13cmos5l_dfrbpq_1
*CAP
1 *2563:A0 0.000505806
2 *2352:A1 2.77263e-05
3 *2546:A1 7.43067e-05
4 *3001:Q 0.000557949
5 *662:43 0.00144761
6 *662:39 0.00132877
7 *662:27 0.00124792
8 *662:10 0.00146548
9 *2546:A1 *2530:A1 7.56299e-05
10 *2546:A1 *997:8 0.000106064
11 *2563:A0 *664:180 0
12 *662:10 *2535:A 0
13 *662:10 *664:254 0
14 *662:10 *771:50 0
15 *662:10 *997:8 0.000234224
16 *662:10 *1129:115 0
17 *662:27 *2440:A 0.000341204
18 *662:27 *684:23 0
19 *662:27 *771:73 0
20 *662:27 *810:10 0
21 *662:27 *1094:20 0.000660228
22 *662:39 *758:131 0.000234224
23 *662:43 *2452:B 0
24 *662:43 *664:180 0
25 *662:43 *758:131 0.000143913
26 *662:43 *939:10 4.77425e-05
27 *662:43 *1114:96 0.000433847
28 *2438:B *662:39 0
29 *2438:C *662:39 0.000144726
30 *2441:C *662:27 0.000112536
31 *2467:C *2563:A0 0
32 *2919:A1 *662:27 0.00027437
33 *2919:S *662:27 0
34 *3017:D *2563:A0 0
35 *3384:A *2352:A1 0
36 *3384:A *2563:A0 0
37 *49:14 *662:10 0
38 *234:12 *662:39 0
39 *241:37 *2563:A0 0.000112563
40 *242:12 *662:43 0
41 *295:23 *662:27 3.23417e-05
42 *295:33 *662:27 4.77425e-05
43 *600:21 *662:27 0
44 *600:29 *662:27 0
45 *630:12 *662:43 0
46 *632:8 *662:27 0.000112426
47 *632:16 *662:10 0
48 *658:28 *662:10 0.00034079
49 *658:28 *662:39 0.000144848
50 *658:36 *662:39 0.000234224
*RES
1 *3001:Q *662:10 45.7371 
2 *662:10 *2546:A1 40.8446 
3 *662:10 *662:27 48.4243 
4 *662:27 *662:39 44.4599 
5 *662:39 *662:43 28.9713 
6 *662:43 *2352:A1 20.3502 
7 *662:43 *2563:A0 25.047 
*END

*D_NET *663 0.0128995
*CONN
*I *2565:A0 I *D sg13cmos5l_mux2_1
*I *2353:A1 I *D sg13cmos5l_mux2_1
*I *2548:A1 I *D sg13cmos5l_mux2_1
*I *3003:Q O *D sg13cmos5l_dfrbpq_1
*CAP
1 *2565:A0 0
2 *2353:A1 0
3 *2548:A1 0.000429365
4 *3003:Q 0.000720402
5 *663:52 0.000425341
6 *663:37 0.00258822
7 *663:14 0.00305291
8 *663:12 0.00118107
9 *2548:A1 *2987:RESET_B 4.77425e-05
10 *663:12 *712:10 0
11 *663:12 *768:76 0
12 *663:12 *768:85 0
13 *663:12 *815:10 0
14 *663:12 *1157:76 0
15 *663:14 *1114:30 0
16 *663:37 *2557:A0 0
17 *663:37 *2558:A 0.000175721
18 *663:37 *2558:B 0.000176161
19 *663:37 *2985:RESET_B 0.000208272
20 *663:37 *3015:CLK 0.000339054
21 *663:37 *932:10 0
22 *663:37 *947:10 0.000177164
23 *663:37 *987:46 0
24 *663:37 *1135:6 0.000241242
25 *663:37 *1135:21 0.000175644
26 *663:37 *1135:80 0.000467133
27 *663:37 *1139:75 0
28 *663:52 *3015:CLK 0.000209637
29 *663:52 *668:12 8.00954e-05
30 *663:52 *1010:22 0
31 *663:52 *1050:8 7.51285e-05
32 *663:52 *1051:8 0
33 *663:52 *1098:14 0.000554078
34 *663:52 *1128:27 0
35 *2481:A *663:37 0.000112426
36 *2985:D *2548:A1 0
37 *3258:A *663:37 0.000403296
38 *3261:A *663:37 0.00030564
39 *3389:A *2548:A1 0
40 *3389:A *663:37 0
41 *98:10 *2548:A1 0
42 *98:10 *663:12 4.75151e-05
43 *98:10 *663:14 0
44 *111:10 *663:37 0.000401019
45 *187:14 *2548:A1 0
46 *247:8 *663:52 0
47 *262:10 *663:37 0
48 *627:44 *663:37 0.00030522
49 *643:21 *2548:A1 0
50 *643:21 *663:12 0
51 *643:21 *663:14 0
*RES
1 *3003:Q *663:12 46.8289 
2 *663:12 *663:14 5.047 
3 *663:14 *2548:A1 44.3363 
4 *663:14 *663:37 41.7536 
5 *663:37 *2353:A1 20 
6 *663:37 *663:52 45.253 
7 *663:52 *2565:A0 20 
*END

*D_NET *664 0.0508453
*CONN
*I *3185:A I *D sg13cmos5l_buf_8
*I *3171:A I *D sg13cmos5l_buf_8
*I *3172:A I *D sg13cmos5l_buf_8
*I *3184:A I *D sg13cmos5l_buf_8
*I *3176:A I *D sg13cmos5l_buf_8
*I *3175:A I *D sg13cmos5l_buf_8
*I *3174:A I *D sg13cmos5l_buf_8
*I *3182:A I *D sg13cmos5l_buf_8
*I *3183:A I *D sg13cmos5l_buf_8
*I *3181:A I *D sg13cmos5l_buf_8
*I *3180:A I *D sg13cmos5l_buf_8
*I *3173:A I *D sg13cmos5l_buf_8
*I *3179:A I *D sg13cmos5l_buf_8
*I *3178:A I *D sg13cmos5l_buf_8
*I *3177:A I *D sg13cmos5l_buf_8
*I *3170:A I *D sg13cmos5l_buf_8
*I *3169:X O *D sg13cmos5l_buf_8
*CAP
1 *3185:A 0
2 *3171:A 0
3 *3172:A 0
4 *3184:A 0
5 *3176:A 2.77263e-05
6 *3175:A 0.000112657
7 *3174:A 9.30906e-05
8 *3182:A 0
9 *3183:A 1.81481e-05
10 *3181:A 6.84928e-05
11 *3180:A 6.01402e-05
12 *3173:A 4.72978e-05
13 *3179:A 0
14 *3178:A 0
15 *3177:A 0
16 *3170:A 0
17 *3169:X 0.000246599
18 *664:414 0.000650751
19 *664:409 0.000650751
20 *664:407 0.000100262
21 *664:403 0.00126877
22 *664:395 0.00320194
23 *664:382 0.00210068
24 *664:373 6.72528e-05
25 *664:369 0.000529056
26 *664:364 0.000529056
27 *664:362 5.56066e-05
28 *664:344 0.000417547
29 *664:335 0.000440655
30 *664:331 0.000258992
31 *664:327 0.0016486
32 *664:293 0.000683406
33 *664:256 0.00108346
34 *664:254 0.00281757
35 *664:230 0.00257633
36 *664:190 0.000935404
37 *664:188 0.000299145
38 *664:180 0.00183863
39 *664:164 0.00251423
40 *664:152 0.00179575
41 *664:143 0.000441983
42 *664:134 0.000297493
43 *664:130 0.000417354
44 *664:126 0.00441881
45 *664:117 0.00259024
46 *664:115 0.000115849
47 *664:111 0.00141208
48 *664:98 0.00150953
49 *664:72 0.000742126
50 *664:60 8.89508e-05
51 *664:55 0.000831076
52 *664:51 0.00153675
53 *664:38 0.00163432
54 *664:36 9.7576e-05
55 *664:32 0.000944736
56 *664:27 0.000944736
57 *664:25 9.30631e-05
58 *664:19 0.0027974
59 *664:6 0.00279325
60 *3174:A *1010:16 0
61 *3175:A *948:51 0
62 *3176:A *948:51 0
63 *3180:A *3051:CLK 0
64 *3183:A *808:14 0
65 *664:6 *751:27 0
66 *664:6 *766:43 0
67 *664:19 *674:8 0
68 *664:19 *766:43 0
69 *664:19 *766:55 0
70 *664:19 *876:59 0
71 *664:19 *876:71 0
72 *664:19 *876:86 0
73 *664:19 *1147:46 0
74 *664:38 *2806:A1 0
75 *664:51 *2767:A 0
76 *664:51 *2806:A1 0
77 *664:51 *2810:S 0
78 *664:51 *1116:111 0
79 *664:51 *1124:74 0
80 *664:51 *1124:89 0
81 *664:51 *1153:12 0
82 *664:60 *2630:A 0
83 *664:72 *2630:A 0
84 *664:72 *734:10 0
85 *664:72 *1152:68 0
86 *664:98 *751:27 0
87 *664:98 *766:43 0
88 *664:111 *3115:RESET_B 0
89 *664:111 *3131:RESET_B 0
90 *664:111 *3194:A 0
91 *664:111 *751:27 0
92 *664:111 *766:43 0
93 *664:111 *1129:50 0
94 *664:111 *1144:47 0
95 *664:115 *1144:47 0
96 *664:126 *2498:B 0
97 *664:126 *2955:CLK 0
98 *664:126 *680:14 0
99 *664:126 *689:12 0
100 *664:126 *736:80 0
101 *664:126 *738:35 0
102 *664:126 *740:95 0
103 *664:126 *941:8 0
104 *664:126 *1138:33 0
105 *664:130 *912:26 0
106 *664:152 *880:10 0
107 *664:164 *2564:A 0
108 *664:164 *3017:CLK 0
109 *664:164 *698:37 0
110 *664:180 *902:8 0
111 *664:180 *1114:96 0
112 *664:188 *2435:A 0
113 *664:188 *2440:A 0
114 *664:188 *902:8 0
115 *664:190 *2435:A 0
116 *664:190 *2440:A 0
117 *664:230 *2433:A 0
118 *664:230 *2435:A 0
119 *664:230 *2440:A 0
120 *664:230 *2556:B 0
121 *664:230 *1094:32 0
122 *664:230 *1135:33 0
123 *664:254 *2535:A 0
124 *664:254 *2603:A0 0
125 *664:254 *3057:RESET_B 0
126 *664:254 *3057:CLK 0
127 *664:254 *808:14 0
128 *664:254 *826:14 0
129 *664:254 *830:10 0
130 *664:254 *1114:56 0
131 *664:256 *3165:A 0
132 *664:256 *731:49 0
133 *664:293 *854:14 0
134 *664:293 *880:10 0
135 *664:327 *2969:RESET_B 0
136 *664:327 *2969:D 0
137 *664:327 *912:26 0
138 *664:331 *776:54 0
139 *664:331 *948:51 0
140 *664:335 *776:54 0
141 *664:335 *948:51 0
142 *664:344 *948:51 0
143 *664:362 *1144:47 0
144 *664:369 *736:62 0
145 *664:369 *738:35 0
146 *664:369 *740:95 0
147 *664:382 *1126:103 0
148 *664:395 *2911:A 0
149 *664:395 *736:34 0
150 *664:395 *736:45 0
151 *664:395 *736:62 0
152 *664:395 *1115:8 0
153 *664:395 *1119:121 0
154 *664:395 *1126:103 0
155 *664:403 *739:93 0
156 *664:403 *740:108 0
157 *664:403 *761:43 0
158 *664:403 *1119:131 0
159 *664:403 *1126:93 0
160 *664:407 *740:108 0
161 *664:414 *2909:A1 0
162 *664:414 *744:42 0
163 *664:414 *901:22 0
164 *664:414 *1155:59 0
165 *2362:A2 *664:130 0
166 *2362:A2 *664:327 0
167 *2435:B *664:230 0
168 *2438:C *664:188 0
169 *2438:C *664:230 0
170 *2508:B *3175:A 0
171 *2508:B *664:335 0
172 *2508:B *664:344 0
173 *2563:A0 *664:180 0
174 *2692:B *664:51 0
175 *2810:A1 *664:51 0
176 *2839:B *664:25 0
177 *2927:D *664:188 0
178 *3302:A *664:180 0
179 *3304:A *664:327 0
180 *3315:A *664:180 0
181 *3341:A *664:327 0
182 *3381:A *664:230 0
183 *3381:A *664:254 0
184 *3383:A *3174:A 0
185 *3395:A *664:164 0
186 *5:30 *664:19 0
187 *16:20 *664:152 0
188 *16:26 *664:152 0
189 *16:26 *664:293 0
190 *82:12 *3173:A 0
191 *82:12 *664:152 0
192 *83:12 *664:126 0
193 *100:12 *664:230 0
194 *114:8 *664:164 0
195 *134:12 *664:256 0
196 *183:22 *664:19 0
197 *186:26 *664:327 0
198 *219:12 *664:32 0
199 *225:53 *664:19 0
200 *225:53 *664:111 0
201 *225:53 *664:115 0
202 *229:18 *664:230 0
203 *241:37 *664:164 0
204 *241:37 *664:180 0
205 *241:37 *664:327 0
206 *241:56 *664:327 0
207 *259:18 *664:143 0
208 *259:18 *664:152 0
209 *269:35 *664:344 0
210 *277:22 *664:327 0
211 *278:14 *664:327 0
212 *281:16 *664:126 0
213 *293:25 *664:32 0
214 *295:33 *664:254 0
215 *298:10 *664:230 0
216 *298:10 *664:254 0
217 *331:24 *664:60 0
218 *331:24 *664:72 0
219 *399:18 *664:51 0
220 *465:26 *664:403 0
221 *465:26 *664:407 0
222 *467:44 *664:25 0
223 *514:10 *664:72 0
224 *544:10 *664:19 0
225 *544:10 *664:32 0
226 *596:8 *664:414 0
227 *638:33 *664:126 0
228 *640:34 *664:130 0
229 *662:10 *664:254 0
230 *662:43 *664:180 0
*RES
1 *3169:X *664:6 20.8601 
2 *664:6 *664:19 42.1502 
3 *664:19 *664:25 20.7519 
4 *664:25 *664:27 20 
5 *664:27 *664:32 8.0134 
6 *664:32 *664:36 20 
7 *664:36 *664:38 0.9682 
8 *664:38 *664:51 13.3986 
9 *664:51 *664:55 20 
10 *664:55 *664:60 0.8446 
11 *664:60 *3170:A 40 
12 *664:55 *664:72 7.0246 
13 *664:72 *3177:A 40 
14 *664:36 *3178:A 20 
15 *664:25 *3179:A 20 
16 *3169:X *664:98 21.4008 
17 *664:98 *664:111 12.5042 
18 *664:111 *664:115 0.5356 
19 *664:115 *664:117 20 
20 *664:117 *664:126 23.5149 
21 *664:126 *664:130 22.266 
22 *664:130 *664:134 1.1845 
23 *664:134 *3173:A 20.5974 
24 *664:134 *664:143 0.9682 
25 *664:143 *664:152 22.8943 
26 *664:152 *664:164 46.8766 
27 *664:164 *664:180 34.626 
28 *664:180 *664:188 2.1321 
29 *664:188 *664:190 0.9682 
30 *664:190 *664:230 49.0975 
31 *664:230 *664:254 34.9189 
32 *664:254 *664:256 7.519 
33 *664:256 *3180:A 40.5356 
34 *664:254 *3181:A 40.5356 
35 *664:230 *3183:A 20.3013 
36 *664:188 *3182:A 20 
37 *664:152 *664:293 5.2942 
38 *664:293 *3174:A 40.7519 
39 *664:126 *664:327 33.6419 
40 *664:327 *664:331 0.9682 
41 *664:331 *664:335 1.3287 
42 *664:335 *664:344 2.9561 
43 *664:344 *3175:A 20.9682 
44 *664:331 *3176:A 20.3502 
45 *664:115 *664:362 0.5356 
46 *664:362 *664:364 20 
47 *664:364 *664:369 5.2942 
48 *664:369 *664:373 20 
49 *664:373 *3184:A 20 
50 *664:373 *664:382 20.5356 
51 *664:382 *664:395 37.0053 
52 *664:395 *664:403 49.7541 
53 *664:403 *664:407 0.9682 
54 *664:407 *664:409 20 
55 *664:409 *664:414 6.5302 
56 *664:414 *3172:A 40 
57 *664:407 *3171:A 20 
58 *664:362 *3185:A 20 
*END

*D_NET *665 0.00485522
*CONN
*I *3186:A I *D sg13cmos5l_buf_8
*I *3197:A I *D sg13cmos5l_buf_8
*I *3170:X O *D sg13cmos5l_buf_8
*CAP
1 *3186:A 0.000167335
2 *3197:A 0.000331618
3 *3170:X 0.000462597
4 *665:29 0.0010262
5 *665:8 0.00165308
6 *3197:A *2400:B1 0
7 *665:29 *2395:A2 0
8 *665:29 *2400:B1 0
9 *665:29 *3081:CLK 0.000182121
10 *665:29 *681:10 0.000181385
11 *665:29 *721:22 0
12 *2400:A1 *665:29 0.000336779
13 *2405:A1 *665:29 0.000514112
14 *2406:A *665:29 0
15 *196:10 *665:29 0
16 *207:8 *3197:A 0
17 *207:8 *665:8 0
18 *331:24 *3197:A 0
19 *331:24 *665:8 0
*RES
1 *3170:X *665:8 44.5526 
2 *665:8 *3197:A 43.0694 
3 *665:8 *665:29 49.1258 
4 *665:29 *3186:A 41.3596 
*END

*D_NET *666 0.00466041
*CONN
*I *3199:A I *D sg13cmos5l_buf_8
*I *3198:A I *D sg13cmos5l_buf_8
*I *3171:X O *D sg13cmos5l_buf_8
*CAP
1 *3199:A 0.000799043
2 *3198:A 0
3 *3171:X 0.000798779
4 *666:22 0.000290094
5 *666:14 0.00114635
6 *666:10 0.000855994
7 *3199:A *694:8 0
8 *3199:A *733:64 0
9 *3199:A *747:12 0
10 *3199:A *762:158 0
11 *666:10 *744:42 0
12 *666:10 *1083:14 0
13 *666:10 *1126:87 0
14 *666:22 *739:59 0.000448427
15 *666:22 *744:42 0
16 *666:22 *1126:87 0
17 *666:22 *1142:90 0
18 *2672:B *666:14 0
19 *2672:C *3199:A 0
20 *2672:C *666:14 0
21 *2726:A *666:10 0.000241522
22 *381:8 *666:10 0
23 *411:41 *3199:A 0
24 *411:47 *3199:A 0
25 *449:20 *666:22 8.01938e-05
*RES
1 *3171:X *666:10 46.1593 
2 *666:10 *666:14 20.5356 
3 *666:14 *666:22 43.605 
4 *666:22 *3198:A 20 
5 *666:14 *3199:A 26.4452 
*END

*D_NET *667 0.00612376
*CONN
*I *3200:A I *D sg13cmos5l_buf_8
*I *3201:A I *D sg13cmos5l_buf_8
*I *3172:X O *D sg13cmos5l_buf_8
*CAP
1 *3200:A 0.000100154
2 *3201:A 0
3 *3172:X 0.000529872
4 *667:16 0.00110209
5 *667:8 0.00173212
6 *3200:A *976:26 0.000479364
7 *3200:A *1017:10 0.000447271
8 *667:8 *746:71 0
9 *667:8 *773:42 0
10 *667:8 *901:22 0
11 *667:8 *976:26 0.00113876
12 *667:8 *1018:10 0
13 *667:16 *2592:A1 0
14 *667:16 *2981:CLK 0.00043434
15 *667:16 *3029:CLK 0
16 *667:16 *753:46 0
17 *667:16 *773:42 0.000111876
18 *667:16 *1134:39 0
19 *290:22 *667:16 0
20 *294:86 *667:16 4.79124e-05
*RES
1 *3172:X *667:8 46.283 
2 *667:8 *667:16 30.0734 
3 *667:16 *3201:A 20 
4 *667:8 *3200:A 42.3278 
*END

*D_NET *668 0.00446932
*CONN
*I *3203:A I *D sg13cmos5l_buf_8
*I *3202:A I *D sg13cmos5l_buf_8
*I *3173:X O *D sg13cmos5l_buf_8
*CAP
1 *3203:A 0.000391439
2 *3202:A 0
3 *3173:X 0
4 *668:12 0.00123649
5 *668:6 0.00162792
6 *3203:A *912:14 0.000690989
7 *3203:A *1021:8 0
8 *668:12 *2480:B 9.05293e-05
9 *668:12 *2510:B 0
10 *668:12 *2565:S 0
11 *668:12 *3233:A 0
12 *668:12 *3236:A 4.78356e-05
13 *668:12 *775:10 0
14 *668:12 *797:10 0
15 *668:12 *912:14 0.00018128
16 *668:12 *1021:8 0
17 *668:12 *1128:27 0
18 *16:20 *3203:A 0
19 *16:26 *3203:A 0
20 *259:10 *3203:A 7.52158e-05
21 *263:37 *668:12 0
22 *263:43 *668:12 0
23 *604:10 *668:12 4.75229e-05
24 *663:52 *668:12 8.00954e-05
*RES
1 *3173:X *668:6 40 
2 *668:6 *668:12 31.7008 
3 *668:12 *3202:A 20 
4 *668:6 *3203:A 44.3054 
*END

*D_NET *669 0.00479099
*CONN
*I *3205:A I *D sg13cmos5l_buf_8
*I *3204:A I *D sg13cmos5l_buf_8
*I *3174:X O *D sg13cmos5l_buf_8
*CAP
1 *3205:A 0.00078478
2 *3204:A 0.000797513
3 *3174:X 0.00158229
4 *3204:A *2959:CLK 0
5 *3204:A *3023:RESET_B 0
6 *3204:A *699:28 0
7 *3204:A *734:107 0
8 *3204:A *742:88 0.000175938
9 *3204:A *779:23 0
10 *3204:A *1010:16 0
11 *3205:A *779:23 0
12 *3205:A *779:27 0
13 *2489:C *3204:A 0
14 *3323:A *3204:A 0
15 *3323:A *3205:A 0
16 *3367:A *3205:A 0.000498818
17 *3383:A *3204:A 0
18 *16:26 *3205:A 0
19 *269:47 *3205:A 0.000951643
*RES
1 *3174:X *3204:A 47.2409 
2 *3174:X *3205:A 47.7736 
*END

*D_NET *670 0.00780183
*CONN
*I *3206:A I *D sg13cmos5l_buf_8
*I *3207:A I *D sg13cmos5l_buf_8
*I *3175:X O *D sg13cmos5l_buf_8
*CAP
1 *3206:A 0.000576967
2 *3207:A 0.000897352
3 *3175:X 0.000248166
4 *670:12 0.00172248
5 *3206:A *943:14 0
6 *3207:A *2590:A1 0
7 *3207:A *2971:RESET_B 0.000241913
8 *3207:A *2979:D 0.000240196
9 *3207:A *899:22 0
10 *3207:A *943:14 0
11 *3207:A *1134:14 0
12 *670:12 *778:51 0.000144089
13 *670:12 *888:26 0.000255975
14 *670:12 *899:22 0
15 *3035:D *3207:A 0.000209544
16 *3287:A *3207:A 0
17 *3347:A *3207:A 0
18 *25:14 *3206:A 0.0016148
19 *25:14 *3207:A 0.000393736
20 *127:10 *3207:A 0.000787739
21 *279:22 *3206:A 0.000287256
22 *649:10 *3206:A 0.000181608
*RES
1 *3175:X *670:12 42.5029 
2 *670:12 *3207:A 49.5069 
3 *670:12 *3206:A 47.8383 
*END

*D_NET *671 0.00727376
*CONN
*I *3210:A I *D sg13cmos5l_buf_8
*I *3209:A I *D sg13cmos5l_buf_8
*I *3176:X O *D sg13cmos5l_buf_8
*CAP
1 *3210:A 0.00143564
2 *3209:A 0.000386821
3 *3176:X 0.000326093
4 *671:10 0.00182246
5 *671:8 0.000326093
6 *3209:A *3037:CLK 1.54008e-05
7 *3209:A *704:32 0
8 *3209:A *905:28 0.000529883
9 *3209:A *988:8 0.000175721
10 *3210:A *2572:A1 0
11 *3210:A *2961:CLK 0.000853657
12 *3210:A *3037:CLK 0.000225213
13 *3210:A *705:12 0
14 *3210:A *705:14 0
15 *3210:A *744:54 0.000304924
16 *3210:A *877:30 0
17 *671:8 *750:60 0.000871853
18 *671:8 *848:12 0
19 *671:8 *927:14 0
20 *671:8 *1010:8 0
21 *3370:A *3210:A 0
22 *3391:A *3210:A 0
23 *269:47 *3209:A 0
24 *269:47 *3210:A 0
25 *318:10 *3210:A 0
*RES
1 *3176:X *671:8 44.0582 
2 *671:8 *671:10 20 
3 *671:10 *3209:A 23.9964 
4 *671:10 *3210:A 33.9668 
*END

*D_NET *672 0.00473939
*CONN
*I *3211:A I *D sg13cmos5l_buf_8
*I *3208:A I *D sg13cmos5l_buf_8
*I *3177:X O *D sg13cmos5l_buf_8
*CAP
1 *3211:A 0.00081233
2 *3208:A 0
3 *3177:X 0.000130364
4 *672:16 0.00112898
5 *672:8 0.00207167
6 *3211:A *3109:CLK 0
7 *3211:A *706:8 0
8 *3211:A *706:10 0
9 *3211:A *788:32 0.00033953
10 *3211:A *1031:36 0
11 *3211:A *1141:81 0
12 *3211:A *1152:98 0
13 *672:8 *3109:CLK 0
14 *672:8 *734:10 0
15 *672:8 *853:8 0
16 *672:8 *1152:98 0
17 *672:16 *2628:B 1.54008e-05
18 *672:16 *2633:A1 0.000241116
19 *672:16 *1141:49 0
20 *672:16 *1141:53 0
21 *672:16 *1152:31 0
22 *672:16 *1152:37 0
23 *3077:D *672:16 0
24 *5:18 *3211:A 0
25 *350:10 *672:16 0
*RES
1 *3177:X *672:8 41.0918 
2 *672:8 *672:16 30.0734 
3 *672:16 *3208:A 20 
4 *672:8 *3211:A 48.549 
*END

*D_NET *673 0.00472824
*CONN
*I *3212:A I *D sg13cmos5l_buf_8
*I *3213:A I *D sg13cmos5l_buf_8
*I *3178:X O *D sg13cmos5l_buf_8
*CAP
1 *3212:A 0.000477582
2 *3213:A 0.000282709
3 *3178:X 0.000525066
4 *673:18 0.00052583
5 *673:8 0.00124577
6 *3212:A *2759:A 0
7 *3212:A *3431:A 1.54008e-05
8 *3212:A *707:8 0
9 *3212:A *758:10 0
10 *3212:A *760:29 0
11 *3212:A *1072:23 0
12 *3213:A *2759:A 0.00014402
13 *3213:A *1119:46 0.000467645
14 *673:8 *758:10 7.51285e-05
15 *673:8 *758:29 0.000159598
16 *673:18 *2759:A 0
17 *673:18 *758:10 0.000229444
18 *673:18 *760:29 0
19 *673:18 *876:59 0.000234224
20 *2759:B *3213:A 0
21 *219:12 *673:8 0
22 *219:12 *673:18 0
23 *293:25 *673:8 0
24 *293:25 *673:18 0.000234224
25 *472:10 *673:18 0.000111595
*RES
1 *3178:X *673:8 44.7998 
2 *673:8 *673:18 43.1518 
3 *673:18 *3213:A 43.1312 
4 *673:8 *3212:A 43.9964 
*END

*D_NET *674 0.00412982
*CONN
*I *3215:A I *D sg13cmos5l_buf_8
*I *3214:A I *D sg13cmos5l_buf_8
*I *3179:X O *D sg13cmos5l_buf_8
*CAP
1 *3215:A 0.000177914
2 *3214:A 0.00075005
3 *3179:X 0.000902097
4 *674:8 0.00183006
5 *3214:A *3237:A 0
6 *3214:A *740:8 0
7 *3214:A *763:12 0
8 *3214:A *1147:46 0
9 *3215:A *1129:22 0
10 *674:8 *1075:10 0.000341119
11 *2528:B *3214:A 0
12 *5:18 *3214:A 0
13 *5:28 *3214:A 0
14 *5:30 *3215:A 0
15 *183:22 *674:8 0
16 *293:29 *674:8 0
17 *294:10 *3214:A 0
18 *543:12 *674:8 0.000128576
19 *544:10 *674:8 0
20 *664:19 *674:8 0
*RES
1 *3179:X *674:8 48.2606 
2 *674:8 *3214:A 46.4787 
3 *674:8 *3215:A 41.7201 
*END

*D_NET *675 0.00618075
*CONN
*I *3217:A I *D sg13cmos5l_buf_8
*I *3216:A I *D sg13cmos5l_buf_8
*I *3180:X O *D sg13cmos5l_buf_8
*CAP
1 *3217:A 0
2 *3216:A 0.000719157
3 *3180:X 0.00133198
4 *675:30 0.000723404
5 *675:8 0.00132774
6 *3216:A *3067:CLK 0
7 *3216:A *711:8 0
8 *3216:A *727:10 0.000175892
9 *3216:A *727:27 0
10 *3216:A *1107:16 0.00113992
11 *675:8 *2617:S 4.77425e-05
12 *675:8 *3051:RESET_B 0
13 *675:8 *3067:RESET_B 0
14 *675:30 *2599:A0 0
15 *675:30 *2987:CLK 0
16 *675:30 *3051:CLK 0
17 *675:30 *1031:30 0
18 *675:30 *1105:14 0.000714918
19 *2618:B *675:8 0
20 *47:6 *675:8 0
*RES
1 *3180:X *675:8 45.1094 
2 *675:8 *3216:A 47.9928 
3 *3180:X *675:30 46.6641 
4 *675:30 *3217:A 40 
*END

*D_NET *676 0.00731342
*CONN
*I *3188:A I *D sg13cmos5l_buf_8
*I *3187:A I *D sg13cmos5l_buf_8
*I *3181:X O *D sg13cmos5l_buf_8
*CAP
1 *3188:A 0.000520848
2 *3187:A 0.000864082
3 *3181:X 0.000154762
4 *676:8 0.00153969
5 *3187:A *2603:A0 0.000467475
6 *3187:A *2603:A1 0
7 *3187:A *3055:RESET_B 0.000402967
8 *3187:A *769:12 0
9 *3188:A *2619:S 4.72443e-05
10 *3188:A *3057:CLK 0.00053115
11 *3188:A *3191:A 0
12 *3188:A *683:6 0
13 *3188:A *683:12 0.000181192
14 *3188:A *683:14 0.000288502
15 *3188:A *686:10 0
16 *3188:A *1031:20 0.000433045
17 *3188:A *1141:115 0.000980406
18 *676:8 *3057:CLK 0.00023464
19 *676:8 *1141:115 0.000554993
20 en_ros_o[2] *3187:A 0
21 *2604:B *3187:A 0.000112426
22 *3408:A *3188:A 0
23 *52:20 *3187:A 0
24 *331:42 *3188:A 0
*RES
1 *3181:X *676:8 42.575 
2 *676:8 *3187:A 48.5387 
3 *676:8 *3188:A 47.9001 
*END

*D_NET *677 0.00353376
*CONN
*I *3190:A I *D sg13cmos5l_buf_8
*I *3189:A I *D sg13cmos5l_buf_8
*I *3182:X O *D sg13cmos5l_buf_8
*CAP
1 *3190:A 0.000363914
2 *3189:A 6.74528e-05
3 *3182:X 0.000768811
4 *677:20 0.00106527
5 *3189:A *1125:37 0
6 *3190:A *687:12 0
7 *3190:A *734:107 0
8 *3190:A *902:18 0
9 *3190:A *1087:8 0
10 *677:20 *2440:A 0.00012816
11 *677:20 *770:55 0
12 *677:20 *770:68 0
13 *677:20 *902:18 0
14 *677:20 *1094:20 0
15 *183:22 *677:20 0
16 *230:16 *677:20 0.000819738
17 *306:35 *3190:A 0.000112426
18 *306:35 *677:20 0
19 *625:10 *3190:A 0.000207986
*RES
1 *3182:X *3189:A 40.8446 
2 *3182:X *677:20 48.0134 
3 *677:20 *3190:A 43.5638 
*END

*D_NET *678 0.00610677
*CONN
*I *3192:A I *D sg13cmos5l_buf_8
*I *3191:A I *D sg13cmos5l_buf_8
*I *3183:X O *D sg13cmos5l_buf_8
*CAP
1 *3192:A 0.000860555
2 *3191:A 0.00106243
3 *3183:X 0.000220355
4 *678:8 0.00214334
5 *3191:A *2989:RESET_B 0
6 *3191:A *2989:CLK 0
7 *3191:A *828:8 0
8 *3191:A *1031:20 0
9 *3191:A *1057:8 0
10 *3192:A *2551:A0 0
11 *3192:A *2925:CLK 0
12 *3192:A *3007:CLK 0
13 *3192:A *687:12 0
14 *3192:A *687:14 0
15 *3192:A *734:107 0.000954504
16 *3192:A *771:94 0
17 *3192:A *1087:12 0.000394566
18 *678:8 *771:94 0
19 *678:8 *1087:12 0.000395811
20 *3188:A *3191:A 0
21 *3408:A *3191:A 0
22 *100:12 *678:8 7.52149e-05
23 *657:26 *3191:A 0
*RES
1 *3183:X *678:8 42.8222 
2 *678:8 *3191:A 49.6202 
3 *678:8 *3192:A 49.7232 
*END

*D_NET *679 0.00631873
*CONN
*I *3194:A I *D sg13cmos5l_buf_8
*I *3193:A I *D sg13cmos5l_buf_8
*I *3184:X O *D sg13cmos5l_buf_8
*CAP
1 *3194:A 0.000848658
2 *3193:A 0
3 *3184:X 0.000219564
4 *679:14 0.00119788
5 *679:8 0.00226611
6 *3194:A *736:80 0
7 *3194:A *738:35 0
8 *3194:A *746:8 0
9 *3194:A *746:10 0
10 *3194:A *1144:55 0
11 *679:8 *1126:103 0
12 *679:14 *2676:A 0
13 *679:14 *746:10 0
14 *679:14 *758:63 0
15 *679:14 *1119:97 0
16 *2651:A *3194:A 0
17 *2690:B *3194:A 0
18 *225:53 *3194:A 0.000112558
19 *366:17 *679:14 0
20 *366:27 *679:14 0
21 *369:69 *679:14 0.000658895
22 *417:8 *679:14 0
23 *436:10 *679:14 0.00024105
24 *570:8 *679:14 0.000500301
25 *570:16 *679:8 0.000273716
26 *664:111 *3194:A 0
*RES
1 *3184:X *679:8 42.0497 
2 *679:8 *679:14 32.5969 
3 *679:14 *3193:A 20 
4 *679:8 *3194:A 48.0237 
*END

*D_NET *680 0.00844485
*CONN
*I *3196:A I *D sg13cmos5l_buf_8
*I *3195:A I *D sg13cmos5l_buf_8
*I *3185:X O *D sg13cmos5l_buf_8
*CAP
1 *3196:A 0.000576077
2 *3195:A 0
3 *3185:X 0.000583447
4 *680:22 0.0011145
5 *680:14 0.00227402
6 *3196:A *2498:B 0
7 *3196:A *2951:RESET_B 0
8 *680:14 *689:12 0
9 *680:14 *750:18 0
10 *680:14 *1021:20 0.00014514
11 *680:22 *774:49 0.000596689
12 *680:22 *774:64 4.78521e-05
13 *680:22 *865:8 0.000112487
14 *2359:S *3196:A 0.000111839
15 *2951:D *3196:A 0
16 *3294:A *680:22 7.97646e-05
17 *20:18 *3196:A 0.000767329
18 *20:18 *680:14 0.0011927
19 *113:12 *680:22 0.000240404
20 *254:22 *680:22 0
21 *257:10 *680:22 0
22 *258:14 *680:22 0.000522969
23 *605:10 *680:22 7.96263e-05
24 *637:37 *680:14 0
25 *664:126 *680:14 0
*RES
1 *3185:X *680:14 47.9207 
2 *680:14 *680:22 31.1549 
3 *680:22 *3195:A 20 
4 *680:14 *3196:A 46.4787 
*END

*D_NET *681 0.00905769
*CONN
*I *3081:CLK I *D sg13cmos5l_dfrbpq_1
*I *3157:CLK I *D sg13cmos5l_dfrbpq_1
*I *3155:CLK I *D sg13cmos5l_dfrbpq_1
*I *3153:CLK I *D sg13cmos5l_dfrbpq_1
*I *3186:X O *D sg13cmos5l_buf_8
*CAP
1 *3081:CLK 0.00137551
2 *3157:CLK 0.00013616
3 *3155:CLK 0
4 *3153:CLK 0.000214967
5 *3186:X 5.56073e-05
6 *681:18 0.0011094
7 *681:10 0.00191834
8 *681:8 0.00231886
9 *3081:CLK *720:22 0.000826861
10 *3153:CLK *3153:RESET_B 0
11 *3153:CLK *3155:RESET_B 0
12 *681:10 *2395:A2 0
13 *681:18 *2395:A2 0
14 *681:18 *3155:RESET_B 0
15 *681:18 *3332:A 0.000177082
16 *681:18 *1160:14 0.000177032
17 *2396:B2 *681:8 7.94957e-05
18 *3157:D *681:18 0.000176521
19 *63:10 *681:18 0.000128355
20 *195:18 *3081:CLK 0
21 *665:29 *3081:CLK 0.000182121
22 *665:29 *681:10 0.000181385
*RES
1 *3186:X *681:8 40.5356 
2 *681:8 *681:10 5.2942 
3 *681:10 *681:18 26.8289 
4 *681:18 *3153:CLK 22.266 
5 *681:18 *3155:CLK 20 
6 *681:10 *3157:CLK 41.1845 
7 *681:8 *3081:CLK 48.9507 
*END

*D_NET *682 0.00636421
*CONN
*I *3069:CLK I *D sg13cmos5l_dfrbpq_1
*I *3053:CLK I *D sg13cmos5l_dfrbpq_1
*I *3065:CLK I *D sg13cmos5l_dfrbpq_1
*I *3049:CLK I *D sg13cmos5l_dfrbpq_1
*I *3187:X O *D sg13cmos5l_buf_8
*CAP
1 *3069:CLK 0.000280437
2 *3053:CLK 0
3 *3065:CLK 0
4 *3049:CLK 0.000309158
5 *3187:X 0.000194644
6 *682:32 0.000595646
7 *682:10 0.000454884
8 *682:8 0.000655579
9 *3049:CLK *3049:RESET_B 0
10 *3049:CLK *723:10 0
11 *3049:CLK *730:41 0
12 *3049:CLK *869:12 0.000208008
13 *3049:CLK *1045:10 0
14 *3049:CLK *1104:12 0.00028743
15 *682:8 *713:12 0.000306531
16 *682:8 *769:12 0
17 *682:10 *723:10 0
18 *682:10 *1104:12 0.000584925
19 *682:32 *723:10 0
20 *682:32 *1104:12 0.00122729
21 en_ros_o[2] *682:32 0.000555909
22 *48:22 *3069:CLK 0
23 *132:8 *682:32 0.000128334
24 *138:10 *682:10 0.000446854
25 *138:10 *682:32 0.000128576
*RES
1 *3187:X *682:8 42.0497 
2 *682:8 *682:10 2.8222 
3 *682:10 *3049:CLK 43.1724 
4 *682:10 *3065:CLK 40 
5 *682:8 *682:32 25.7886 
6 *682:32 *3053:CLK 20 
7 *682:32 *3069:CLK 22.8634 
*END

*D_NET *683 0.00545768
*CONN
*I *3219:A I *D sg13cmos5l_inv_1
*I *3071:CLK I *D sg13cmos5l_dfrbpq_1
*I *3055:CLK I *D sg13cmos5l_dfrbpq_1
*I *3057:CLK I *D sg13cmos5l_dfrbpq_1
*I *3188:X O *D sg13cmos5l_buf_8
*CAP
1 *3219:A 0
2 *3071:CLK 4.64283e-05
3 *3055:CLK 0.000239199
4 *3057:CLK 0.000544666
5 *3188:X 0.000157218
6 *683:49 0.00022337
7 *683:14 0.000898582
8 *683:12 0.000614029
9 *683:6 0.000833472
10 *3055:CLK *828:8 0
11 *3055:CLK *1031:20 0
12 *3057:CLK *2603:A0 0
13 *683:6 *2624:B 0
14 *683:6 *686:10 0
15 *683:12 *2624:A 0
16 *683:49 *726:21 0.000554078
17 *683:49 *1109:20 0
18 *3073:D *683:6 0
19 *3188:A *3057:CLK 0.00053115
20 *3188:A *683:6 0
21 *3188:A *683:12 0.000181192
22 *3188:A *683:14 0.000288502
23 *48:22 *683:12 0
24 *49:14 *683:6 0.000111156
25 *331:42 *683:12 0
26 *664:254 *3057:CLK 0
27 *676:8 *3057:CLK 0.00023464
*RES
1 *3188:X *683:6 21.4008 
2 *683:6 *683:12 23.914 
3 *683:12 *683:14 1.339 
4 *683:14 *3057:CLK 45.3972 
5 *683:14 *3055:CLK 41.8964 
6 *683:12 *3071:CLK 40.5356 
7 *683:6 *683:49 42.575 
8 *683:49 *3219:A 20 
*END

*D_NET *684 0.00966379
*CONN
*I *3011:CLK I *D sg13cmos5l_dfrbpq_1
*I *2931:CLK I *D sg13cmos5l_dfrbpq_1
*I *3001:CLK I *D sg13cmos5l_dfrbpq_1
*I *2921:CLK I *D sg13cmos5l_dfrbpq_1
*I *3189:X O *D sg13cmos5l_buf_8
*CAP
1 *3011:CLK 0
2 *2931:CLK 0.000488909
3 *3001:CLK 0
4 *2921:CLK 2.77263e-05
5 *3189:X 0
6 *684:32 0.000803029
7 *684:23 0.000814815
8 *684:6 0.00106685
9 *684:4 0.000538428
10 *2931:CLK *1052:12 0.00172261
11 *2931:CLK *1094:20 0.00124432
12 *684:6 *2428:A 0
13 *684:23 *771:50 0.000533536
14 *684:23 *771:73 0.00012863
15 *684:23 *810:10 0
16 *684:23 *817:12 0
17 *684:23 *1103:41 0
18 *684:23 *1125:58 0
19 *684:32 *1094:20 0.000797556
20 *2919:S *2921:CLK 0
21 *2919:S *684:6 4.77425e-05
22 *111:10 *684:32 0
23 *222:12 *684:32 0
24 *236:12 *2931:CLK 0.000659396
25 *294:31 *2931:CLK 0
26 *294:31 *684:32 0
27 *600:8 *684:23 0.00050063
28 *600:21 *684:6 0.00028961
29 *662:27 *684:23 0
*RES
1 *3189:X *684:4 20 
2 *684:4 *684:6 2.266 
3 *684:6 *2921:CLK 20.3502 
4 *684:6 *684:23 48.652 
5 *684:23 *3001:CLK 20 
6 *684:4 *684:32 23.811 
7 *684:32 *2931:CLK 49.4966 
8 *684:32 *3011:CLK 40 
*END

*D_NET *685 0.00696994
*CONN
*I *3021:CLK I *D sg13cmos5l_dfrbpq_1
*I *2927:CLK I *D sg13cmos5l_dfrbpq_1
*I *2929:CLK I *D sg13cmos5l_dfrbpq_1
*I *2925:CLK I *D sg13cmos5l_dfrbpq_1
*I *3190:X O *D sg13cmos5l_buf_8
*CAP
1 *3021:CLK 0.000182692
2 *2927:CLK 0
3 *2929:CLK 0.000551309
4 *2925:CLK 0.00017766
5 *3190:X 0.000363807
6 *685:17 0.00084235
7 *685:6 0.000649817
8 *2925:CLK *687:12 0.000209582
9 *2929:CLK *2436:B 0
10 *2929:CLK *771:79 0.000181192
11 *2929:CLK *953:16 0.000338322
12 *2929:CLK *1093:18 0.000181608
13 *2929:CLK *1114:96 0.000871022
14 *2929:CLK *1140:66 0
15 *3021:CLK *734:107 0
16 *685:6 *734:107 0
17 *685:17 *900:8 0
18 *685:17 *1093:18 0.000904449
19 *685:17 *1114:96 7.52149e-05
20 *3192:A *2925:CLK 0
21 *306:35 *2929:CLK 0.00113743
22 *306:41 *685:17 0.000288087
23 *600:29 *2929:CLK 1.54008e-05
*RES
1 *3190:X *685:6 21.6171 
2 *685:6 *2925:CLK 21.8334 
3 *685:6 *685:17 24.3054 
4 *685:17 *2929:CLK 48.549 
5 *685:17 *2927:CLK 40 
6 *3190:X *3021:CLK 41.751 
*END

*D_NET *686 0.00439056
*CONN
*I *2989:CLK I *D sg13cmos5l_dfrbpq_1
*I *2991:CLK I *D sg13cmos5l_dfrbpq_1
*I *2993:CLK I *D sg13cmos5l_dfrbpq_1
*I *3073:CLK I *D sg13cmos5l_dfrbpq_1
*I *3191:X O *D sg13cmos5l_buf_8
*CAP
1 *2989:CLK 0.000241398
2 *2991:CLK 0
3 *2993:CLK 0
4 *3073:CLK 0
5 *3191:X 0.000416673
6 *686:27 0.000712412
7 *686:21 0.00118668
8 *686:12 0.000232868
9 *686:10 0.000416673
10 *686:10 *1057:29 0.000342364
11 *686:27 *2536:A0 0
12 *686:27 *716:8 0
13 *686:27 *830:10 0
14 *686:27 *1114:86 0
15 *686:27 *1137:89 0
16 *3188:A *686:10 0
17 *3191:A *2989:CLK 0
18 *3408:A *2989:CLK 0
19 *3408:A *686:10 0
20 *3408:A *686:21 0
21 *49:14 *2989:CLK 0
22 *49:14 *686:10 0.000499958
23 *49:14 *686:21 0
24 *187:18 *686:10 0.000341534
25 *187:18 *686:27 0
26 *657:26 *686:27 0
27 *683:6 *686:10 0
*RES
1 *3191:X *686:10 45.3663 
2 *686:10 *686:12 20 
3 *686:12 *3073:CLK 20 
4 *686:12 *686:21 2.1836 
5 *686:21 *686:27 46.7774 
6 *686:27 *2993:CLK 20 
7 *686:21 *2991:CLK 20 
8 *686:21 *2989:CLK 20.9724 
*END

*D_NET *687 0.00409096
*CONN
*I *3220:A I *D sg13cmos5l_inv_1
*I *3005:CLK I *D sg13cmos5l_dfrbpq_1
*I *3007:CLK I *D sg13cmos5l_dfrbpq_1
*I *3009:CLK I *D sg13cmos5l_dfrbpq_1
*I *3192:X O *D sg13cmos5l_buf_8
*CAP
1 *3220:A 0.000182774
2 *3005:CLK 0
3 *3007:CLK 0.000218541
4 *3009:CLK 0.000184298
5 *3192:X 0
6 *687:14 0.000577374
7 *687:12 0.000656212
8 *687:6 0.000664451
9 *3007:CLK *1087:8 0
10 *3220:A *1093:18 0.000553748
11 *687:12 *902:18 0
12 *687:12 *1087:8 0
13 *687:12 *1093:18 0.000447685
14 *687:14 *1087:8 0
15 *2925:CLK *687:12 0.000209582
16 *3190:A *687:12 0
17 *3192:A *3007:CLK 0
18 *3192:A *687:12 0
19 *3192:A *687:14 0
20 *230:16 *3220:A 0
21 *230:16 *687:12 0
22 *248:12 *3220:A 0.0003963
*RES
1 *3192:X *687:6 40 
2 *687:6 *687:12 25.6444 
3 *687:12 *687:14 1.8334 
4 *687:14 *3009:CLK 22.3278 
5 *687:14 *3007:CLK 22.266 
6 *687:12 *3005:CLK 20 
7 *687:6 *3220:A 43.1106 
*END

*D_NET *688 0.0166595
*CONN
*I *3131:CLK I *D sg13cmos5l_dfrbpq_1
*I *3101:CLK I *D sg13cmos5l_dfrbpq_1
*I *3113:CLK I *D sg13cmos5l_dfrbpq_1
*I *3117:CLK I *D sg13cmos5l_dfrbpq_1
*I *3193:X O *D sg13cmos5l_buf_8
*CAP
1 *3131:CLK 0
2 *3101:CLK 0.000386808
3 *3113:CLK 0.000210369
4 *3117:CLK 0
5 *3193:X 6.74616e-05
6 *688:54 0.00170896
7 *688:50 0.00177642
8 *688:32 0.0011612
9 *688:14 0.000655955
10 *688:8 0.00248482
11 *688:6 0.00126484
12 *3113:CLK *1126:16 8.01938e-05
13 *3113:CLK *1142:38 0
14 *688:8 *2829:A 0
15 *688:8 *738:25 0
16 *688:8 *758:63 0
17 *688:8 *1079:8 0
18 *688:8 *1122:53 0
19 *688:8 *1142:49 0
20 *688:8 *1149:59 0
21 *688:8 *1149:70 0
22 *688:8 *1150:126 0
23 *688:14 *3264:A 0
24 *688:14 *1122:53 0
25 *688:14 *1126:16 4.78195e-05
26 *688:14 *1142:8 0.00012816
27 *688:32 *2856:B 0.00140273
28 *688:32 *1148:47 0.00140273
29 *688:54 *2676:A 0
30 *688:54 *737:18 0
31 *688:54 *746:8 0
32 *688:54 *756:36 0
33 *688:54 *1071:8 0
34 *688:54 *1150:126 0
35 *2849:B *3101:CLK 0.00039332
36 *352:30 *3113:CLK 0
37 *358:43 *3101:CLK 0.000234224
38 *359:10 *688:8 0
39 *359:33 *688:54 0.000128576
40 *359:60 *3113:CLK 0.000323965
41 *359:60 *688:14 4.79124e-05
42 *366:27 *688:54 0.000553247
43 *405:8 *688:54 0
44 *429:31 *688:54 0.00219981
45 *429:56 *688:50 0
46 *456:8 *688:8 0
47 *562:8 *688:54 0
*RES
1 *3193:X *688:6 40 
2 *688:6 *688:8 13.4518 
3 *688:8 *688:14 24.1303 
4 *688:14 *3117:CLK 20 
5 *688:14 *3113:CLK 22.266 
6 *688:8 *688:32 49.4039 
7 *688:32 *3101:CLK 43.811 
8 *3193:X *688:50 40.5356 
9 *688:50 *688:54 39.6318 
10 *688:54 *3131:CLK 20 
*END

*D_NET *689 0.00501954
*CONN
*I *3013:CLK I *D sg13cmos5l_dfrbpq_1
*I *3115:CLK I *D sg13cmos5l_dfrbpq_1
*I *3139:CLK I *D sg13cmos5l_dfrbpq_1
*I *2949:CLK I *D sg13cmos5l_dfrbpq_1
*I *3194:X O *D sg13cmos5l_buf_8
*CAP
1 *3013:CLK 0
2 *3115:CLK 0.00020938
3 *3139:CLK 0.000329638
4 *2949:CLK 0
5 *3194:X 0.000827025
6 *689:48 0.000498479
7 *689:35 0.00125219
8 *689:12 0.000517004
9 *689:6 0.00112933
10 *3115:CLK *751:46 0
11 *3139:CLK *750:18 8.01064e-05
12 *3139:CLK *1021:20 0
13 *689:6 *1021:20 0
14 *689:35 *3013:RESET_B 0
15 *689:35 *1021:20 0.000176378
16 *689:48 *762:117 0
17 *689:48 *780:23 0
18 *3013:D *3115:CLK 0
19 *225:53 *3115:CLK 0
20 *225:53 *3139:CLK 0
21 *225:53 *689:6 0
22 *225:53 *689:35 0
23 *637:37 *689:35 0
24 *664:126 *689:12 0
25 *680:14 *689:12 0
*RES
1 *3194:X *689:6 22.266 
2 *689:6 *689:12 44.5526 
3 *689:12 *2949:CLK 20 
4 *689:6 *3139:CLK 23.1106 
5 *3194:X *689:35 24.3823 
6 *689:35 *3115:CLK 21.8334 
7 *689:35 *689:48 44.3054 
8 *689:48 *3013:CLK 20 
*END

*D_NET *690 0.0115974
*CONN
*I *2965:CLK I *D sg13cmos5l_dfrbpq_1
*I *2947:CLK I *D sg13cmos5l_dfrbpq_1
*I *2935:CLK I *D sg13cmos5l_dfrbpq_1
*I *2933:CLK I *D sg13cmos5l_dfrbpq_1
*I *3195:X O *D sg13cmos5l_buf_8
*CAP
1 *2965:CLK 0.00116475
2 *2947:CLK 0
3 *2935:CLK 3.4407e-05
4 *2933:CLK 0.000470249
5 *3195:X 0
6 *690:44 0.000785521
7 *690:38 0.00253005
8 *690:16 0.00114145
9 *690:4 0.00121658
10 *2933:CLK *952:22 0.000598077
11 *2933:CLK *1139:26 0
12 *2935:CLK *1139:26 0
13 *2965:CLK *2471:A 0
14 *2965:CLK *2498:B 0
15 *2965:CLK *774:64 0.000338289
16 *690:16 *2350:A0 0.000435477
17 *690:16 *2472:B 0.00040924
18 *690:16 *1033:30 0
19 *690:16 *1139:38 0.000403533
20 *690:38 *774:64 0.000242236
21 *690:44 *1021:8 0
22 *690:44 *1128:35 0.000446767
23 *2358:A1 *690:44 0.000159096
24 *2473:C *2965:CLK 0
25 *2473:C *690:38 0
26 *2499:C *2965:CLK 0.00020901
27 *3314:A *2933:CLK 0.00025892
28 *18:14 *2965:CLK 0.000112426
29 *220:33 *690:16 0
30 *220:33 *690:38 0.000112226
31 *253:10 *690:44 0
32 *263:37 *690:44 0
33 *294:52 *2965:CLK 0
34 *294:52 *690:38 0
35 *311:10 *690:16 0
36 *628:12 *2933:CLK 0.000241847
37 *637:37 *690:44 0.000287256
*RES
1 *3195:X *690:4 20 
2 *690:4 *690:16 27.0658 
3 *690:16 *2933:CLK 45.3354 
4 *690:16 *2935:CLK 40.3502 
5 *690:4 *690:38 5.7268 
6 *690:38 *690:44 48.755 
7 *690:44 *2947:CLK 20 
8 *690:38 *2965:CLK 30.7532 
*END

*D_NET *691 0.00479352
*CONN
*I *2951:CLK I *D sg13cmos5l_dfrbpq_1
*I *3027:CLK I *D sg13cmos5l_dfrbpq_1
*I *2963:CLK I *D sg13cmos5l_dfrbpq_1
*I *3221:A I *D sg13cmos5l_inv_1
*I *3196:X O *D sg13cmos5l_buf_8
*CAP
1 *2951:CLK 0.000217401
2 *3027:CLK 0.00021274
3 *2963:CLK 0.000159726
4 *3221:A 0
5 *3196:X 0.000221909
6 *691:28 0.000929259
7 *691:22 0.000774195
8 *691:10 0.000221909
9 *2951:CLK *780:45 0.000273562
10 *2963:CLK *2496:A 0.000175752
11 *2963:CLK *1138:25 0
12 *691:10 *2951:RESET_B 8.00842e-05
13 *691:10 *741:145 0
14 *691:10 *748:38 0.000553748
15 *691:28 *780:45 0
16 *2496:C *3027:CLK 0
17 *2496:C *691:28 0
18 *2578:A0 *691:10 0
19 *3393:A *2963:CLK 0.000272801
20 *119:8 *691:28 0.000287758
21 *272:10 *2951:CLK 0
22 *272:10 *691:28 0.000337463
23 *280:10 *3027:CLK 7.52158e-05
*RES
1 *3196:X *691:10 43.1106 
2 *691:10 *3221:A 40 
3 *3196:X *691:22 20 
4 *691:22 *691:28 25.0882 
5 *691:28 *2963:CLK 41.8334 
6 *691:28 *3027:CLK 41.8334 
7 *691:22 *2951:CLK 22.1836 
*END

*D_NET *692 0.00304842
*CONN
*I *3099:CLK I *D sg13cmos5l_dfrbpq_1
*I *3159:CLK I *D sg13cmos5l_dfrbpq_1
*I *3161:CLK I *D sg13cmos5l_dfrbpq_1
*I *3151:CLK I *D sg13cmos5l_dfrbpq_1
*I *3197:X O *D sg13cmos5l_buf_8
*CAP
1 *3099:CLK 0.000435091
2 *3159:CLK 0
3 *3161:CLK 0
4 *3151:CLK 0.000445464
5 *3197:X 0.000831467
6 *692:12 0.000612767
7 *692:10 0.000167302
8 *692:8 0.000396376
9 *3099:CLK *2407:A 0
10 *3099:CLK *1119:12 0
11 *3099:CLK *1119:14 0
12 *3099:CLK *1156:31 0.000112436
13 *3099:CLK *1163:14 0
14 *3151:CLK *3332:A 0
15 *3151:CLK *788:12 0
16 *3151:CLK *972:10 0
17 *692:8 *1163:10 0
18 *692:12 *788:12 0
19 *199:8 *3099:CLK 0
20 *208:6 *3099:CLK 0
21 *209:10 *3099:CLK 4.75151e-05
22 *215:24 *3151:CLK 0
23 *215:24 *692:8 0
24 *216:12 *3151:CLK 0
25 *331:24 *692:8 0
*RES
1 *3197:X *692:8 43.811 
2 *692:8 *692:10 20 
3 *692:10 *692:12 1.8334 
4 *692:12 *3151:CLK 23.9964 
5 *692:12 *3161:CLK 20 
6 *692:10 *3159:CLK 20 
7 *3197:X *3099:CLK 44.2951 
*END

*D_NET *693 0.0107725
*CONN
*I *3137:CLK I *D sg13cmos5l_dfrbpq_1
*I *3129:CLK I *D sg13cmos5l_dfrbpq_1
*I *3127:CLK I *D sg13cmos5l_dfrbpq_1
*I *3119:CLK I *D sg13cmos5l_dfrbpq_1
*I *3198:X O *D sg13cmos5l_buf_8
*CAP
1 *3137:CLK 0.000850193
2 *3129:CLK 0.00026079
3 *3127:CLK 0.000581997
4 *3119:CLK 3.03095e-05
5 *3198:X 5.39032e-05
6 *693:38 0.00116442
7 *693:23 0.00181692
8 *693:12 0.000479393
9 *693:8 0.00102188
10 *3119:CLK *2812:A 0
11 *3119:CLK *735:18 0
12 *3127:CLK *1088:10 0.000530092
13 *3127:CLK *1090:10 0
14 *3127:CLK *1132:106 0.0001122
15 *3129:CLK *2863:A 0.000466147
16 *3137:CLK *2883:A 0
17 *3137:CLK *694:14 0
18 *3137:CLK *733:52 0.000466722
19 *3137:CLK *735:18 0
20 *3137:CLK *739:10 4.7803e-05
21 *3137:CLK *752:14 0
22 *3137:CLK *752:20 0
23 *3137:CLK *995:28 0
24 *3137:CLK *1079:22 0
25 *3137:CLK *1142:119 0
26 *693:8 *739:10 5.30319e-05
27 *693:8 *739:59 0.00012816
28 *693:8 *1126:87 0
29 *693:12 *739:10 0.000554077
30 *693:12 *1143:31 0.000448013
31 *693:23 *2812:A 0.000144041
32 *693:23 *1090:10 0
33 *693:23 *1126:76 0
34 *693:23 *1126:87 0
35 *693:38 *2813:B 0.000502362
36 *693:38 *1115:76 0
37 *693:38 *1118:137 0
38 *2883:B *3137:CLK 0.000144899
39 *185:49 *3127:CLK 0
40 *352:32 *3129:CLK 0.000466908
41 *464:18 *693:38 0.000448209
*RES
1 *3198:X *693:8 40.8446 
2 *693:8 *693:12 22.575 
3 *693:12 *3119:CLK 20.3502 
4 *693:12 *693:23 3.0488 
5 *693:23 *3127:CLK 25.09 
6 *693:23 *693:38 47.7662 
7 *693:38 *3129:CLK 23.1312 
8 *693:8 *3137:CLK 47.5976 
*END

*D_NET *694 0.00945853
*CONN
*I *3149:CLK I *D sg13cmos5l_dfrbpq_1
*I *3111:CLK I *D sg13cmos5l_dfrbpq_1
*I *3143:CLK I *D sg13cmos5l_dfrbpq_1
*I *3133:CLK I *D sg13cmos5l_dfrbpq_1
*I *3199:X O *D sg13cmos5l_buf_8
*CAP
1 *3149:CLK 0
2 *3111:CLK 0
3 *3143:CLK 0.000597656
4 *3133:CLK 0
5 *3199:X 6.84896e-05
6 *694:49 0.00179765
7 *694:25 0.00134107
8 *694:14 0.0014019
9 *694:8 0.00252462
10 *3143:CLK *752:65 0
11 *694:8 *747:12 0
12 *694:14 *3133:RESET_B 0
13 *694:14 *749:12 0
14 *694:14 *752:12 0
15 *694:14 *752:14 0
16 *694:14 *752:46 0
17 *694:14 *1142:119 0
18 *694:25 *3133:RESET_B 0
19 *694:25 *735:8 0
20 *694:25 *752:12 0
21 *694:25 *1142:119 0.000287256
22 *694:49 *747:44 0
23 *694:49 *752:46 0
24 *694:49 *995:14 0.00012816
25 *2727:A *694:49 0.000393736
26 *2732:B *694:49 0.000340704
27 *2900:B *3143:CLK 1.54556e-05
28 *3111:D *3143:CLK 0
29 *3137:CLK *694:14 0
30 *3199:A *694:8 0
31 *352:32 *3143:CLK 0.000274507
32 *381:60 *694:49 0
33 *439:23 *694:49 0.000287342
34 *445:8 *694:8 0
35 *446:12 *694:49 0
36 *448:12 *694:49 0
37 *449:12 *694:14 0
38 *449:12 *694:49 0
*RES
1 *3199:X *694:8 40.7519 
2 *694:8 *694:14 26.7621 
3 *694:14 *3133:CLK 20 
4 *694:14 *694:25 29.1052 
5 *694:25 *3143:CLK 46.1388 
6 *694:25 *3111:CLK 40 
7 *694:8 *694:49 37.7263 
8 *694:49 *3149:CLK 20 
*END

*D_NET *695 0.0131112
*CONN
*I *2967:CLK I *D sg13cmos5l_dfrbpq_1
*I *2981:CLK I *D sg13cmos5l_dfrbpq_1
*I *3145:CLK I *D sg13cmos5l_dfrbpq_1
*I *3135:CLK I *D sg13cmos5l_dfrbpq_1
*I *3200:X O *D sg13cmos5l_buf_8
*CAP
1 *2967:CLK 0.000273318
2 *2981:CLK 0.000288525
3 *3145:CLK 0
4 *3135:CLK 0.000462395
5 *3200:X 0.000224188
6 *695:38 0.000867831
7 *695:12 0.0004956
8 *695:10 0.000862329
9 *695:8 0.000747324
10 *2967:CLK *938:10 0.000181608
11 *2967:CLK *1127:34 0.0012986
12 *3135:CLK *1021:34 0
13 *3135:CLK *1144:47 0
14 *695:38 *2577:B 8.00842e-05
15 *695:38 *746:71 0.000175853
16 *695:38 *773:28 0.000128576
17 *695:38 *1021:20 8.00842e-05
18 *2491:A *695:8 4.77866e-05
19 *2522:A *695:38 0
20 *2522:B *3135:CLK 0.000129077
21 *2522:B *695:10 0.000554906
22 *2522:B *695:12 0.000181279
23 *3029:D *695:38 0.000370954
24 *3373:A *695:38 0
25 *21:18 *2967:CLK 0.00116994
26 *21:18 *3135:CLK 0.000288502
27 *21:18 *695:10 0.00133119
28 *21:18 *695:12 0.000159183
29 *25:14 *695:38 0.000341216
30 *220:64 *2967:CLK 7.51285e-05
31 *220:64 *695:10 0.000796726
32 *220:83 *695:8 0.00019351
33 *225:53 *3135:CLK 0.000597428
34 *290:22 *2981:CLK 0
35 *290:22 *695:38 0.000273694
36 *317:8 *695:8 0
37 *320:12 *695:38 0
38 *667:16 *2981:CLK 0.00043434
*RES
1 *3200:X *695:8 42.266 
2 *695:8 *695:10 6.283 
3 *695:10 *695:12 0.8446 
4 *695:12 *3135:CLK 45.3354 
5 *695:12 *3145:CLK 40 
6 *695:10 *695:38 46.6641 
7 *695:38 *2981:CLK 42.9149 
8 *695:8 *2967:CLK 46.5302 
*END

*D_NET *696 0.00808516
*CONN
*I *3222:A I *D sg13cmos5l_inv_1
*I *3045:CLK I *D sg13cmos5l_dfrbpq_1
*I *3029:CLK I *D sg13cmos5l_dfrbpq_1
*I *3147:CLK I *D sg13cmos5l_dfrbpq_1
*I *3201:X O *D sg13cmos5l_buf_8
*CAP
1 *3222:A 0
2 *3045:CLK 0
3 *3029:CLK 0.000538272
4 *3147:CLK 0.000547422
5 *3201:X 0
6 *696:41 0.000762504
7 *696:8 0.00108569
8 *696:6 0.000310479
9 *696:4 0.00107298
10 *3029:CLK *2592:A1 0.000434006
11 *3029:CLK *841:14 0.000287672
12 *3147:CLK *791:18 0
13 *3147:CLK *841:14 0.00113784
14 *696:41 *887:14 0.00156584
15 *696:41 *1043:10 0
16 *696:41 *1065:12 0.00034245
17 *285:22 *3029:CLK 0
18 *285:22 *3147:CLK 0
19 *667:16 *3029:CLK 0
*RES
1 *3201:X *696:4 20 
2 *696:4 *696:6 2.4823 
3 *696:6 *696:8 20 
4 *696:8 *3147:CLK 46.7774 
5 *696:8 *3029:CLK 45.3354 
6 *696:6 *3045:CLK 20 
7 *696:4 *696:41 48.8889 
8 *696:41 *3222:A 20 
*END

*D_NET *697 0.00877043
*CONN
*I *2937:CLK I *D sg13cmos5l_dfrbpq_1
*I *3019:CLK I *D sg13cmos5l_dfrbpq_1
*I *3015:CLK I *D sg13cmos5l_dfrbpq_1
*I *2939:CLK I *D sg13cmos5l_dfrbpq_1
*I *3202:X O *D sg13cmos5l_buf_8
*CAP
1 *2937:CLK 0.000105264
2 *3019:CLK 0.000519212
3 *3015:CLK 0.000698614
4 *2939:CLK 0
5 *3202:X 0.000127234
6 *697:26 0.000772695
7 *697:12 0.000813384
8 *697:8 0.000390223
9 *2937:CLK *1139:100 0.000181192
10 *3019:CLK *2937:RESET_B 0.000288869
11 *3019:CLK *3233:A 0.000630506
12 *697:8 *1128:27 0.000144102
13 *697:12 *947:10 0.000607196
14 *697:26 *947:10 0.000106894
15 *2459:A *3015:CLK 0
16 *3251:A *697:8 4.77425e-05
17 *241:14 *697:12 0.000553661
18 *241:37 *2937:CLK 0.000447182
19 *241:37 *697:12 5.30319e-05
20 *241:37 *697:26 0.000555321
21 *247:8 *3015:CLK 0
22 *260:10 *3019:CLK 0
23 *262:10 *3015:CLK 0.00117942
24 *636:42 *3015:CLK 0
25 *663:37 *3015:CLK 0.000339054
26 *663:52 *3015:CLK 0.000209637
*RES
1 *3202:X *697:8 41.6171 
2 *697:8 *697:12 22.8222 
3 *697:12 *2939:CLK 20 
4 *697:12 *3015:CLK 27.8898 
5 *697:8 *697:26 2.575 
6 *697:26 *3019:CLK 46.1594 
7 *697:26 *2937:CLK 42.0806 
*END

*D_NET *698 0.00449259
*CONN
*I *2945:CLK I *D sg13cmos5l_dfrbpq_1
*I *3017:CLK I *D sg13cmos5l_dfrbpq_1
*I *2953:CLK I *D sg13cmos5l_dfrbpq_1
*I *2955:CLK I *D sg13cmos5l_dfrbpq_1
*I *3203:X O *D sg13cmos5l_buf_8
*CAP
1 *2945:CLK 0
2 *3017:CLK 0.000352546
3 *2953:CLK 0
4 *2955:CLK 0.000710882
5 *3203:X 0.000359342
6 *698:37 0.000523342
7 *698:10 0.000899428
8 *2955:CLK *2510:B 0.000242006
9 *2955:CLK *870:8 0
10 *2955:CLK *1144:55 0
11 *3017:CLK *2564:A 0
12 *2362:A2 *2955:CLK 0.00023547
13 *2362:A2 *698:10 0.000106064
14 *3395:A *3017:CLK 0
15 *83:12 *2955:CLK 7.55443e-05
16 *241:37 *698:10 0.000240328
17 *241:37 *698:37 0
18 *259:10 *698:10 0.000240328
19 *281:16 *2955:CLK 0.000234224
20 *281:22 *2955:CLK 0
21 *281:22 *698:10 0
22 *609:28 *2955:CLK 0
23 *635:27 *3017:CLK 0
24 *635:27 *698:37 0.000273087
25 *664:126 *2955:CLK 0
26 *664:164 *3017:CLK 0
27 *664:164 *698:37 0
*RES
1 *3203:X *698:10 42.2145 
2 *698:10 *2955:CLK 47.2306 
3 *698:10 *2953:CLK 40 
4 *3203:X *698:37 21.8334 
5 *698:37 *3017:CLK 23.3578 
6 *698:37 *2945:CLK 20 
*END

*D_NET *699 0.00257205
*CONN
*I *2959:CLK I *D sg13cmos5l_dfrbpq_1
*I *3023:CLK I *D sg13cmos5l_dfrbpq_1
*I *2943:CLK I *D sg13cmos5l_dfrbpq_1
*I *2941:CLK I *D sg13cmos5l_dfrbpq_1
*I *3204:X O *D sg13cmos5l_buf_8
*CAP
1 *2959:CLK 0.000255452
2 *3023:CLK 0
3 *2943:CLK 2.77263e-05
4 *2941:CLK 0.000195005
5 *3204:X 0.000151998
6 *699:28 0.000399798
7 *699:12 0.000510384
8 *699:10 0.000431999
9 *699:8 0.000151998
10 *2941:CLK *734:107 0
11 *2959:CLK *2959:RESET_B 0
12 *2959:CLK *1010:16 0
13 *699:8 *1098:14 0
14 *699:12 *734:107 0
15 *2462:A *699:12 0
16 *3204:A *2959:CLK 0
17 *3204:A *699:28 0
18 *247:34 *699:8 0.000447685
19 *249:10 *699:12 0
*RES
1 *3204:X *699:8 42.0806 
2 *699:8 *699:10 20 
3 *699:10 *699:12 2.6986 
4 *699:12 *2941:CLK 21.8334 
5 *699:12 *2943:CLK 20.3502 
6 *699:10 *699:28 1.4008 
7 *699:28 *3023:CLK 20 
8 *699:28 *2959:CLK 22.6162 
*END

*D_NET *700 0.00405469
*CONN
*I *3223:A I *D sg13cmos5l_inv_1
*I *3033:CLK I *D sg13cmos5l_dfrbpq_1
*I *2975:CLK I *D sg13cmos5l_dfrbpq_1
*I *3039:CLK I *D sg13cmos5l_dfrbpq_1
*I *3205:X O *D sg13cmos5l_buf_8
*CAP
1 *3223:A 0
2 *3033:CLK 0.000236971
3 *2975:CLK 0
4 *3039:CLK 0.000299304
5 *3205:X 0.000113733
6 *700:32 0.00059538
7 *700:10 0.000581728
8 *700:6 0.000754566
9 *3033:CLK *912:32 0
10 *3033:CLK *926:28 0
11 *3033:CLK *1134:97 1.54008e-05
12 *3033:CLK *1134:110 0.000175513
13 *3039:CLK *779:27 0
14 *700:6 *877:18 0.000144102
15 *700:6 *905:28 4.77425e-05
16 *700:10 *779:27 0
17 *700:32 *877:18 0.000606694
18 *700:32 *912:32 0.000274096
19 *700:32 *1134:97 0
20 *3039:D *700:32 0.000209457
21 *3310:A *700:32 0
22 *3383:A *3039:CLK 0
23 *282:22 *3039:CLK 0
24 *282:22 *700:10 0
*RES
1 *3205:X *700:6 21.1845 
2 *700:6 *700:10 2.6162 
3 *700:10 *3039:CLK 22.6162 
4 *700:10 *2975:CLK 20 
5 *700:6 *700:32 44.6556 
6 *700:32 *3033:CLK 22.1836 
7 *700:32 *3223:A 20 
*END

*D_NET *701 0.00774807
*CONN
*I *3041:CLK I *D sg13cmos5l_dfrbpq_1
*I *2979:CLK I *D sg13cmos5l_dfrbpq_1
*I *3035:CLK I *D sg13cmos5l_dfrbpq_1
*I *2971:CLK I *D sg13cmos5l_dfrbpq_1
*I *3206:X O *D sg13cmos5l_buf_8
*CAP
1 *3041:CLK 0.000177474
2 *2979:CLK 0.000669206
3 *3035:CLK 0
4 *2971:CLK 0
5 *3206:X 0.000453624
6 *701:22 0.00050709
7 *701:12 0.000574776
8 *701:10 0.000736892
9 *701:8 0.00027615
10 *2979:CLK *983:10 0.000144729
11 *2979:CLK *1043:8 0
12 *3041:CLK *2961:CLK 0.000241897
13 *3041:CLK *3041:RESET_B 0
14 *701:8 *764:14 0.00145737
15 *701:22 *888:26 0
16 config_o[23] *701:22 0
17 config_o[24] *701:22 0
18 *2508:B *701:12 1.54008e-05
19 *2508:B *701:22 0.000498855
20 *2590:S *2979:CLK 0
21 *3343:A *2979:CLK 0
22 *3343:A *701:12 9.7025e-05
23 *3343:A *701:22 0.000143948
24 *25:14 *701:8 0.00145737
25 *269:66 *2979:CLK 0
26 *277:22 *2979:CLK 0
27 *277:22 *701:22 0.000296266
*RES
1 *3206:X *701:8 46.7774 
2 *701:8 *701:10 20 
3 *701:10 *701:12 0.7519 
4 *701:12 *701:22 45.1912 
5 *701:22 *2971:CLK 20 
6 *701:12 *3035:CLK 20 
7 *701:10 *2979:CLK 25.8607 
8 *3206:X *3041:CLK 41.9673 
*END

*D_NET *702 0.00564047
*CONN
*I *3043:CLK I *D sg13cmos5l_dfrbpq_1
*I *3047:CLK I *D sg13cmos5l_dfrbpq_1
*I *2983:CLK I *D sg13cmos5l_dfrbpq_1
*I *3031:CLK I *D sg13cmos5l_dfrbpq_1
*I *3207:X O *D sg13cmos5l_buf_8
*CAP
1 *3043:CLK 0.000292066
2 *3047:CLK 0
3 *2983:CLK 0
4 *3031:CLK 0.000238967
5 *3207:X 5.20024e-05
6 *702:14 0.000448394
7 *702:12 0.00066542
8 *702:8 0.000800061
9 *3031:CLK *2369:A0 4.77863e-05
10 *3031:CLK *2594:A1 0
11 *3031:CLK *2983:RESET_B 0
12 *3031:CLK *3031:RESET_B 0
13 *3043:CLK *1043:10 0.00103344
14 *702:12 *1043:10 0.0011395
15 *702:14 *2983:RESET_B 0
16 config_o[30] *3043:CLK 0
17 *3365:A *702:8 8.00842e-05
18 *27:10 *3043:CLK 0
19 *27:10 *702:12 0
20 *29:20 *3031:CLK 0
21 *29:20 *702:14 0
22 *127:10 *3043:CLK 0.000395067
23 *277:8 *3043:CLK 0.000447685
*RES
1 *3207:X *702:8 40.5356 
2 *702:8 *702:12 25.2942 
3 *702:12 *702:14 1.8334 
4 *702:14 *3031:CLK 22.266 
5 *702:14 *2983:CLK 20 
6 *702:12 *3047:CLK 20 
7 *702:8 *3043:CLK 45.2942 
*END

*D_NET *703 0.00606278
*CONN
*I *3075:CLK I *D sg13cmos5l_dfrbpq_1
*I *3077:CLK I *D sg13cmos5l_dfrbpq_1
*I *3083:CLK I *D sg13cmos5l_dfrbpq_1
*I *3079:CLK I *D sg13cmos5l_dfrbpq_1
*I *3208:X O *D sg13cmos5l_buf_8
*CAP
1 *3075:CLK 0.000218147
2 *3077:CLK 0.000629127
3 *3083:CLK 0
4 *3079:CLK 0.000666933
5 *3208:X 0.000634607
6 *703:19 0.00102167
7 *703:8 0.00147594
8 *3075:CLK *2625:A1 0
9 *3075:CLK *3075:RESET_B 0
10 *3075:CLK *1152:37 0
11 *3077:CLK *2627:A0 0
12 *3077:CLK *2627:A1 0.000177082
13 *3077:CLK *727:31 0
14 *3077:CLK *820:10 0
15 *3077:CLK *1141:74 0
16 *3079:CLK *720:22 0
17 *3079:CLK *816:10 0
18 *703:8 *2625:A0 0.000241886
19 *703:8 *2625:A1 0
20 *703:8 *2625:S 0
21 *703:8 *3075:RESET_B 0
22 *703:8 *1152:31 0
23 *703:8 *1152:37 0
24 *703:19 *727:31 0
25 *3345:A *703:8 4.77425e-05
26 *145:12 *3079:CLK 0.000608527
27 *346:10 *3079:CLK 0.000288087
28 *346:10 *703:19 5.30319e-05
*RES
1 *3208:X *703:8 43.6833 
2 *703:8 *3079:CLK 48.2606 
3 *703:8 *703:19 4.0582 
4 *703:19 *3083:CLK 40 
5 *703:19 *3077:CLK 46.4272 
6 *3208:X *3075:CLK 41.9673 
*END

*D_NET *704 0.00404667
*CONN
*I *3037:CLK I *D sg13cmos5l_dfrbpq_1
*I *2973:CLK I *D sg13cmos5l_dfrbpq_1
*I *2957:CLK I *D sg13cmos5l_dfrbpq_1
*I *2969:CLK I *D sg13cmos5l_dfrbpq_1
*I *3209:X O *D sg13cmos5l_buf_8
*CAP
1 *3037:CLK 0.000184654
2 *2973:CLK 0
3 *2957:CLK 0
4 *2969:CLK 0.000372172
5 *3209:X 0.000140523
6 *704:32 0.000455112
7 *704:23 0.000463829
8 *704:10 0.000706066
9 *2969:CLK *776:25 0
10 *3037:CLK *877:30 0
11 *704:10 *988:8 8.00842e-05
12 *704:23 *877:30 0
13 *704:23 *905:28 0.000272747
14 *704:32 *877:30 0
15 *704:32 *905:28 0.000272648
16 *3209:A *3037:CLK 1.54008e-05
17 *3209:A *704:32 0
18 *3210:A *3037:CLK 0.000225213
19 *282:22 *704:23 4.77425e-05
20 *282:32 *2969:CLK 7.51285e-05
21 *282:32 *704:10 0.000234224
22 *635:44 *2969:CLK 0.000501132
*RES
1 *3209:X *704:10 41.6274 
2 *704:10 *2969:CLK 43.811 
3 *704:10 *704:23 21.8334 
4 *704:23 *2957:CLK 20 
5 *704:23 *704:32 2.6162 
6 *704:32 *2973:CLK 20 
7 *704:32 *3037:CLK 21.8334 
*END

*D_NET *705 0.00506306
*CONN
*I *3224:A I *D sg13cmos5l_inv_1
*I *3025:CLK I *D sg13cmos5l_dfrbpq_1
*I *2961:CLK I *D sg13cmos5l_dfrbpq_1
*I *2977:CLK I *D sg13cmos5l_dfrbpq_1
*I *3210:X O *D sg13cmos5l_buf_8
*CAP
1 *3224:A 0.00043669
2 *3025:CLK 0
3 *2961:CLK 0.000592112
4 *2977:CLK 0
5 *3210:X 0
6 *705:14 0.000821972
7 *705:12 0.000583845
8 *705:6 0.000790675
9 *2961:CLK *877:30 0
10 *3224:A *917:12 0.000209374
11 *3224:A *917:18 0
12 *705:12 *917:18 0
13 config_o[29] *3224:A 0
14 config_o[29] *705:12 0
15 *3041:CLK *2961:CLK 0.000241897
16 *3210:A *2961:CLK 0.000853657
17 *3210:A *705:12 0
18 *3210:A *705:14 0
19 *3391:A *705:12 0.000194138
20 *3391:A *705:14 0.000338695
*RES
1 *3210:X *705:6 40 
2 *705:6 *705:12 23.2342 
3 *705:12 *705:14 2.266 
4 *705:14 *2977:CLK 20 
5 *705:14 *2961:CLK 26.4272 
6 *705:12 *3025:CLK 20 
7 *705:6 *3224:A 43.9758 
*END

*D_NET *706 0.00685974
*CONN
*I *2999:CLK I *D sg13cmos5l_dfrbpq_1
*I *2997:CLK I *D sg13cmos5l_dfrbpq_1
*I *3085:CLK I *D sg13cmos5l_dfrbpq_1
*I *3109:CLK I *D sg13cmos5l_dfrbpq_1
*I *3211:X O *D sg13cmos5l_buf_8
*CAP
1 *2999:CLK 0.000433888
2 *2997:CLK 0
3 *3085:CLK 0.000630032
4 *3109:CLK 0.000422479
5 *3211:X 5.00917e-05
6 *706:32 0.00101639
7 *706:10 0.00127695
8 *706:8 0.000857032
9 *2999:CLK *767:27 0
10 *2999:CLK *1033:18 0
11 *2999:CLK *1137:30 0.000110289
12 *2999:CLK *1137:54 0.000533225
13 *3085:CLK *3085:RESET_B 0
14 *3085:CLK *721:12 0.000337825
15 *3085:CLK *788:32 0
16 *3085:CLK *1031:36 0
17 *3109:CLK *734:10 0.000663632
18 *706:32 *1033:18 0
19 *706:32 *1137:30 0.000253514
20 *2636:B *3085:CLK 0
21 *3211:A *3109:CLK 0
22 *3211:A *706:8 0
23 *3211:A *706:10 0
24 *5:18 *706:8 0
25 *104:8 *706:32 0
26 *187:14 *3109:CLK 0
27 *187:14 *706:10 0
28 *187:14 *706:32 0
29 *302:10 *706:32 0
30 *660:20 *2999:CLK 0.000274397
31 *672:8 *3109:CLK 0
*RES
1 *3211:X *706:8 40.5356 
2 *706:8 *706:10 2.0806 
3 *706:10 *3109:CLK 45.2942 
4 *706:10 *3085:CLK 46.5096 
5 *706:8 *706:32 5.62638 
6 *706:32 *2997:CLK 40 
7 *706:32 *2999:CLK 44.8178 
*END

*D_NET *707 0.00602148
*CONN
*I *3107:CLK I *D sg13cmos5l_dfrbpq_1
*I *3095:CLK I *D sg13cmos5l_dfrbpq_1
*I *3091:CLK I *D sg13cmos5l_dfrbpq_1
*I *3093:CLK I *D sg13cmos5l_dfrbpq_1
*I *3212:X O *D sg13cmos5l_buf_8
*CAP
1 *3107:CLK 0.000891691
2 *3095:CLK 4.08322e-05
3 *3091:CLK 0
4 *3093:CLK 0
5 *3212:X 0.000171516
6 *707:28 0.000736019
7 *707:20 0.00114005
8 *707:12 0.000735571
9 *707:8 0.00135391
10 *3107:CLK *1103:39 0
11 *3107:CLK *1125:27 0
12 *707:8 *2759:A 0
13 *707:8 *1072:23 0
14 *707:12 *1103:39 0
15 *707:12 *1125:27 0
16 *707:20 *1103:39 0
17 *707:20 *1156:31 0
18 *707:28 *1103:35 0
19 *707:28 *1116:28 0
20 *707:28 *1118:28 0
21 *707:28 *1121:76 0
22 *707:28 *1147:20 0
23 *707:28 *1148:28 0
24 *3091:D *707:28 0.000274491
25 *3212:A *707:8 0
26 *209:33 *707:20 0.000208999
27 *473:10 *707:20 0.000129078
28 *474:10 *707:28 0.000339317
29 *479:14 *707:20 0
*RES
1 *3212:X *707:8 41.4008 
2 *707:8 *707:12 2.8943 
3 *707:12 *707:20 24.0479 
4 *707:20 *707:28 47.5602 
5 *707:28 *3093:CLK 20 
6 *707:20 *3091:CLK 20 
7 *707:12 *3095:CLK 40.3193 
8 *707:8 *3107:CLK 48.5078 
*END

*D_NET *708 0.0109292
*CONN
*I *3097:CLK I *D sg13cmos5l_dfrbpq_1
*I *3125:CLK I *D sg13cmos5l_dfrbpq_1
*I *3103:CLK I *D sg13cmos5l_dfrbpq_1
*I *3087:CLK I *D sg13cmos5l_dfrbpq_1
*I *3213:X O *D sg13cmos5l_buf_8
*CAP
1 *3097:CLK 0.000133949
2 *3125:CLK 0
3 *3103:CLK 0.00043057
4 *3087:CLK 8.10839e-05
5 *3213:X 0
6 *708:55 0.00110805
7 *708:36 0.00167301
8 *708:12 0.000909209
9 *708:4 0.00109647
10 *3087:CLK *987:36 0.000144583
11 *3097:CLK *1126:39 0.000241198
12 *3097:CLK *1150:80 0.000241138
13 *3103:CLK *987:36 0
14 *3103:CLK *1148:28 0
15 *708:12 *732:14 0.000661265
16 *708:12 *732:31 0.000694986
17 *708:12 *1146:26 0.00108831
18 *708:12 *1156:31 0
19 *708:36 *783:10 0
20 *708:36 *1156:31 0
21 *708:55 *742:27 0
22 *708:55 *762:35 1.55212e-05
23 *708:55 *1086:10 0.000176443
24 *708:55 *1132:42 0.000446438
25 *2793:B *3103:CLK 0
26 *2849:B *708:55 0.000212127
27 *2851:D *708:36 0
28 *208:25 *708:12 7.98779e-05
29 *208:25 *708:36 0.000763553
30 *208:25 *708:55 0.000241401
31 *358:18 *3087:CLK 0
32 *358:43 *708:55 0.000234224
33 *360:12 *3087:CLK 4.77425e-05
34 *389:10 *708:12 0
35 *500:10 *3103:CLK 0.000208074
36 *545:12 *708:55 0
*RES
1 *3213:X *708:4 20 
2 *708:4 *708:12 47.313 
3 *708:12 *3087:CLK 20.9682 
4 *708:12 *3103:CLK 23.8316 
5 *708:4 *708:36 7.107 
6 *708:36 *3125:CLK 20 
7 *708:36 *708:55 49.8777 
8 *708:55 *3097:CLK 21.6171 
*END

*D_NET *709 0.00440923
*CONN
*I *2995:CLK I *D sg13cmos5l_dfrbpq_1
*I *3121:CLK I *D sg13cmos5l_dfrbpq_1
*I *3105:CLK I *D sg13cmos5l_dfrbpq_1
*I *3089:CLK I *D sg13cmos5l_dfrbpq_1
*I *3214:X O *D sg13cmos5l_buf_8
*CAP
1 *2995:CLK 0.000397883
2 *3121:CLK 0.000242687
3 *3105:CLK 0
4 *3089:CLK 0.000495406
5 *3214:X 0
6 *709:10 0.000634586
7 *709:8 0.000870131
8 *709:6 0.000886147
9 *2995:CLK *1007:12 0
10 *2995:CLK *1129:22 0
11 *2995:CLK *1136:78 0
12 *3089:CLK *734:101 0
13 *3089:CLK *743:18 0.000273946
14 *3089:CLK *794:10 0
15 *3089:CLK *1147:30 0
16 *3121:CLK *3237:A 0
17 *3121:CLK *743:18 0
18 *709:8 *763:8 0
19 *709:8 *1129:22 0
20 *709:8 *1147:30 0
21 *709:10 *734:101 0
22 *5:28 *709:8 0
23 *295:19 *2995:CLK 0.000608441
*RES
1 *3214:X *709:6 40 
2 *709:6 *709:8 4.7998 
3 *709:8 *709:10 1.5862 
4 *709:10 *3089:CLK 44.841 
5 *709:10 *3105:CLK 40 
6 *709:8 *3121:CLK 42.266 
7 *709:6 *2995:CLK 44.7998 
*END

*D_NET *710 0.00795649
*CONN
*I *3141:CLK I *D sg13cmos5l_dfrbpq_1
*I *3218:A I *D sg13cmos5l_inv_1
*I *3123:CLK I *D sg13cmos5l_dfrbpq_1
*I *2923:CLK I *D sg13cmos5l_dfrbpq_1
*I *3215:X O *D sg13cmos5l_buf_8
*CAP
1 *3141:CLK 0.000647237
2 *3218:A 0
3 *3123:CLK 0.000451334
4 *2923:CLK 0
5 *3215:X 0
6 *710:44 0.000852913
7 *710:29 0.000804359
8 *710:20 0.00101338
9 *710:6 0.00116073
10 *3123:CLK *741:18 0
11 *3123:CLK *741:63 0.000112689
12 *3123:CLK *1146:66 0.000552831
13 *3123:CLK *1153:93 0
14 *3141:CLK *1129:22 0
15 *710:20 *876:71 2.20966e-05
16 *710:20 *876:86 0.000129281
17 *710:20 *1140:22 0
18 *710:20 *1146:66 0
19 *710:29 *741:18 0
20 *710:29 *1146:66 0.000357142
21 *710:44 *1129:22 0
22 *2688:B *3123:CLK 0
23 *5:30 *3141:CLK 0
24 *219:24 *3123:CLK 0
25 *219:30 *3123:CLK 0.000234224
26 *220:10 *710:20 0
27 *220:33 *710:20 0.000396105
28 *225:18 *710:20 0.000466064
29 *611:16 *710:20 0.000290042
30 *611:29 *710:20 0
31 *627:12 *710:20 0
32 *660:20 *710:20 0.000466064
*RES
1 *3215:X *710:6 40 
2 *710:6 *710:20 31.3712 
3 *710:20 *2923:CLK 20 
4 *710:6 *710:29 1.9055 
5 *710:29 *3123:CLK 45.0573 
6 *710:29 *710:44 21.6171 
7 *710:44 *3218:A 20 
8 *710:44 *3141:CLK 26.077 
*END

*D_NET *711 0.00625297
*CONN
*I *3067:CLK I *D sg13cmos5l_dfrbpq_1
*I *3063:CLK I *D sg13cmos5l_dfrbpq_1
*I *3059:CLK I *D sg13cmos5l_dfrbpq_1
*I *3061:CLK I *D sg13cmos5l_dfrbpq_1
*I *3216:X O *D sg13cmos5l_buf_8
*CAP
1 *3067:CLK 0.00064931
2 *3063:CLK 0.000604687
3 *3059:CLK 0
4 *3061:CLK 0.000206376
5 *3216:X 0.000213745
6 *711:12 0.000242619
7 *711:10 0.000774854
8 *711:8 0.000996978
9 *3061:CLK *3059:RESET_B 0
10 *3061:CLK *3061:RESET_B 0
11 *3061:CLK *1104:12 0.00018261
12 *3063:CLK *3415:A 3.24458e-05
13 *3063:CLK *727:27 0
14 *3063:CLK *727:50 0
15 *3063:CLK *728:18 0.000112454
16 *3067:CLK *1104:12 0.00170375
17 *3067:CLK *1107:16 0
18 *711:8 *727:10 0
19 *711:8 *727:27 0
20 *711:10 *1104:12 0.000426244
21 *711:12 *1104:12 0.000106894
22 *3216:A *3067:CLK 0
23 *3216:A *711:8 0
24 *331:36 *3061:CLK 0
25 *331:36 *711:10 0
26 *331:36 *711:12 0
27 *332:8 *3063:CLK 0
*RES
1 *3216:X *711:8 41.8334 
2 *711:8 *711:10 2.0806 
3 *711:10 *711:12 0.5974 
4 *711:12 *3061:CLK 42.678 
5 *711:12 *3059:CLK 40 
6 *711:10 *3063:CLK 46.077 
7 *711:8 *3067:CLK 48.0134 
*END

*D_NET *712 0.00584499
*CONN
*I *2985:CLK I *D sg13cmos5l_dfrbpq_1
*I *3003:CLK I *D sg13cmos5l_dfrbpq_1
*I *2987:CLK I *D sg13cmos5l_dfrbpq_1
*I *3051:CLK I *D sg13cmos5l_dfrbpq_1
*I *3217:X O *D sg13cmos5l_buf_8
*CAP
1 *2985:CLK 0.000675095
2 *3003:CLK 2.44006e-05
3 *2987:CLK 0.000183092
4 *3051:CLK 0.000626432
5 *3217:X 0.000644139
6 *712:30 0.000699496
7 *712:14 0.00099071
8 *712:10 0.000825325
9 *2985:CLK *2530:A1 0
10 *2985:CLK *2599:A0 0
11 *2985:CLK *987:46 0
12 *2985:CLK *1157:76 0
13 *2987:CLK *3003:RESET_B 0
14 *3003:CLK *2599:A0 4.78192e-05
15 *3051:CLK *2599:A0 0
16 *3051:CLK *2599:A1 0
17 *3051:CLK *768:14 0
18 *712:10 *3229:A 0
19 *712:10 *727:50 0
20 *712:10 *768:76 0
21 *712:14 *3229:A 0
22 *3180:A *3051:CLK 0
23 *47:6 *2987:CLK 9.62323e-05
24 *47:6 *3051:CLK 0.000952088
25 *296:10 *2985:CLK 8.01609e-05
26 *643:8 *2985:CLK 0
27 *643:21 *2985:CLK 0
28 *663:12 *712:10 0
29 *675:30 *2987:CLK 0
30 *675:30 *3051:CLK 0
*RES
1 *3217:X *712:10 44.9955 
2 *712:10 *712:14 21.339 
3 *712:14 *3051:CLK 26.3757 
4 *712:14 *2987:CLK 21.6171 
5 *712:10 *712:30 20 
6 *712:30 *3003:CLK 20.3193 
7 *712:30 *2985:CLK 24.8293 
*END

*D_NET *713 0.00983283
*CONN
*I *2382:A I *D sg13cmos5l_and2_1
*I *3397:A I *D sg13cmos5l_dlygate4sd3_1
*I *3049:Q O *D sg13cmos5l_dfrbpq_1
*CAP
1 *2382:A 0
2 *3397:A 0.000170506
3 *3049:Q 0.000550381
4 *713:29 0.000782704
5 *713:12 0.00150359
6 *3397:A *1099:20 0.000342951
7 *3397:A *1102:10 0.000341949
8 *3397:A *1108:20 8.0216e-05
9 *713:12 *2603:S 4.77425e-05
10 *713:12 *3227:A 0.000240196
11 *713:12 *847:22 0.000208747
12 *713:29 *1099:20 0.00235116
13 *713:29 *1102:10 0.00290615
14 *713:29 *1106:16 0
15 *713:29 *1106:22 0
16 *53:12 *713:29 0
17 *682:8 *713:12 0.000306531
*RES
1 *3049:Q *713:12 46.2418 
2 *713:12 *3397:A 42.7707 
3 *713:12 *713:29 34.9453 
4 *713:29 *2382:A 20 
*END

*D_NET *714 0.00256535
*CONN
*I *3166:A I *D sg13cmos5l_buf_1
*I *3385:A I *D sg13cmos5l_dlygate4sd3_1
*I *3069:Q O *D sg13cmos5l_dfrbpq_1
*CAP
1 *3166:A 5.40902e-05
2 *3385:A 0.000195966
3 *3069:Q 0.000302982
4 *714:8 0.000553039
5 *3166:A *1107:24 0
6 *3385:A *1106:16 0.00027377
7 en_ros_o[0] *3166:A 0.000159598
8 en_ros_o[0] *714:8 0.000978003
9 en_ros_o[1] *714:8 0
10 *2382:B *3385:A 4.79017e-05
*RES
1 *3069:Q *714:8 44.5526 
2 *714:8 *3385:A 42.1527 
3 *714:8 *3166:A 40.8446 
*END

*D_NET *715 0.00765761
*CONN
*I *3167:A I *D sg13cmos5l_buf_1
*I *3356:A I *D sg13cmos5l_dlygate4sd3_1
*I *3071:Q O *D sg13cmos5l_dfrbpq_1
*CAP
1 *3167:A 0
2 *3356:A 0.000171466
3 *3071:Q 0.000426034
4 *715:35 0.000986206
5 *715:12 0.00115767
6 *715:10 0.000426034
7 *715:10 *727:56 7.89542e-05
8 *715:10 *1108:24 0.00194424
9 *715:10 *1141:115 0.000878964
10 *715:35 *3496:A 0
11 *715:35 *726:21 0.000181192
12 *715:35 *1001:10 0
13 *715:35 *1105:12 0
14 *715:35 *1108:24 0
15 *715:35 *1109:20 8.0216e-05
16 en_load_o[1] *715:10 0.000980384
17 en_load_o[1] *715:35 0
18 sel_load_src_o[1] *715:35 0.0001872
19 *3357:A *715:35 0
20 *52:20 *715:10 7.89542e-05
21 *331:48 *715:35 8.00842e-05
22 *331:63 *715:35 0
*RES
1 *3071:Q *715:10 49.5378 
2 *715:10 *715:12 20 
3 *715:12 *3356:A 21.1845 
4 *715:12 *715:35 49.3318 
5 *715:35 *3167:A 20 
*END

*D_NET *716 0.00435149
*CONN
*I *3168:A I *D sg13cmos5l_buf_1
*I *3348:A I *D sg13cmos5l_dlygate4sd3_1
*I *3073:Q O *D sg13cmos5l_dfrbpq_1
*CAP
1 *3168:A 0.000219909
2 *3348:A 0
3 *3073:Q 0.000572811
4 *716:12 0.000375607
5 *716:8 0.000728509
6 *3168:A *1057:29 0.000306963
7 *716:12 *1057:29 0.000209714
8 *187:18 *716:8 0.00193797
9 *657:8 *716:8 0
10 *686:27 *716:8 0
*RES
1 *3073:Q *716:8 49.0022 
2 *716:8 *716:12 21.4008 
3 *716:12 *3348:A 20 
4 *716:12 *3168:A 22.0497 
*END

*D_NET *717 0.00321787
*CONN
*I *3344:A I *D sg13cmos5l_dlygate4sd3_1
*I *2393:A I *D sg13cmos5l_inv_1
*I *3075:Q O *D sg13cmos5l_dfrbpq_1
*CAP
1 *3344:A 0.000232958
2 *2393:A 0.000792928
3 *3075:Q 0
4 *717:6 0.00102589
5 *2393:A *2632:A 0
6 *2393:A *985:8 0.00103693
7 *2393:A *1152:37 0
8 *3344:A *730:12 0
9 *3344:A *985:8 0.000129163
*RES
1 *3075:Q *717:6 40 
2 *717:6 *2393:A 49.3524 
3 *717:6 *3344:A 42.8634 
*END

*D_NET *718 0.00871133
*CONN
*I *3406:A I *D sg13cmos5l_dlygate4sd3_1
*I *2391:A I *D sg13cmos5l_nor2b_1
*I *2394:B I *D sg13cmos5l_nand2b_1
*I *3077:Q O *D sg13cmos5l_dfrbpq_1
*CAP
1 *3406:A 0.000216545
2 *2391:A 0.000373783
3 *2394:B 0.000397396
4 *3077:Q 0
5 *718:12 0.00333538
6 *718:4 0.00278075
7 *2391:A *2391:B_N 0
8 *2391:A *2394:A_N 0
9 *2394:B *2394:A_N 1.54008e-05
10 *2394:B *1160:38 0.000501241
11 *2394:B *1161:10 0
12 *3406:A *820:10 0
13 *718:12 *820:10 0
14 *718:12 *1160:38 0.000530319
15 *2392:C1 *2391:A 0.000305467
16 *2396:B2 *2391:A 0
17 *2396:A2 *2391:A 0.00017619
18 *2396:A1 *2394:B 0
19 *5:6 *718:12 0
20 *5:18 *3406:A 0
21 *189:16 *2391:A 7.88655e-05
22 *190:10 *718:12 0
23 *195:10 *718:12 0
24 *196:10 *2394:B 0
25 *331:36 *718:12 0
*RES
1 *3077:Q *718:4 20 
2 *718:4 *718:12 45.647 
3 *718:12 *2394:B 43.7286 
4 *718:12 *2391:A 43.914 
5 *718:4 *3406:A 21.9982 
*END

*D_NET *719 0.00298221
*CONN
*I *3379:A I *D sg13cmos5l_dlygate4sd3_1
*I *2390:A I *D sg13cmos5l_inv_1
*I *2386:B I *D sg13cmos5l_nand2b_1
*I *3079:Q O *D sg13cmos5l_dfrbpq_1
*CAP
1 *3379:A 5.16257e-05
2 *2390:A 0
3 *2386:B 0.000188619
4 *3079:Q 0.000786114
5 *719:39 0.000441953
6 *719:10 0.000584404
7 *2386:B *2386:A_N 3.09112e-05
8 *719:10 *2386:A_N 0
9 *719:10 *2388:A 0.000208576
10 *719:10 *2392:B1 0
11 *719:39 *722:18 0.000448013
12 *2392:A1 *2386:B 0
13 *2392:A1 *719:10 0
14 *3081:D *2386:B 0
15 *3081:D *719:10 0.00024199
16 *190:10 *719:10 0
17 *194:16 *2386:B 0
*RES
1 *3079:Q *719:10 24.0479 
2 *719:10 *2386:B 22.266 
3 *719:10 *2390:A 20 
4 *3079:Q *719:39 43.914 
5 *719:39 *3379:A 40.5356 
*END

*D_NET *720 0.00364067
*CONN
*I *2388:A I *D sg13cmos5l_inv_1
*I *3338:A I *D sg13cmos5l_dlygate4sd3_1
*I *3081:Q O *D sg13cmos5l_dfrbpq_1
*CAP
1 *2388:A 0.000143423
2 *3338:A 0.000400859
3 *3081:Q 0.0010124
4 *720:22 0.000754966
5 *2388:A *2392:B1 0
6 *3338:A *2631:A0 0
7 *3338:A *2631:A1 0
8 *3338:A *2631:S 0
9 *720:22 *2631:S 0.000112388
10 *720:22 *816:10 0
11 *3079:CLK *720:22 0
12 *3081:CLK *720:22 0.000826861
13 *195:18 *720:22 0.000181192
14 *719:10 *2388:A 0.000208576
*RES
1 *3081:Q *3338:A 43.5638 
2 *3081:Q *720:22 47.5293 
3 *720:22 *2388:A 41.4008 
*END

*D_NET *721 0.0090319
*CONN
*I *3400:A I *D sg13cmos5l_dlygate4sd3_1
*I *2398:A I *D sg13cmos5l_inv_1
*I *2403:A1 I *D sg13cmos5l_a22oi_1
*I *3083:Q O *D sg13cmos5l_dfrbpq_1
*CAP
1 *3400:A 0
2 *2398:A 0
3 *2403:A1 6.46703e-05
4 *3083:Q 0.000471752
5 *721:22 0.00228571
6 *721:12 0.0026928
7 *721:12 *1141:74 0
8 *721:12 *1141:81 0.000182023
9 *721:22 *2630:A 0
10 *721:22 *722:18 0
11 *721:22 *729:20 0.00210539
12 *721:22 *1141:49 0.000289002
13 *721:22 *1141:74 0
14 *721:22 *1141:81 0.000318279
15 *721:22 *1152:68 0
16 *721:22 *1152:98 0
17 *2400:A1 *721:22 4.72443e-05
18 *2404:B1 *721:22 0
19 *2636:B *721:12 0
20 *3085:CLK *721:12 0.000337825
21 *148:10 *721:12 0
22 *202:12 *721:22 0.000237204
23 *206:8 *721:22 0
24 *350:10 *721:22 0
25 *665:29 *721:22 0
*RES
1 *3083:Q *721:12 44.7586 
2 *721:12 *721:22 46.175 
3 *721:22 *2403:A1 20.5974 
4 *721:22 *2398:A 20 
5 *721:12 *3400:A 40 
*END

*D_NET *722 0.0135814
*CONN
*I *3414:A I *D sg13cmos5l_dlygate4sd3_1
*I *2403:B2 I *D sg13cmos5l_a22oi_1
*I *2401:A1 I *D sg13cmos5l_a21oi_1
*I *2399:A I *D sg13cmos5l_inv_1
*I *3085:Q O *D sg13cmos5l_dfrbpq_1
*CAP
1 *3414:A 0.000196079
2 *2403:B2 6.84128e-05
3 *2401:A1 0
4 *2399:A 0.000232492
5 *3085:Q 3.87022e-05
6 *722:24 0.000393709
7 *722:18 0.00254324
8 *722:8 0.00254839
9 *2399:A *2402:A 0
10 *3414:A *2609:A0 0
11 *3414:A *729:20 0.000182121
12 *3414:A *731:49 0.000160013
13 *722:18 *729:20 0.00173397
14 *722:18 *731:49 0.00167273
15 *722:18 *1141:16 0.000606693
16 *722:18 *1141:36 0.00053198
17 *722:18 *1152:14 0.000446767
18 *2401:A2 *2399:A 1.54008e-05
19 *2401:A2 *722:24 6.46834e-05
20 *2401:B1 *722:24 0
21 *2404:B1 *2403:B2 7.9586e-05
22 *5:18 *3414:A 0
23 *199:8 *722:24 8.01933e-05
24 *201:10 *2399:A 0
25 *202:12 *722:18 0
26 *203:10 *2399:A 4.77425e-05
27 *203:10 *722:18 0.000797556
28 *203:10 *722:24 0.000346743
29 *204:27 *2403:B2 0.000111928
30 *204:27 *722:24 0.000234224
31 *719:39 *722:18 0.000448013
32 *721:22 *722:18 0
*RES
1 *3085:Q *722:8 40.3193 
2 *722:8 *722:18 30.3644 
3 *722:18 *722:24 22.3072 
4 *722:24 *2399:A 22.1836 
5 *722:24 *2401:A1 20 
6 *722:18 *2403:B2 40.7519 
7 *722:8 *3414:A 42.2454 
*END

*D_NET *723 0.0124458
*CONN
*I *3410:A I *D sg13cmos5l_dlygate4sd3_1
*I *2383:A I *D sg13cmos5l_and2_1
*I *3051:Q O *D sg13cmos5l_dfrbpq_1
*CAP
1 *3410:A 0.000422624
2 *2383:A 0
3 *3051:Q 0
4 *723:10 0.00144508
5 *723:4 0.00186771
6 *3410:A *731:8 0.000177203
7 *3410:A *731:39 0.000193591
8 *3410:A *768:14 0
9 *723:10 *873:14 0
10 *723:10 *1104:12 0
11 *723:10 *1107:16 0.00449006
12 en_ros_o[2] *723:10 0.00252456
13 *2600:B *3410:A 0
14 *2600:B *723:10 0.000305893
15 *3049:D *723:10 0.000176482
16 *3049:CLK *723:10 0
17 *132:8 *723:10 0.000128334
18 *138:10 *723:10 0.000554077
19 *332:25 *3410:A 8.00842e-05
20 *332:42 *3410:A 8.00842e-05
21 *682:10 *723:10 0
22 *682:32 *723:10 0
*RES
1 *3051:Q *723:4 20 
2 *723:4 *723:10 44.6479 
3 *723:10 *2383:A 40 
4 *723:4 *3410:A 24.1921 
*END

*D_NET *724 0.00301528
*CONN
*I *2384:A I *D sg13cmos5l_and2_1
*I *3369:A I *D sg13cmos5l_dlygate4sd3_1
*I *3053:Q O *D sg13cmos5l_dfrbpq_1
*CAP
1 *2384:A 0.000124857
2 *3369:A 4.96871e-05
3 *3053:Q 0.000615758
4 *724:10 0.000790302
5 *2384:A *873:14 0.000267945
6 *3369:A *1106:16 8.00842e-05
7 *724:10 *3071:RESET_B 0
8 *724:10 *873:14 0.00108664
*RES
1 *3053:Q *724:10 46.0152 
2 *724:10 *3369:A 40.5356 
3 *724:10 *2384:A 41.339 
*END

*D_NET *725 0.00505509
*CONN
*I *2385:A I *D sg13cmos5l_and2_1
*I *2621:A0 I *D sg13cmos5l_mux2_1
*I *3378:A I *D sg13cmos5l_dlygate4sd3_1
*I *3055:Q O *D sg13cmos5l_dfrbpq_1
*CAP
1 *2385:A 0.00020054
2 *2621:A0 0.000358082
3 *3378:A 0.000180602
4 *3055:Q 0.000622721
5 *725:26 0.00102482
6 *725:8 0.000337129
7 *2385:A *1100:12 5.34469e-05
8 *2621:A0 *2379:A 0.000498226
9 *2621:A0 *2621:A1 0.000176605
10 *2621:A0 *2623:A0 4.77425e-05
11 *2621:A0 *1105:12 0
12 *3378:A *1024:10 0
13 *3378:A *1031:20 0
14 *725:8 *2603:A1 0
15 *725:8 *727:64 0.000393823
16 *725:8 *1014:14 2.21839e-05
17 *725:26 *1100:12 0.00113918
18 *187:24 *2385:A 0
19 *187:35 *2385:A 0
*RES
1 *3055:Q *725:8 41.8334 
2 *725:8 *3378:A 41.6171 
3 *3055:Q *725:26 45.2942 
4 *725:26 *2621:A0 43.5638 
5 *725:26 *2385:A 41.5862 
*END

*D_NET *726 0.0072129
*CONN
*I *2623:A0 I *D sg13cmos5l_mux2_1
*I *2379:A I *D sg13cmos5l_and2_1
*I *3394:A I *D sg13cmos5l_dlygate4sd3_1
*I *3057:Q O *D sg13cmos5l_dfrbpq_1
*CAP
1 *2623:A0 0.000519567
2 *2379:A 0.000282582
3 *3394:A 0.000387428
4 *3057:Q 0
5 *726:21 0.00141754
6 *726:6 0.00100282
7 *2623:A0 *1105:12 0
8 *3394:A *2537:A 0.00012816
9 *3394:A *2603:A0 0.000305253
10 *3394:A *828:8 0
11 *3394:A *1108:24 0
12 *3394:A *1109:20 0
13 *726:21 *1108:24 0
14 *726:21 *1109:20 0
15 *2537:B *3394:A 0
16 *2621:A0 *2379:A 0.000498226
17 *2621:A0 *2623:A0 4.77425e-05
18 *52:20 *3394:A 0.000208118
19 *187:20 *2379:A 0.000498226
20 *187:20 *2623:A0 9.71568e-05
21 *331:48 *726:21 0.00108481
22 *331:63 *2623:A0 0
23 *683:49 *726:21 0.000554078
24 *715:35 *726:21 0.000181192
*RES
1 *3057:Q *726:6 40 
2 *726:6 *3394:A 44.1303 
3 *726:6 *726:21 28.5078 
4 *726:21 *2379:A 23.3475 
5 *726:21 *2623:A0 24.6659 
*END

*D_NET *727 0.024604
*CONN
*I *2380:A I *D sg13cmos5l_and2_1
*I *2625:A0 I *D sg13cmos5l_mux2_1
*I *3416:A I *D sg13cmos5l_dlygate4sd3_1
*I *3059:Q O *D sg13cmos5l_dfrbpq_1
*CAP
1 *2380:A 0
2 *2625:A0 0.000151887
3 *3416:A 0.000111606
4 *3059:Q 0.000330593
5 *727:64 0.000831657
6 *727:56 0.00148245
7 *727:50 0.0030021
8 *727:31 0.00171643
9 *727:27 0.00451481
10 *727:12 0.000710567
11 *727:10 0.000330593
12 *2625:A0 *3075:RESET_B 0
13 *727:27 *728:8 0
14 *727:27 *1107:14 0
15 *727:31 *728:18 0.00257967
16 *727:31 *1133:22 0
17 *727:50 *2537:A 0
18 *727:50 *2601:A0 0
19 *727:50 *3229:A 0
20 *727:50 *3418:A 0
21 *727:50 *767:27 0.000112651
22 *727:50 *768:70 0
23 *727:50 *772:19 0
24 *727:50 *1031:30 4.82798e-05
25 *727:50 *1031:36 0.000235556
26 *727:50 *1107:14 0
27 *727:50 *1109:20 0.00156417
28 *727:56 *2537:A 0
29 *727:56 *828:8 0
30 *727:64 *2603:A1 0
31 *727:64 *728:36 0.00215135
32 *727:64 *1014:14 0
33 *727:64 *1099:8 0.000287758
34 *727:64 *1105:12 0.000144778
35 en_ros_o[1] *727:10 0
36 en_ros_o[3] *727:64 0
37 *3063:CLK *727:27 0
38 *3063:CLK *727:50 0
39 *3077:CLK *727:31 0
40 *3216:A *727:10 0.000175892
41 *3216:A *727:27 0
42 *3256:A *727:31 0
43 *47:10 *727:50 0.00306534
44 *52:20 *727:50 0
45 *52:20 *727:56 0
46 *332:8 *727:50 0
47 *332:25 *727:31 0.000341204
48 *703:8 *2625:A0 0.000241886
49 *703:19 *727:31 0
50 *711:8 *727:10 0
51 *711:8 *727:27 0
52 *712:10 *727:50 0
53 *715:10 *727:56 7.89542e-05
54 *725:8 *727:64 0.000393823
*RES
1 *3059:Q *727:10 43.2651 
2 *727:10 *727:12 20 
3 *727:12 *3416:A 21.3802 
4 *727:12 *727:27 5.5311 
5 *727:27 *727:31 38.8902 
6 *727:31 *2625:A0 41.6171 
7 *727:27 *727:50 47.8512 
8 *727:50 *727:56 45.0779 
9 *727:56 *727:64 31.8038 
10 *727:64 *2380:A 20 
*END

*D_NET *728 0.0216848
*CONN
*I *2381:A I *D sg13cmos5l_and2_1
*I *3415:A I *D sg13cmos5l_dlygate4sd3_1
*I *2627:A0 I *D sg13cmos5l_mux2_1
*I *3061:Q O *D sg13cmos5l_dfrbpq_1
*CAP
1 *2381:A 0.000161647
2 *3415:A 2.8775e-05
3 *2627:A0 0.000155983
4 *3061:Q 0.000133462
5 *728:36 0.00227088
6 *728:18 0.00107784
7 *728:12 0.00108835
8 *728:8 0.00238042
9 *2381:A *1110:14 0
10 *2627:A0 *2627:A1 0.000176521
11 *728:8 *1107:14 0.000209544
12 *728:12 *1133:26 0
13 *728:18 *1055:10 0.000394248
14 *728:36 *2603:A1 0
15 *728:36 *731:16 0.000500214
16 *728:36 *769:24 0.000393493
17 *728:36 *769:35 0.000106894
18 *728:36 *769:56 0.000372382
19 *728:36 *771:27 0
20 *728:36 *1024:10 0.000871524
21 *728:36 *1045:10 0
22 *728:36 *1060:8 0.00177888
23 *728:36 *1100:12 0
24 *728:36 *1133:37 0
25 *728:36 *1133:65 0.000872356
26 en_ros_o[3] *728:36 0
27 *2381:B *2381:A 0.000208747
28 *3063:CLK *3415:A 3.24458e-05
29 *3063:CLK *728:18 0.000112454
30 *3077:CLK *2627:A0 0
31 *187:24 *728:36 0.000289417
32 *187:35 *728:36 0.000212127
33 *187:37 *2381:A 4.77425e-05
34 *332:25 *728:12 0.000341119
35 *332:25 *728:36 0.00234212
36 *338:10 *728:18 0.000394248
37 *727:27 *728:8 0
38 *727:31 *728:18 0.00257967
39 *727:64 *728:36 0.00215135
*RES
1 *3061:Q *728:8 41.4008 
2 *728:8 *728:12 21.5862 
3 *728:12 *728:18 32.7205 
4 *728:18 *2627:A0 41.4008 
5 *728:12 *3415:A 20.3193 
6 *728:8 *728:36 32.9806 
7 *728:36 *2381:A 41.6171 
*END

*D_NET *729 0.0116671
*CONN
*I *3163:A I *D sg13cmos5l_buf_1
*I *3418:A I *D sg13cmos5l_dlygate4sd3_1
*I *2629:A0 I *D sg13cmos5l_mux2_1
*I *3063:Q O *D sg13cmos5l_dfrbpq_1
*CAP
1 *3163:A 0.000121793
2 *3418:A 0.000139293
3 *2629:A0 0
4 *3063:Q 0.000113914
5 *729:20 0.00196806
6 *729:14 0.00221732
7 *729:12 0.00034568
8 *3418:A *2601:A0 0
9 *729:12 *2601:A0 0
10 *729:12 *731:49 0
11 *729:12 *1141:115 0.000129283
12 *729:14 *731:49 0
13 *729:14 *1141:115 0.000287256
14 *729:20 *3278:A 0.000394443
15 *729:20 *731:49 0
16 *729:20 *767:23 0
17 *729:20 *788:32 0
18 *729:20 *1063:8 0
19 *729:20 *1141:16 0.000608233
20 *729:20 *1141:36 0.00055613
21 *729:20 *1141:74 0.000395177
22 *729:20 *1141:115 0.000289306
23 *3380:A *729:20 7.97151e-05
24 *3414:A *729:20 0.000182121
25 *145:12 *729:20 0
26 *721:22 *729:20 0.00210539
27 *722:18 *729:20 0.00173397
28 *727:50 *3418:A 0
*RES
1 *3063:Q *729:12 41.236 
2 *729:12 *729:14 1.339 
3 *729:14 *729:20 46.5019 
4 *729:20 *2629:A0 20 
5 *729:14 *3418:A 41.1845 
6 *729:12 *3163:A 40.9682 
*END

*D_NET *730 0.0144642
*CONN
*I *2615:A1 I *D sg13cmos5l_mux2_1
*I *3164:A I *D sg13cmos5l_buf_1
*I *2631:A0 I *D sg13cmos5l_mux2_1
*I *3065:Q O *D sg13cmos5l_dfrbpq_1
*CAP
1 *2615:A1 0.000103171
2 *3164:A 0.000164872
3 *2631:A0 8.61997e-05
4 *3065:Q 0.00097464
5 *730:41 0.00045052
6 *730:12 0.00301924
7 *730:8 0.00372521
8 *2615:A1 *2615:A0 0.000144768
9 *2615:A1 *731:8 0
10 *2615:A1 *768:35 0.000176522
11 *2631:A0 *2631:A1 0.000145052
12 *2631:A0 *2631:S 0
13 *3164:A *768:14 0
14 *3164:A *1099:20 0
15 *730:8 *1104:12 0
16 *730:12 *2632:A 0.00114227
17 *730:12 *985:8 0
18 *730:12 *1066:8 0
19 *730:12 *1104:12 0
20 *730:12 *1152:37 0.000663122
21 *730:41 *3049:RESET_B 0
22 *730:41 *768:35 0.000304878
23 *730:41 *1045:10 0.00012816
24 en_ros_o[1] *730:8 0
25 en_ros_o[1] *730:12 0.00323558
26 *3049:CLK *730:41 0
27 *3338:A *2631:A0 0
28 *3344:A *730:12 0
29 *5:6 *730:12 0
30 *47:6 *3164:A 0
31 *48:12 *3164:A 0
32 *331:36 *730:12 0
*RES
1 *3065:Q *730:8 44.7998 
2 *730:8 *730:12 34.0415 
3 *730:12 *2631:A0 40.9682 
4 *730:8 *3164:A 41.3128 
5 *3065:Q *730:41 43.0797 
6 *730:41 *2615:A1 41.1845 
*END

*D_NET *731 0.0149929
*CONN
*I *3165:A I *D sg13cmos5l_buf_1
*I *2633:A0 I *D sg13cmos5l_mux2_1
*I *3411:A I *D sg13cmos5l_dlygate4sd3_1
*I *3067:Q O *D sg13cmos5l_dfrbpq_1
*CAP
1 *3165:A 0.000734147
2 *2633:A0 0
3 *3411:A 0
4 *3067:Q 0.000365393
5 *731:49 0.00297359
6 *731:39 0.0041099
7 *731:26 0.000129251
8 *731:16 0.000416666
9 *731:8 0.00105497
10 *3165:A *2607:A0 0
11 *3165:A *768:76 0
12 *3165:A *847:14 0
13 *3165:A *1109:8 0.000434877
14 *3165:A *1141:115 0.000396105
15 *731:8 *2615:A0 8.00842e-05
16 *731:8 *3049:RESET_B 0
17 *731:8 *768:35 0
18 *731:16 *1045:10 0
19 *731:26 *2616:B 0
20 *731:26 *847:14 6.99179e-05
21 *731:26 *1133:65 0.000340704
22 *731:39 *2615:A0 8.00842e-05
23 *731:39 *768:14 0
24 *731:39 *768:29 0
25 *731:39 *768:35 0
26 *731:49 *2633:A1 0.000112558
27 *731:49 *2633:S 0
28 *731:49 *1141:115 0
29 *731:49 *1147:75 0.000287256
30 *2539:B *3165:A 0
31 *2615:A1 *731:8 0
32 *3049:D *731:8 0
33 *3410:A *731:8 0.000177203
34 *3410:A *731:39 0.000193591
35 *3414:A *731:49 0.000160013
36 *134:12 *3165:A 7.53228e-05
37 *148:10 *731:49 0.000287672
38 *332:42 *731:26 0.000340704
39 *664:256 *3165:A 0
40 *664:256 *731:49 0
41 *722:18 *731:49 0.00167273
42 *728:36 *731:16 0.000500214
43 *729:12 *731:49 0
44 *729:14 *731:49 0
45 *729:20 *731:49 0
*RES
1 *3067:Q *731:8 23.4814 
2 *731:8 *731:16 43.0797 
3 *731:16 *731:26 42.2557 
4 *731:26 *3411:A 20 
5 *731:8 *731:39 23.5844 
6 *731:39 *731:49 49.458 
7 *731:49 *2633:A0 20 
8 *731:39 *3165:A 47.9619 
*END

*D_NET *732 0.0236269
*CONN
*I *2919:A0 I *D sg13cmos5l_mux2_1
*I *3271:A I *D sg13cmos5l_buf_1
*I *3087:Q O *D sg13cmos5l_dfrbpq_1
*CAP
1 *2919:A0 0
2 *3271:A 0.000491475
3 *3087:Q 0
4 *732:37 0.00453288
5 *732:33 0.00453288
6 *732:31 0.000949485
7 *732:14 0.00126674
8 *732:6 0.00172475
9 *3271:A *798:12 0.000112426
10 *732:14 *798:12 0.000181192
11 *732:14 *1146:26 0.000111596
12 *732:14 *1148:41 0.000394566
13 *732:31 *757:37 0
14 *732:31 *1148:41 0.000128248
15 *732:31 *1156:31 0
16 *732:37 *734:101 0
17 *732:37 *734:103 0
18 *732:37 *754:8 0.00023464
19 *732:37 *758:110 0.000606364
20 *732:37 *763:20 0.0017241
21 *732:37 *801:10 0
22 *732:37 *906:8 0
23 *732:37 *1069:10 0.000660556
24 *732:37 *1072:23 0
25 *732:37 *1103:39 0
26 *732:37 *1103:41 0
27 *732:37 *1121:32 0
28 *732:37 *1121:38 0
29 *732:37 *1129:84 0.000552831
30 *732:37 *1129:105 0.00140425
31 *732:37 *1153:78 0
32 *3087:D *732:14 0.000112618
33 *67:8 *732:37 0.000499557
34 *208:25 *732:31 0
35 *227:8 *732:37 0.000552415
36 *354:18 *732:14 0
37 *358:10 *732:14 0
38 *360:12 *732:14 0
39 *363:10 *3271:A 0.000446767
40 *399:18 *732:37 0
41 *478:12 *732:31 0.000370013
42 *479:14 *732:31 0.000498566
43 *505:8 *732:37 0
44 *511:8 *732:37 0.000181694
45 *708:12 *732:14 0.000661265
46 *708:12 *732:31 0.000694986
*RES
1 *3087:Q *732:6 40 
2 *732:6 *732:14 48.3018 
3 *732:14 *3271:A 44.3466 
4 *732:6 *732:31 30.3412 
5 *732:31 *732:33 20 
6 *732:33 *732:37 49.6151 
7 *732:37 *2919:A0 40 
*END

*D_NET *733 0.0436147
*CONN
*I *3424:A I *D sg13cmos5l_dlygate4sd3_1
*I *2354:A0 I *D sg13cmos5l_mux2_1
*I *2736:A I *D sg13cmos5l_xnor2_1
*I *2680:B I *D sg13cmos5l_xnor2_1
*I *2873:A I *D sg13cmos5l_xor2_1
*I *3107:Q O *D sg13cmos5l_dfrbpq_1
*CAP
1 *3424:A 0.000408942
2 *2354:A0 9.94328e-05
3 *2736:A 0
4 *2680:B 8.71843e-05
5 *2873:A 0
6 *3107:Q 0
7 *733:83 0.00462062
8 *733:64 0.000346089
9 *733:56 0.000645137
10 *733:52 0.00232013
11 *733:46 0.00220183
12 *733:40 0.000693409
13 *733:32 0.0011344
14 *733:26 0.00126425
15 *733:20 0.00547643
16 *733:16 0.00163668
17 *733:6 0.00182007
18 *2680:B *752:20 1.54008e-05
19 *3424:A *1125:27 0.00103095
20 *3424:A *1153:31 0
21 *733:16 *2655:A 0.000112048
22 *733:16 *2767:A 0
23 *733:16 *1125:27 0.000181192
24 *733:16 *1153:31 0
25 *733:20 *742:48 0.000553246
26 *733:20 *1081:20 0
27 *733:26 *1072:27 7.93636e-05
28 *733:40 *1150:126 0
29 *733:46 *1149:70 0.000287672
30 *733:52 *3438:A 0
31 *733:52 *735:18 0
32 *733:52 *738:25 0
33 *733:52 *744:12 0.000530224
34 *733:52 *758:63 0
35 *733:52 *1079:22 0
36 *733:52 *1142:60 8.0216e-05
37 *733:52 *1143:33 0.00136913
38 *733:52 *1143:43 0.000144519
39 *733:52 *1143:71 0.000370244
40 *733:52 *1155:59 0.000394248
41 *733:56 *752:20 0.000369824
42 *733:64 *995:28 0.000660141
43 *733:83 *2449:A 0
44 *733:83 *2462:B 0
45 *733:83 *2475:A 0
46 *733:83 *2895:A0 0
47 *733:83 *742:48 0.000393736
48 *733:83 *742:63 0.000639289
49 *733:83 *751:8 0.00220429
50 *733:83 *882:10 0.000394566
51 *733:83 *884:8 0
52 *733:83 *891:10 0
53 *733:83 *925:8 0
54 *733:83 *1072:31 0
55 *733:83 *1081:20 0
56 *733:83 *1095:10 0
57 *733:83 *1096:20 0
58 *733:83 *1097:14 0
59 *733:83 *1119:76 0.000607195
60 *733:83 *1128:23 0.000181192
61 *733:83 *1128:89 0.00108689
62 *733:83 *1128:95 0
63 *733:83 *1129:28 0
64 *733:83 *1139:88 0.00130109
65 *733:83 *1139:138 0
66 *733:83 *1145:112 0
67 *2462:A *733:83 0.000821727
68 *2487:A *2354:A0 0
69 *2692:B *733:16 0
70 *2714:B *733:32 8.0128e-05
71 *2740:B *733:52 0
72 *2740:B *733:56 0.000337274
73 *2745:A2 *733:40 0.000144768
74 *2767:B_N *733:16 0.00133715
75 *2839:B *3424:A 0
76 *3137:CLK *733:52 0.000466722
77 *3199:A *733:64 0
78 *183:54 *733:40 0
79 *208:31 *733:32 0
80 *241:14 *733:83 0
81 *247:19 *733:83 0
82 *376:16 *733:32 0.00183058
83 *376:16 *733:40 0.000234726
84 *392:16 *733:32 1.54008e-05
85 *395:6 *733:56 4.77425e-05
86 *395:49 *733:40 0
87 *395:49 *733:52 0
88 *406:12 *733:16 0
89 *407:32 *733:16 0
90 *411:41 *733:64 0
91 *429:25 *733:32 0.00119295
92 *451:12 *733:40 0.000241809
93 *467:44 *3424:A 0
94 *538:12 *3424:A 0
95 *601:40 *733:83 0.000181192
96 *602:25 *733:83 0.00079631
97 *629:8 *733:83 0
98 *634:31 *2354:A0 0.00014491
*RES
1 *3107:Q *733:6 40 
2 *733:6 *733:16 33.7608 
3 *733:16 *733:20 22.575 
4 *733:20 *733:26 44.8616 
5 *733:26 *733:32 29.0434 
6 *733:32 *733:40 45.5208 
7 *733:40 *733:46 41.339 
8 *733:46 *733:52 41.836 
9 *733:52 *733:56 22.4823 
10 *733:56 *733:64 43.4517 
11 *733:64 *2873:A 20 
12 *733:56 *2680:B 20.7519 
13 *733:32 *2736:A 20 
14 *733:20 *733:83 54.2398 
15 *733:83 *2354:A0 40.9682 
16 *733:6 *3424:A 45.3354 
*END

*D_NET *734 0.0438796
*CONN
*I *2355:A0 I *D sg13cmos5l_mux2_1
*I *2668:B I *D sg13cmos5l_xnor2_1
*I *2663:B I *D sg13cmos5l_xnor2_1
*I *2878:A I *D sg13cmos5l_xnor2_1
*I *3434:A I *D sg13cmos5l_dlygate4sd3_1
*I *2809:A1 I *D sg13cmos5l_mux2_1
*I *3109:Q O *D sg13cmos5l_dfrbpq_1
*CAP
1 *2355:A0 0
2 *2668:B 0
3 *2663:B 0
4 *2878:A 0.00029087
5 *3434:A 0
6 *2809:A1 7.81488e-05
7 *3109:Q 0
8 *734:113 0.000544973
9 *734:107 0.00235746
10 *734:103 0.0042473
11 *734:101 0.00420232
12 *734:88 0.000576722
13 *734:75 0.000706081
14 *734:52 0.00189216
15 *734:46 0.00166535
16 *734:42 0.00316611
17 *734:27 0.00445298
18 *734:10 0.00216801
19 *734:4 0.00237708
20 *2878:A *2676:A 0.000112717
21 *734:10 *853:8 0
22 *734:27 *2767:A 0
23 *734:27 *2799:A 4.77425e-05
24 *734:27 *1116:111 0.000338245
25 *734:27 *1148:126 0
26 *734:52 *738:35 0
27 *734:52 *758:63 0
28 *734:75 *2889:A 0
29 *734:75 *2893:A2 0
30 *734:75 *740:95 4.83693e-05
31 *734:75 *1119:121 0.000144415
32 *734:75 *1119:131 0
33 *734:75 *1120:20 0
34 *734:75 *1124:10 0.00012816
35 *734:88 *736:34 0.001406
36 *734:88 *1115:8 0
37 *734:101 *743:18 0.000533397
38 *734:101 *767:37 0
39 *734:101 *1069:10 0
40 *734:101 *1120:46 0.000468615
41 *734:101 *1129:22 0
42 *734:101 *1153:93 0.000181695
43 *734:103 *2432:A 0.00012816
44 *734:103 *2437:A 0
45 *734:103 *767:37 0.000767035
46 *734:103 *771:58 0
47 *734:103 *906:8 0.00124657
48 *734:103 *1027:27 0
49 *734:103 *1129:80 0
50 *734:103 *1129:84 0
51 *734:103 *1129:105 0
52 *734:103 *1129:115 0.00124598
53 *734:103 *1129:130 0
54 *734:107 *2461:A 0
55 *734:107 *2551:A0 0
56 *734:107 *2551:A1 0
57 *734:107 *2551:S 0.000274627
58 *734:107 *2941:RESET_B 0
59 *734:107 *2941:D 0
60 *734:107 *3021:RESET_B 0
61 *734:107 *770:89 0
62 *734:113 *1098:14 0
63 *2461:C *734:107 0
64 *2703:B_N *734:46 0.000208878
65 *2721:B1 *734:42 0
66 *2721:B2 *734:42 0
67 *2721:A2 *734:42 0
68 *2721:A1 *734:42 8.00954e-05
69 *2767:B_N *734:27 0
70 *2767:B_N *734:42 0
71 *2810:A1 *734:27 0
72 *2879:B *2878:A 0
73 *2903:S *734:75 0.000176559
74 *2941:CLK *734:107 0
75 *3021:CLK *734:107 0
76 *3089:CLK *734:101 0
77 *3109:CLK *734:10 0.000663632
78 *3190:A *734:107 0
79 *3192:A *734:107 0.000954504
80 *3204:A *734:107 0
81 *3248:A *734:75 0.000234224
82 *3363:A *734:103 0
83 *76:10 *734:107 0
84 *187:14 *2809:A1 0.000288172
85 *187:14 *734:10 0.00226147
86 *225:18 *734:103 0
87 *227:8 *734:103 0
88 *267:12 *734:113 0
89 *295:19 *734:103 0
90 *298:10 *734:103 0.000501045
91 *331:24 *2809:A1 0
92 *331:24 *734:10 0
93 *364:49 *2878:A 1.54008e-05
94 *366:27 *2878:A 0
95 *369:69 *2878:A 0
96 *369:69 *734:52 0
97 *369:69 *734:75 0
98 *370:28 *734:42 0
99 *378:12 *734:75 0.000287256
100 *379:24 *734:75 8.00842e-05
101 *400:16 *734:75 0
102 *407:32 *734:46 0
103 *407:32 *734:88 0
104 *416:8 *734:52 0
105 *417:8 *734:42 0.000234224
106 *429:56 *734:46 0
107 *429:56 *734:52 0
108 *436:10 *734:42 0
109 *436:10 *734:88 0
110 *465:18 *734:75 4.78524e-05
111 *504:16 *734:27 0.000433819
112 *504:16 *734:42 0.00104785
113 *514:10 *734:27 0.000306794
114 *595:14 *734:75 7.92595e-05
115 *602:8 *734:107 0
116 *602:40 *734:113 0.000181192
117 *610:10 *734:113 0
118 *634:8 *734:103 0
119 *635:8 *734:103 0
120 *659:8 *734:103 0
121 *664:72 *734:10 0
122 *672:8 *734:10 0
123 *685:6 *734:107 0
124 *699:12 *734:107 0
125 *709:10 *734:101 0
126 *732:37 *734:101 0
127 *732:37 *734:103 0
*RES
1 *3109:Q *734:4 20 
2 *734:4 *734:10 30.8047 
3 *734:10 *2809:A1 41.339 
4 *734:10 *734:27 33.7505 
5 *734:27 *3434:A 20 
6 *734:27 *734:42 42.2274 
7 *734:42 *734:46 21.8334 
8 *734:46 *734:52 47.7662 
9 *734:52 *2878:A 22.6986 
10 *734:52 *734:75 47.7868 
11 *734:75 *2663:B 20 
12 *734:46 *734:88 47.931 
13 *734:88 *2668:B 20 
14 *734:4 *734:101 37.0877 
15 *734:101 *734:103 26.7582 
16 *734:103 *734:107 37.6863 
17 *734:107 *734:113 45.7886 
18 *734:113 *2355:A0 20 
*END

*D_NET *735 0.00428197
*CONN
*I *3266:A I *D sg13cmos5l_buf_1
*I *3111:Q O *D sg13cmos5l_dfrbpq_1
*CAP
1 *3266:A 0
2 *3111:Q 0.00013054
3 *735:18 0.000957088
4 *735:8 0.00108763
5 *735:8 *1142:119 0.000234311
6 *735:18 *2875:A 0.000338086
7 *735:18 *3137:RESET_B 0.000533678
8 *735:18 *1117:108 0
9 *735:18 *1142:119 0.000727243
10 *735:18 *1143:71 0
11 *735:18 *1144:31 0
12 *735:18 *1154:128 0
13 *3119:CLK *735:18 0
14 *3137:CLK *735:18 0
15 *567:10 *735:18 0.000273392
16 *694:25 *735:8 0
17 *733:52 *735:18 0
*RES
1 *3111:Q *735:8 41.5862 
2 *735:8 *735:18 30.7017 
3 *735:18 *3266:A 20 
*END

*D_NET *736 0.0213741
*CONN
*I *2650:B I *D sg13cmos5l_xor2_1
*I *2357:A0 I *D sg13cmos5l_mux2_1
*I *2889:A I *D sg13cmos5l_xnor2_1
*I *2725:A I *D sg13cmos5l_xor2_1
*I *3427:A I *D sg13cmos5l_dlygate4sd3_1
*I *2819:A1 I *D sg13cmos5l_mux2_1
*I *3113:Q O *D sg13cmos5l_dfrbpq_1
*CAP
1 *2650:B 5.64525e-05
2 *2357:A0 0.000442159
3 *2889:A 3.28316e-05
4 *2725:A 2.5661e-05
5 *3427:A 0.000317365
6 *2819:A1 0.000191844
7 *3113:Q 0.000122352
8 *736:80 0.00248982
9 *736:62 0.00284595
10 *736:45 0.00113024
11 *736:34 0.00225932
12 *736:10 0.000625892
13 *736:8 0.00211712
14 *2357:A0 *2482:A 0.000596856
15 *2357:A0 *1128:27 0
16 *2819:A1 *836:10 0
17 *2819:A1 *1142:38 0
18 *2819:A1 *1145:68 0.00066097
19 *3427:A *2863:A 0
20 *736:10 *745:47 0.000446352
21 *736:10 *1145:68 0.000552415
22 *736:34 *738:35 0
23 *736:34 *745:47 0.000425086
24 *736:34 *761:31 0
25 *736:34 *1115:8 0
26 *736:34 *1115:16 0
27 *736:34 *1117:66 0
28 *736:34 *1142:49 0
29 *736:34 *1145:68 0.000234311
30 *736:45 *738:35 0
31 *736:45 *762:138 0
32 *736:62 *738:35 0
33 *736:80 *738:35 0
34 *736:80 *756:26 0
35 *736:80 *774:70 0.000287672
36 *736:80 *933:8 0
37 *736:80 *1128:43 0.00108523
38 *736:80 *1144:55 0
39 *2357:A1 *2357:A0 1.54556e-05
40 *2495:A *2357:A0 0
41 *2690:B *736:80 0
42 *2865:C *3427:A 0.000241204
43 *3194:A *736:80 0
44 *3296:A *2357:A0 0
45 *80:8 *736:80 0
46 *81:8 *736:80 0.00076579
47 *83:12 *736:80 7.51285e-05
48 *209:33 *736:8 0.000177207
49 *209:62 *736:34 0
50 *255:8 *736:80 0.000235056
51 *352:30 *3427:A 8.00842e-05
52 *352:32 *3427:A 4.77425e-05
53 *354:49 *736:8 0
54 *358:58 *3427:A 4.77425e-05
55 *358:69 *3427:A 0
56 *365:8 *736:80 0.000144184
57 *369:10 *2725:A 4.77866e-05
58 *369:69 *2889:A 4.77866e-05
59 *397:44 *2725:A 4.77866e-05
60 *441:18 *736:45 0.000234224
61 *556:10 *3427:A 0.000208785
62 *578:8 *736:62 0.000606279
63 *664:126 *736:80 0
64 *664:369 *736:62 0
65 *664:395 *736:34 0
66 *664:395 *736:45 0
67 *664:395 *736:62 0
68 *734:75 *2889:A 0
69 *734:88 *736:34 0.001406
*RES
1 *3113:Q *736:8 41.1845 
2 *736:8 *736:10 2.575 
3 *736:10 *2819:A1 43.0694 
4 *736:10 *3427:A 43.6153 
5 *736:8 *736:34 19.6318 
6 *736:34 *2725:A 40.3193 
7 *736:34 *736:45 3.3166 
8 *736:45 *2889:A 40.3193 
9 *736:45 *736:62 27.4469 
10 *736:62 *736:80 42.7321 
11 *736:80 *2357:A0 44.6453 
12 *736:62 *2650:B 20.5356 
*END

*D_NET *737 0.00958363
*CONN
*I *2358:A0 I *D sg13cmos5l_mux2_1
*I *3421:A I *D sg13cmos5l_dlygate4sd3_1
*I *2677:B I *D sg13cmos5l_xnor2_1
*I *2659:A I *D sg13cmos5l_xnor2_1
*I *3115:Q O *D sg13cmos5l_dfrbpq_1
*CAP
1 *2358:A0 0.000433938
2 *3421:A 0
3 *2677:B 0
4 *2659:A 0
5 *3115:Q 0.000317946
6 *737:26 0.000539924
7 *737:18 0.00167335
8 *737:10 0.00137934
9 *737:8 0.000997794
10 *2358:A0 *774:64 0.000287672
11 *2358:A0 *780:23 0
12 *737:8 *3013:RESET_B 0.000274562
13 *737:10 *746:8 0
14 *737:10 *780:23 0
15 *737:10 *1021:8 0
16 *737:18 *2825:A1 0.000435829
17 *737:18 *780:23 0
18 *737:18 *1071:8 0
19 *737:18 *1119:97 0.000549511
20 *737:18 *1131:10 0
21 *737:26 *2825:A1 0
22 *737:26 *763:38 0.000552831
23 *737:26 *1119:76 0
24 *737:26 *1119:97 4.78524e-05
25 *737:26 *1145:112 0.000554577
26 *2824:B *737:26 0.000208747
27 *3013:D *737:8 0
28 *220:45 *737:8 0.000499749
29 *258:14 *2358:A0 0.00011255
30 *525:10 *737:26 0.000208692
31 *563:10 *737:18 0.000234311
32 *637:27 *2358:A0 0.000274452
33 *637:37 *2358:A0 0
34 *637:37 *737:10 0
35 *688:54 *737:18 0
*RES
1 *3115:Q *737:8 43.5638 
2 *737:8 *737:10 3.0694 
3 *737:10 *737:18 32.8544 
4 *737:18 *737:26 46.5714 
5 *737:26 *2659:A 20 
6 *737:18 *2677:B 20 
7 *737:10 *3421:A 40 
8 *737:8 *2358:A0 45.253 
*END

*D_NET *738 0.0155203
*CONN
*I *2359:A0 I *D sg13cmos5l_mux2_1
*I *3264:A I *D sg13cmos5l_buf_1
*I *3117:Q O *D sg13cmos5l_dfrbpq_1
*CAP
1 *2359:A0 0.000122881
2 *3264:A 0.000733466
3 *3117:Q 0
4 *738:35 0.0046442
5 *738:25 0.0053129
6 *738:6 0.00152505
7 *3264:A *818:10 0
8 *3264:A *1126:16 0.000181192
9 *3264:A *1142:8 0
10 *3264:A *1142:38 0
11 *738:25 *758:63 0
12 *738:25 *1090:10 0
13 *738:25 *1142:38 0
14 *738:25 *1142:49 0
15 *738:35 *758:63 0
16 *738:35 *761:31 0
17 *738:35 *1119:113 0
18 *738:35 *1128:43 0
19 *2359:S *2359:A0 0
20 *2651:A *738:35 0
21 *2951:D *2359:A0 0
22 *3194:A *738:35 0
23 *80:8 *738:35 0.000819325
24 *164:8 *3264:A 0.000393822
25 *263:22 *738:35 0.000552918
26 *366:27 *738:35 0
27 *532:10 *3264:A 0.000499886
28 *578:8 *738:35 0.000341216
29 *605:10 *738:35 0.000393407
30 *638:27 *2359:A0 0
31 *664:126 *738:35 0
32 *664:369 *738:35 0
33 *688:8 *738:25 0
34 *688:14 *3264:A 0
35 *733:52 *738:25 0
36 *734:52 *738:35 0
37 *736:34 *738:35 0
38 *736:45 *738:35 0
39 *736:62 *738:35 0
40 *736:80 *738:35 0
*RES
1 *3117:Q *738:6 40 
2 *738:6 *3264:A 48.549 
3 *738:6 *738:25 47.9928 
4 *738:25 *738:35 41.9828 
5 *738:35 *2359:A0 40.2605 
*END

*D_NET *739 0.0189402
*CONN
*I *2664:B I *D sg13cmos5l_xnor2_1
*I *2881:A1 I *D sg13cmos5l_o21ai_1
*I *2360:A I *D sg13cmos5l_inv_1
*I *2713:A I *D sg13cmos5l_nand3_1
*I *2671:A I *D sg13cmos5l_nor2_1
*I *2835:A I *D sg13cmos5l_nor4_1
*I *2863:A I *D sg13cmos5l_xor2_1
*I *2705:B I *D sg13cmos5l_xor2_1
*I *3119:Q O *D sg13cmos5l_dfrbpq_1
*CAP
1 *2664:B 2.6834e-05
2 *2881:A1 0
3 *2360:A 4.3826e-05
4 *2713:A 5.79602e-05
5 *2671:A 3.03095e-05
6 *2835:A 0.000343851
7 *2863:A 0.00084375
8 *2705:B 0.000271783
9 *3119:Q 0
10 *739:112 0.000304813
11 *739:104 0.000489192
12 *739:93 0.00104359
13 *739:80 0.000473921
14 *739:72 0.00196417
15 *739:59 0.0014174
16 *739:12 0.00152825
17 *739:10 0.00121815
18 *739:4 0.00114267
19 *2664:B *753:28 1.54008e-05
20 *2705:B *1113:14 0
21 *2713:A *3432:A 4.78524e-05
22 *2835:A *2813:B 0
23 *2835:A *2835:B 0.000224025
24 *2835:A *3119:D 0
25 *2835:A *1117:108 0
26 *2835:A *1122:72 0.000177164
27 *2863:A *1130:10 0.000208725
28 *2863:A *1154:94 0.000495391
29 *2863:A *1154:111 0
30 *739:10 *809:10 0.000288503
31 *739:10 *1073:14 0.000265575
32 *739:10 *1079:22 8.00842e-05
33 *739:10 *1126:87 0
34 *739:12 *1073:14 0.000181192
35 *739:59 *744:42 0
36 *739:59 *1126:87 0
37 *739:72 *761:43 0.000658895
38 *739:72 *1148:74 0.000393821
39 *739:80 *745:77 0.00034162
40 *739:93 *761:43 0.000871941
41 *739:112 *1124:153 4.77425e-05
42 *2670:B *739:72 0
43 *2671:B *739:72 0
44 *2672:B *739:59 0
45 *2672:B *739:72 0
46 *2672:C *2671:A 0
47 *2672:D *2671:A 0
48 *2672:D *739:59 0.000144041
49 *2704:B *739:80 8.0216e-05
50 *2707:B *2705:B 0.000394237
51 *2838:D *2835:A 0.000321182
52 *2903:S *2360:A 0
53 *2903:S *739:104 0
54 *3129:CLK *2863:A 0.000466147
55 *3137:CLK *739:10 4.7803e-05
56 *3239:A *2360:A 8.0216e-05
57 *3239:A *2664:B 3.23472e-05
58 *3239:A *739:104 0.000112642
59 *3427:A *2863:A 0
60 *185:43 *2360:A 1.54008e-05
61 *185:43 *739:72 0
62 *185:43 *739:93 0
63 *185:49 *739:72 0
64 *352:32 *2863:A 0
65 *385:10 *739:72 0
66 *407:32 *2713:A 1.62936e-05
67 *410:12 *2705:B 0
68 *424:16 *2705:B 4.77425e-05
69 *427:24 *739:10 0
70 *427:24 *739:12 0
71 *462:12 *739:59 0
72 *516:12 *739:12 0.000499799
73 *664:403 *739:93 0
74 *666:22 *739:59 0.000448427
75 *693:8 *739:10 5.30319e-05
76 *693:8 *739:59 0.00012816
77 *693:12 *739:10 0.000554077
*RES
1 *3119:Q *739:4 20 
2 *739:4 *739:10 26.3242 
3 *739:10 *739:12 4.7998 
4 *739:12 *2705:B 43.1415 
5 *739:12 *2863:A 48.1009 
6 *739:10 *2835:A 43.672 
7 *739:4 *739:59 47.1997 
8 *739:59 *2671:A 20.3502 
9 *739:59 *739:72 27.3748 
10 *739:72 *739:80 43.8522 
11 *739:80 *2713:A 40.5356 
12 *739:72 *739:93 28.2606 
13 *739:93 *2360:A 20.5356 
14 *739:93 *739:104 1.5347 
15 *739:104 *739:112 41.9055 
16 *739:112 *2881:A1 20 
17 *739:104 *2664:B 20.3193 
*END

*D_NET *740 0.037397
*CONN
*I *2906:A I *D sg13cmos5l_xor2_1
*I *2693:B I *D sg13cmos5l_xnor2_1
*I *2363:A0 I *D sg13cmos5l_mux2_1
*I *3428:A I *D sg13cmos5l_dlygate4sd3_1
*I *2640:A I *D sg13cmos5l_xnor2_1
*I *2841:A I *D sg13cmos5l_xnor2_1
*I *3121:Q O *D sg13cmos5l_dfrbpq_1
*CAP
1 *2906:A 0
2 *2693:B 0
3 *2363:A0 0
4 *3428:A 0
5 *2640:A 0
6 *2841:A 0
7 *3121:Q 0.000131668
8 *740:114 0.000180865
9 *740:108 0.00164108
10 *740:99 0.00220298
11 *740:95 0.00355564
12 *740:77 0.00370684
13 *740:66 0.00173541
14 *740:50 0.00201975
15 *740:37 0.0014778
16 *740:27 0.00318634
17 *740:14 0.00158502
18 *740:8 0.00118645
19 *740:8 *1147:46 0
20 *740:14 *758:110 0
21 *740:14 *1070:8 0.000234224
22 *740:14 *1103:39 0
23 *740:14 *1125:27 0
24 *740:14 *1153:46 7.52149e-05
25 *740:27 *758:110 0
26 *740:37 *758:33 0.000144451
27 *740:37 *758:42 1.54008e-05
28 *740:37 *1085:8 0
29 *740:37 *1146:36 0.000447269
30 *740:37 *1146:47 0.000447182
31 *740:37 *1146:66 0.00273586
32 *740:37 *1150:106 0.000499799
33 *740:50 *741:42 0.000128247
34 *740:50 *742:63 0.00037
35 *740:50 *758:102 0.000871474
36 *740:50 *758:110 0.000143171
37 *740:66 *2649:B 1.54008e-05
38 *740:66 *760:59 7.52149e-05
39 *740:66 *762:113 0.000273912
40 *740:66 *762:138 0.00016127
41 *740:77 *2725:B 0
42 *740:77 *762:138 0.000921086
43 *740:77 *1119:131 0
44 *740:95 *741:145 2.20966e-05
45 *740:95 *750:18 0.000235141
46 *740:95 *1004:10 0.000978835
47 *740:95 *1124:10 2.20966e-05
48 *740:95 *1124:34 0
49 *740:95 *1124:128 0.000447597
50 *740:99 *750:18 0
51 *740:99 *874:10 0
52 *740:99 *1138:74 0.00044727
53 *740:108 *1119:131 0
54 *740:114 *995:39 0.000554907
55 *2359:S *740:99 0
56 *2662:A2 *740:66 0.000306035
57 *2675:A *740:37 0
58 *2675:B *740:37 8.01612e-05
59 *2678:B *740:50 0.000208747
60 *2715:A *740:95 0.000447182
61 *2759:B *740:37 3.11864e-05
62 *2844:B *740:50 0
63 *2844:B *740:66 0
64 *2845:B *740:50 0
65 *2846:B *740:27 1.54008e-05
66 *2846:B *740:50 1.54008e-05
67 *2906:B *740:108 0
68 *3214:A *740:8 0
69 *18:24 *740:99 0
70 *175:10 *740:95 0
71 *183:18 *740:14 0
72 *185:28 *740:95 0
73 *185:28 *740:99 0
74 *364:34 *740:66 0
75 *364:49 *740:66 0
76 *378:12 *740:95 1.56704e-05
77 *378:22 *740:95 0
78 *380:8 *740:95 0.000106064
79 *393:18 *740:37 0
80 *397:44 *740:66 0
81 *397:44 *740:77 0
82 *400:16 *740:50 0
83 *400:16 *740:77 0
84 *401:14 *740:37 0
85 *408:8 *740:114 0
86 *441:6 *740:108 0.00114347
87 *441:18 *740:77 0.000385933
88 *441:18 *740:108 6.46834e-05
89 *441:54 *740:108 0.000985988
90 *467:44 *740:14 0
91 *467:44 *740:27 0
92 *579:12 *740:95 0.000340704
93 *591:10 *740:114 0
94 *595:14 *740:95 9.06497e-05
95 *606:8 *740:99 0
96 *609:28 *740:99 0.000234398
97 *664:126 *740:95 0
98 *664:369 *740:95 0
99 *664:403 *740:108 0
100 *664:407 *740:108 0
101 *734:75 *740:95 4.83693e-05
*RES
1 *3121:Q *740:8 41.1845 
2 *740:8 *740:14 30.3103 
3 *740:14 *2841:A 20 
4 *740:14 *740:27 24.4496 
5 *740:27 *740:37 39.3846 
6 *740:37 *2640:A 20 
7 *740:27 *740:50 32.051 
8 *740:50 *740:66 48.5902 
9 *740:66 *3428:A 20 
10 *740:66 *740:77 9.4245 
11 *740:77 *740:95 36.9589 
12 *740:95 *740:99 38.3958 
13 *740:99 *2363:A0 20 
14 *740:77 *740:108 14.9453 
15 *740:108 *740:114 42.575 
16 *740:114 *2693:B 20 
17 *740:108 *2906:A 20 
*END

*D_NET *741 0.0359258
*CONN
*I *2364:A0 I *D sg13cmos5l_mux2_1
*I *2892:A1 I *D sg13cmos5l_o21ai_1
*I *2911:A I *D sg13cmos5l_xnor2_1
*I *2660:B I *D sg13cmos5l_xnor2_1
*I *2689:A I *D sg13cmos5l_and2_1
*I *2688:A I *D sg13cmos5l_nor2_1
*I *2846:A I *D sg13cmos5l_xnor2_1
*I *2682:A I *D sg13cmos5l_xnor2_1
*I *3123:Q O *D sg13cmos5l_dfrbpq_1
*CAP
1 *2364:A0 0.000116761
2 *2892:A1 0
3 *2911:A 0.000439237
4 *2660:B 0
5 *2689:A 0
6 *2688:A 0
7 *2846:A 0
8 *2682:A 0
9 *3123:Q 5.70057e-05
10 *741:145 0.00306572
11 *741:143 0.00301097
12 *741:134 0.00023299
13 *741:115 0.00111377
14 *741:109 0.00113105
15 *741:92 0.00129639
16 *741:80 0.00174116
17 *741:63 0.00135653
18 *741:42 0.000353593
19 *741:28 0.000682695
20 *741:20 0.00048377
21 *741:18 0.000987321
22 *741:8 0.000605407
23 *2364:A0 *2486:A 0
24 *2911:A *1119:121 0
25 *2911:A *1126:103 0
26 *741:18 *2528:A 0.000145056
27 *741:18 *876:71 0.000629556
28 *741:18 *1147:46 0
29 *741:20 *876:59 0
30 *741:20 *1146:66 0
31 *741:28 *758:110 8.00842e-05
32 *741:28 *792:12 0.000340374
33 *741:28 *876:59 0.00108869
34 *741:28 *1146:66 0.000501547
35 *741:42 *2682:B 4.77425e-05
36 *741:42 *759:37 0.00011211
37 *741:42 *1146:66 7.51285e-05
38 *741:63 *3237:A 0
39 *741:80 *3141:RESET_B 0
40 *741:80 *3237:A 0
41 *741:80 *743:33 0.000500243
42 *741:80 *1119:76 0
43 *741:92 *762:117 0
44 *741:92 *1126:113 0.000145052
45 *741:92 *1131:10 0
46 *741:92 *1131:20 0.000434097
47 *741:109 *2871:A 0
48 *741:109 *746:8 0.000181192
49 *741:109 *746:10 7.52149e-05
50 *741:109 *756:36 0.000145149
51 *741:115 *746:42 0.000596615
52 *741:115 *1126:103 0
53 *741:134 *2892:A2 1.54446e-05
54 *741:134 *1120:32 0
55 *741:134 *1126:103 7.92096e-05
56 *741:143 *2892:A2 3.23417e-05
57 *741:143 *1124:153 8.0057e-05
58 *741:145 *2663:A 0
59 *741:145 *748:14 0
60 *741:145 *748:38 0
61 *741:145 *750:26 0.000980385
62 *741:145 *899:10 0.000235153
63 *741:145 *920:10 0
64 *741:145 *1013:16 0
65 *741:145 *1134:110 0
66 *741:145 *1138:74 0
67 *2370:A1 *741:145 0.000265354
68 *2528:B *741:18 0
69 *2661:B *741:109 8.02927e-05
70 *2689:B *741:63 4.77425e-05
71 *2690:B *741:109 0
72 *2691:A1 *741:80 0
73 *2824:A *741:80 0
74 *2824:A *741:92 0
75 *2845:B *741:42 0
76 *2846:B *741:28 1.54556e-05
77 *2880:B *741:134 8.00954e-05
78 *2880:B *741:143 0.000111969
79 *2896:B *741:80 0
80 *2903:S *2911:A 0.000144899
81 *2911:B *2911:A 0
82 *3123:CLK *741:18 0
83 *3123:CLK *741:63 0.000112689
84 *3141:D *741:80 0.00011216
85 *3254:A *741:115 0
86 *3340:A *741:145 0.00161677
87 *5:28 *741:18 0
88 *5:30 *741:18 0
89 *20:24 *2364:A0 0.000176572
90 *88:8 *741:145 0
91 *175:10 *741:145 0.000288184
92 *183:22 *741:8 0.000181695
93 *185:28 *741:145 0.00592483
94 *219:24 *741:63 8.01612e-05
95 *219:30 *741:18 0.000234224
96 *278:14 *741:145 0.00225234
97 *393:18 *741:42 0
98 *405:16 *741:80 0
99 *405:16 *741:92 7.96596e-05
100 *526:10 *741:92 0
101 *563:10 *741:109 0.000337485
102 *570:16 *2911:A 0.00012816
103 *570:16 *741:115 0.000128663
104 *579:12 *741:115 0
105 *609:51 *741:145 0.00018128
106 *636:48 *741:145 0
107 *664:395 *2911:A 0
108 *691:10 *741:145 0
109 *710:29 *741:18 0
110 *740:50 *741:42 0.000128247
111 *740:95 *741:145 2.20966e-05
*RES
1 *3123:Q *741:8 40.8446 
2 *741:8 *741:18 46.1491 
3 *741:18 *741:20 1.5862 
4 *741:20 *741:28 26.1182 
5 *741:28 *741:42 43.6668 
6 *741:42 *2682:A 20 
7 *741:28 *2846:A 20 
8 *741:20 *2688:A 40 
9 *741:18 *741:63 22.6986 
10 *741:63 *2689:A 20 
11 *741:63 *741:80 49.8674 
12 *741:80 *741:92 46.6538 
13 *741:92 *2660:B 20 
14 *741:92 *741:109 46.4066 
15 *741:109 *741:115 25.3354 
16 *741:115 *2911:A 43.7904 
17 *741:115 *741:134 21.854 
18 *741:134 *2892:A1 20 
19 *741:134 *741:143 20.7519 
20 *741:143 *741:145 44.3518 
21 *741:145 *2364:A0 41.1845 
*END

*D_NET *742 0.0331274
*CONN
*I *2365:A0 I *D sg13cmos5l_mux2_1
*I *2649:A I *D sg13cmos5l_xor2_1
*I *3430:A I *D sg13cmos5l_dlygate4sd3_1
*I *2849:A I *D sg13cmos5l_and2_1
*I *2657:A I *D sg13cmos5l_xnor2_1
*I *3125:Q O *D sg13cmos5l_dfrbpq_1
*CAP
1 *2365:A0 0
2 *2649:A 0
3 *3430:A 0.000115144
4 *2849:A 0
5 *2657:A 0.000204341
6 *3125:Q 0
7 *742:94 0.00028045
8 *742:88 0.00172628
9 *742:82 0.00362683
10 *742:63 0.00256655
11 *742:48 0.00167809
12 *742:27 0.000621127
13 *742:10 0.000984381
14 *742:4 0.00133631
15 *2657:A *760:46 0.000305981
16 *3430:A *2798:A 0
17 *742:10 *758:87 0
18 *742:10 *1081:20 0
19 *742:27 *757:80 0.000241897
20 *742:27 *759:27 0.00103261
21 *742:27 *760:46 0.000144179
22 *742:27 *1132:42 0.000129283
23 *742:27 *1132:57 0
24 *742:48 *2658:C 0
25 *742:48 *759:27 0.000712758
26 *742:48 *1072:31 0.000341216
27 *742:48 *1081:20 0
28 *742:63 *1072:31 0.000664051
29 *742:82 *751:33 0
30 *742:82 *751:46 0.000128248
31 *742:82 *751:48 0
32 *742:82 *762:117 0.00209962
33 *742:82 *1010:22 0
34 *742:82 *1010:36 0.000920636
35 *742:82 *1135:108 0.000128248
36 *742:88 *2563:S 0
37 *742:88 *751:48 0.0039771
38 *742:88 *1042:14 0.000981411
39 *742:88 *1135:108 0
40 *742:94 *921:12 0.00108407
41 *2459:A *742:82 0.00159428
42 *2489:B *742:94 0
43 *2489:C *742:88 0
44 *2586:A0 *742:94 7.55443e-05
45 *2662:A3 *742:82 0.000273672
46 *2678:B *742:63 0
47 *2678:B *742:82 0.000371025
48 *2678:A *742:63 0.000273573
49 *2678:A *742:82 0
50 *2714:A *742:48 0.000144206
51 *2844:B *742:63 0
52 *2849:B *742:27 4.77537e-05
53 *3204:A *742:88 0.000175938
54 *220:45 *742:82 0.00034112
55 *263:49 *742:88 0
56 *372:25 *2657:A 0
57 *372:25 *742:27 0
58 *372:25 *742:48 0
59 *372:36 *742:48 0
60 *377:12 *742:82 0.000341216
61 *392:10 *742:82 0
62 *395:49 *742:48 8.0057e-05
63 *397:44 *3430:A 0.000176653
64 *400:16 *742:82 0
65 *549:12 *742:27 0
66 *642:27 *742:94 0.00124524
67 *708:55 *742:27 0
68 *733:20 *742:48 0.000553246
69 *733:83 *742:48 0.000393736
70 *733:83 *742:63 0.000639289
71 *740:50 *742:63 0.00037
*RES
1 *3125:Q *742:4 20 
2 *742:4 *742:10 41.339 
3 *742:10 *2657:A 22.0497 
4 *742:10 *742:27 47.3851 
5 *742:27 *2849:A 20 
6 *742:4 *742:48 34.1316 
7 *742:48 *3430:A 41.1845 
8 *742:48 *742:63 25.9843 
9 *742:63 *2649:A 20 
10 *742:63 *742:82 49.5095 
11 *742:82 *742:88 39.5803 
12 *742:88 *742:94 46.0358 
13 *742:94 *2365:A0 20 
*END

*D_NET *743 0.0148757
*CONN
*I *2920:A0 I *D sg13cmos5l_mux2_1
*I *3412:A I *D sg13cmos5l_dlygate4sd3_1
*I *2659:B I *D sg13cmos5l_xnor2_1
*I *2687:B I *D sg13cmos5l_xor2_1
*I *3089:Q O *D sg13cmos5l_dfrbpq_1
*CAP
1 *2920:A0 0
2 *3412:A 0
3 *2659:B 0
4 *2687:B 0
5 *3089:Q 0.000149005
6 *743:51 0.00172082
7 *743:33 0.000935689
8 *743:18 0.00237092
9 *743:10 0.00162223
10 *743:8 0.00205683
11 *743:8 *3237:A 0.000241429
12 *743:10 *1114:30 0
13 *743:10 *1147:30 0
14 *743:18 *3121:RESET_B 0.000112399
15 *743:18 *3123:RESET_B 0.000240405
16 *743:18 *1075:10 0.000208063
17 *743:18 *1114:30 0
18 *743:18 *1120:46 0
19 *743:18 *1147:30 0
20 *743:18 *1153:93 0
21 *743:33 *2826:A0 0
22 *743:33 *3141:RESET_B 0
23 *743:33 *3237:A 0
24 *743:33 *1120:46 0
25 *743:33 *1153:93 0.000240405
26 *743:51 *1007:12 0.00215043
27 *743:51 *1114:30 0
28 *743:51 *1136:86 0
29 *743:51 *1147:30 0
30 *743:51 *1147:65 0
31 *743:51 *1157:41 0
32 *2691:A1 *743:33 0
33 *2920:A1 *743:51 0.000598357
34 *3089:CLK *743:18 0.000273946
35 *3121:CLK *743:18 0
36 *3363:A *743:51 0
37 *5:18 *743:8 0
38 *405:16 *743:33 0.000921125
39 *734:101 *743:18 0.000533397
40 *741:80 *743:33 0.000500243
*RES
1 *3089:Q *743:8 41.6171 
2 *743:8 *743:10 2.0806 
3 *743:10 *743:18 33.4724 
4 *743:18 *2687:B 20 
5 *743:18 *743:33 49.8262 
6 *743:33 *2659:B 20 
7 *743:10 *3412:A 40 
8 *743:8 *743:51 40.1674 
9 *743:51 *2920:A0 20 
*END

*D_NET *744 0.0365714
*CONN
*I *2366:A0 I *D sg13cmos5l_mux2_1
*I *3423:A I *D sg13cmos5l_dlygate4sd3_1
*I *2694:A I *D sg13cmos5l_xor2_1
*I *3127:Q O *D sg13cmos5l_dfrbpq_1
*CAP
1 *2366:A0 0
2 *3423:A 0.000100055
3 *2694:A 0.000696585
4 *3127:Q 0.000930749
5 *744:60 0.000372383
6 *744:54 0.00193156
7 *744:48 0.00162845
8 *744:42 0.00251804
9 *744:14 0.00153905
10 *744:12 0.00412194
11 *2694:A *2707:A 0
12 *2694:A *745:22 0.000208747
13 *2694:A *1073:56 0
14 *2694:A *1130:121 0.00039332
15 *3423:A *1113:8 0.00017634
16 *744:12 *1079:22 0
17 *744:14 *809:10 0
18 *744:14 *1090:18 0
19 *744:14 *1130:121 0.00204938
20 *744:14 *1143:31 0
21 *744:42 *2368:A0 0
22 *744:42 *2909:A1 0.000664243
23 *744:42 *746:71 0.00143557
24 *744:42 *753:18 0.0010362
25 *744:42 *753:46 0.000290042
26 *744:42 *999:16 0.00221331
27 *744:42 *1083:14 0
28 *744:42 *1130:121 0.00139793
29 *744:42 *1144:31 0
30 *744:42 *1144:39 0.00263737
31 *744:48 *2963:RESET_B 4.78521e-05
32 *744:54 *2500:B 0.000182109
33 *744:54 *999:16 0
34 *744:54 *1127:56 0.0017513
35 *744:54 *1127:106 0.00127692
36 *744:54 *1134:31 0
37 *744:60 *905:10 0.000924972
38 *744:60 *943:14 0.00108481
39 config_o[24] *744:42 0.000662388
40 config_o[24] *744:54 0
41 config_o[25] *744:60 0
42 *2500:A *744:54 0.000265247
43 *2578:A0 *744:48 0.000112061
44 *2740:B *744:12 0.000852877
45 *2748:A *744:12 0.000209154
46 *3210:A *744:54 0.000304924
47 *25:14 *744:60 0
48 *220:64 *744:42 0
49 *269:35 *744:54 0.00118963
50 *352:32 *2694:A 0
51 *422:8 *2694:A 0
52 *423:22 *2694:A 0
53 *427:18 *2694:A 0
54 *464:18 *3423:A 0.00017634
55 *519:10 *2694:A 0
56 *615:14 *744:54 0.000659311
57 *664:414 *744:42 0
58 *666:10 *744:42 0
59 *666:22 *744:42 0
60 *733:52 *744:12 0.000530224
61 *739:59 *744:42 0
*RES
1 *3127:Q *744:12 49.7644 
2 *744:12 *744:14 9.4966 
3 *744:14 *2694:A 47.0761 
4 *744:14 *3423:A 41.1845 
5 *744:12 *744:42 38.3469 
6 *744:42 *744:48 40.7519 
7 *744:48 *744:54 41.6815 
8 *744:54 *744:60 46.0358 
9 *744:60 *2366:A0 20 
*END

*D_NET *745 0.0302715
*CONN
*I *3439:A I *D sg13cmos5l_dlygate4sd3_1
*I *2367:A0 I *D sg13cmos5l_mux2_2
*I *2654:A I *D sg13cmos5l_xor2_1
*I *3432:A I *D sg13cmos5l_dlygate4sd3_1
*I *2862:A I *D sg13cmos5l_and2_1
*I *2705:A I *D sg13cmos5l_xor2_1
*I *3129:Q O *D sg13cmos5l_dfrbpq_1
*CAP
1 *3439:A 0
2 *2367:A0 0
3 *2654:A 0.000169639
4 *3432:A 0.000508683
5 *2862:A 0
6 *2705:A 0
7 *3129:Q 5.36109e-05
8 *745:102 0.00213911
9 *745:96 0.00218628
10 *745:90 0.0019388
11 *745:77 0.00280118
12 *745:56 0.00250528
13 *745:47 0.000746406
14 *745:39 0.00228466
15 *745:35 0.000632185
16 *745:22 0.000912239
17 *745:8 0.00131648
18 *3432:A *2713:B 0.000240328
19 *745:22 *2813:B 0
20 *745:22 *1113:14 0
21 *745:22 *1118:122 0
22 *745:22 *1123:51 0
23 *745:22 *1123:66 0.00053159
24 *745:22 *1130:10 0.000499799
25 *745:22 *1154:100 0.00039332
26 *745:35 *1091:8 0.00018128
27 *745:35 *1123:66 0
28 *745:35 *1148:59 0.000181608
29 *745:47 *3127:RESET_B 8.00842e-05
30 *745:47 *1118:116 0.000339086
31 *745:47 *1118:122 0
32 *745:47 *1142:38 0
33 *745:47 *1142:49 0
34 *745:47 *1143:60 0.00011209
35 *745:56 *1073:33 0.000287256
36 *745:90 *2772:A 0.000340288
37 *745:90 *753:28 0
38 *745:90 *965:10 0.000182109
39 *745:90 *1119:137 0.000340288
40 *745:90 *1155:96 0.000501874
41 *745:102 *2501:B 0.000289113
42 *745:102 *848:12 0
43 *745:102 *916:22 0.000112634
44 *745:102 *1138:25 0.000798264
45 *2497:A *745:90 0.000181694
46 *2497:A *745:102 0.000659407
47 *2666:B *745:90 0
48 *2694:A *745:22 0.000208747
49 *2713:A *3432:A 4.78524e-05
50 *2723:A *3432:A 0
51 *2723:B *3432:A 0.000158792
52 *2723:D *3432:A 0
53 *2836:B1 *745:22 0
54 *2859:A1 *745:8 4.7725e-05
55 *2860:B1 *745:47 0
56 *2903:A0 *745:90 0
57 *20:12 *745:96 4.77299e-05
58 *21:18 *745:90 0
59 *178:8 *745:90 0
60 *384:12 *745:56 0.000395396
61 *384:44 *745:56 0.000447182
62 *407:32 *3432:A 0
63 *440:6 *2654:A 0.000305849
64 *440:6 *745:90 0.000805779
65 *441:6 *2654:A 6.46834e-05
66 *441:6 *745:90 0.00082107
67 *441:18 *2654:A 0.000241166
68 *441:43 *745:56 0.000287256
69 *441:43 *745:77 0
70 *519:10 *745:22 0.000208758
71 *552:12 *745:47 0
72 *553:10 *745:47 0.000208845
73 *613:14 *745:102 0
74 *614:18 *745:90 0.000235141
75 *614:26 *745:90 0
76 *637:37 *745:96 7.9768e-05
77 *736:10 *745:47 0.000446352
78 *736:34 *745:47 0.000425086
79 *739:80 *745:77 0.00034162
*RES
1 *3129:Q *745:8 20.6695 
2 *745:8 *745:22 49.9395 
3 *745:22 *2705:A 20 
4 *745:8 *745:35 43.3269 
5 *745:35 *745:39 2.3999 
6 *745:39 *745:47 48.7035 
7 *745:47 *2862:A 20 
8 *745:39 *745:56 32.7102 
9 *745:56 *3432:A 45.1809 
10 *745:56 *745:77 26.5302 
11 *745:77 *2654:A 22.0497 
12 *745:77 *745:90 41.4343 
13 *745:90 *745:96 40.5356 
14 *745:96 *745:102 37.8808 
15 *745:102 *2367:A0 20 
16 *745:35 *3439:A 20 
*END

*D_NET *746 0.0182279
*CONN
*I *2368:A0 I *D sg13cmos5l_mux2_1
*I *2909:A1 I *D sg13cmos5l_o21ai_1
*I *2869:A1 I *D sg13cmos5l_mux2_1
*I *2676:A I *D sg13cmos5l_xnor2_1
*I *3131:Q O *D sg13cmos5l_dfrbpq_1
*CAP
1 *2368:A0 0.000334293
2 *2909:A1 0.00054152
3 *2869:A1 5.82636e-05
4 *2676:A 0.000490816
5 *3131:Q 0.000893776
6 *746:71 0.000881634
7 *746:44 0.00108886
8 *746:42 0.00171646
9 *746:10 0.000803273
10 *746:8 0.00286443
11 *2368:A0 *753:18 0
12 *2368:A0 *753:46 0
13 *2368:A0 *773:20 8.00842e-05
14 *2676:A *763:76 1.54556e-05
15 *2676:A *763:89 0.000194291
16 *2869:A1 *1120:46 9.63868e-05
17 *2869:A1 *1124:34 4.77534e-05
18 *2909:A1 *2909:B1 0
19 *2909:A1 *901:16 0
20 *2909:A1 *901:22 0
21 *746:8 *1021:8 0.000501962
22 *746:8 *1144:55 0
23 *746:42 *2756:A 0
24 *746:42 *2880:A 4.90516e-05
25 *746:42 *1083:14 0
26 *746:42 *1155:80 0.000112826
27 *746:42 *1155:96 0.000177331
28 *746:71 *901:22 0
29 *746:71 *999:16 0.000553247
30 *2368:A1 *2368:A0 8.00842e-05
31 *2522:B *2368:A0 0.000501874
32 *2878:A *2676:A 0.000112717
33 *2879:B *2676:A 0
34 *2880:B *746:42 0
35 *2891:B *746:42 8.00842e-05
36 *2903:S *2676:A 0
37 *2907:A *2909:A1 0
38 *2909:A2 *2909:A1 4.77866e-05
39 *2912:A *2909:A1 0.000112558
40 *3194:A *746:8 0
41 *3194:A *746:10 0
42 *3361:A *746:42 0
43 *173:10 *746:42 0
44 *185:24 *746:42 0.000176405
45 *220:64 *2368:A0 0.000394151
46 *359:43 *746:42 0.00155871
47 *364:49 *2676:A 0
48 *470:14 *2909:A1 0
49 *562:8 *746:10 0.00050146
50 *589:10 *746:42 0
51 *590:10 *746:42 3.16276e-05
52 *595:30 *746:42 0
53 *637:37 *746:71 0
54 *664:414 *2909:A1 0
55 *667:8 *746:71 0
56 *679:14 *2676:A 0
57 *679:14 *746:10 0
58 *688:54 *2676:A 0
59 *688:54 *746:8 0
60 *695:38 *746:71 0.000175853
61 *737:10 *746:8 0
62 *741:109 *746:8 0.000181192
63 *741:109 *746:10 7.52149e-05
64 *741:115 *746:42 0.000596615
65 *744:42 *2368:A0 0
66 *744:42 *2909:A1 0.000664243
67 *744:42 *746:71 0.00143557
*RES
1 *3131:Q *746:8 49.2494 
2 *746:8 *746:10 3.3166 
3 *746:10 *2676:A 44.8101 
4 *746:10 *2869:A1 40.6437 
5 *746:8 *746:42 37.6954 
6 *746:42 *746:44 20 
7 *746:44 *2909:A1 46.4581 
8 *746:44 *746:71 47.9619 
9 *746:71 *2368:A0 44.5938 
*END

*D_NET *747 0.0169071
*CONN
*I *3352:A I *D sg13cmos5l_dlygate4sd3_1
*I *2369:A0 I *D sg13cmos5l_mux2_1
*I *2680:A I *D sg13cmos5l_xnor2_1
*I *2875:A I *D sg13cmos5l_or3_1
*I *3133:Q O *D sg13cmos5l_dfrbpq_1
*CAP
1 *3352:A 2.71311e-05
2 *2369:A0 0.000446087
3 *2680:A 0
4 *2875:A 0.000749945
5 *3133:Q 0
6 *747:44 0.00286481
7 *747:38 0.00244585
8 *747:36 0.00116758
9 *747:12 0.00138581
10 *747:4 0.00180345
11 *2369:A0 *2579:B 0
12 *2369:A0 *2594:A1 0
13 *2369:A0 *1019:10 0
14 *2875:A *749:12 0
15 *2875:A *995:28 0
16 *2875:A *1117:112 1.54008e-05
17 *2875:A *1117:121 6.46834e-05
18 *747:12 *749:12 0
19 *747:12 *995:28 0.000500717
20 *747:36 *2732:A 0
21 *747:44 *752:46 0
22 *747:44 *753:52 0
23 *747:44 *755:16 0
24 *747:44 *1032:8 0.00411976
25 config_o[28] *747:44 0
26 *2369:A1 *2369:A0 4.77425e-05
27 *2873:B *747:12 0
28 *3031:CLK *2369:A0 4.77863e-05
29 *3199:A *747:12 0
30 *29:20 *2369:A0 0
31 *179:8 *747:44 0
32 *395:25 *2875:A 0
33 *441:65 *3352:A 3.23417e-05
34 *441:65 *747:44 0.00027438
35 *444:10 *747:36 0.000393821
36 *444:10 *747:44 0
37 *445:25 *747:36 0
38 *446:12 *747:36 0
39 *446:12 *747:44 0
40 *449:12 *747:36 0.000181694
41 *449:20 *747:12 0
42 *694:8 *747:12 0
43 *694:49 *747:44 0
44 *735:18 *2875:A 0.000338086
*RES
1 *3133:Q *747:4 20 
2 *747:4 *747:12 26.4272 
3 *747:12 *2875:A 46.3242 
4 *747:12 *2680:A 40 
5 *747:4 *747:36 30.5575 
6 *747:36 *747:38 20 
7 *747:38 *747:44 49.1284 
8 *747:44 *2369:A0 44.2127 
9 *747:38 *3352:A 20.3193 
*END

*D_NET *748 0.0149579
*CONN
*I *2370:A0 I *D sg13cmos5l_mux2_1
*I *3336:A I *D sg13cmos5l_dlygate4sd3_1
*I *2663:A I *D sg13cmos5l_xnor2_1
*I *3135:Q O *D sg13cmos5l_dfrbpq_1
*CAP
1 *2370:A0 0
2 *3336:A 0.00027146
3 *2663:A 0.000861486
4 *3135:Q 0.000324836
5 *748:38 0.00238535
6 *748:14 0.00133188
7 *748:8 0.00290912
8 *2663:A *750:26 0
9 *2663:A *1005:10 0
10 *2663:A *1124:153 0.000234726
11 *3336:A *3360:A 1.54008e-05
12 *3336:A *1021:20 0
13 *748:8 *1021:20 0
14 *748:38 *872:8 0.00156418
15 *748:38 *877:24 0.000234224
16 *748:38 *888:10 0
17 *748:38 *1039:8 0
18 *748:38 *1134:110 0
19 *3340:A *748:38 0
20 *20:12 *748:8 0.000499521
21 *88:8 *748:38 0
22 *122:8 *748:38 0.000767537
23 *175:10 *2663:A 0
24 *185:16 *2663:A 0
25 *185:24 *2663:A 0.000446767
26 *225:53 *3336:A 0
27 *319:8 *748:38 0.000342865
28 *595:14 *2663:A 7.55443e-05
29 *609:16 *748:38 0.000394566
30 *609:39 *748:38 0.00100927
31 *614:12 *748:8 0
32 *636:48 *748:38 0.000554163
33 *645:10 *748:38 0.00018128
34 *691:10 *748:38 0.000553748
35 *741:145 *2663:A 0
36 *741:145 *748:14 0
37 *741:145 *748:38 0
*RES
1 *3135:Q *748:8 43.3475 
2 *748:8 *748:14 2.2557 
3 *748:14 *2663:A 49.4966 
4 *748:14 *3336:A 42.266 
5 *748:8 *748:38 30.6837 
6 *748:38 *2370:A0 40 
*END

*D_NET *749 0.0263935
*CONN
*I *2371:A0 I *D sg13cmos5l_mux2_1
*I *2730:A I *D sg13cmos5l_xnor2_1
*I *2696:A I *D sg13cmos5l_xnor2_1
*I *2885:B1 I *D sg13cmos5l_o21ai_1
*I *2886:A I *D sg13cmos5l_or3_1
*I *3137:Q O *D sg13cmos5l_dfrbpq_1
*CAP
1 *2371:A0 0.000488169
2 *2730:A 0.000144677
3 *2696:A 3.66844e-05
4 *2885:B1 0.000287117
5 *2886:A 0
6 *3137:Q 9.95669e-05
7 *749:56 0.00343769
8 *749:45 0.00356606
9 *749:20 0.000611483
10 *749:12 0.00107794
11 *749:8 0.00128832
12 *2371:A0 *948:51 0.000725587
13 *2371:A0 *1127:68 1.54008e-05
14 *2730:A *762:158 0
15 *2730:A *1143:88 0
16 *749:8 *752:14 0
17 *749:8 *752:20 0
18 *749:12 *752:46 0
19 *749:12 *1123:89 0
20 *749:12 *1142:104 0
21 *749:20 *1117:131 0
22 *749:20 *1123:89 0
23 *749:45 *752:46 0.0012539
24 *749:56 *752:46 0.00942442
25 *749:56 *776:73 0.000926217
26 *749:56 *776:77 0.00044694
27 *749:56 *973:16 0.000714833
28 *749:56 *995:39 0
29 config_o[26] *749:56 0
30 *2371:A1 *2371:A0 0.000240957
31 *2371:S *2371:A0 0
32 *2728:C *2730:A 0.000112563
33 *2873:B *749:45 0
34 *2873:B *749:56 0
35 *2875:A *749:12 0
36 *2885:A2 *2885:B1 0
37 *2887:A2 *2885:B1 0
38 *2887:A1 *2885:B1 0
39 *2888:D *2885:B1 0
40 *3342:A *2371:A0 0.00032339
41 *29:16 *749:56 0
42 *97:8 *749:56 0.000234224
43 *161:10 *749:20 2.20966e-05
44 *288:12 *749:56 0.00012816
45 *291:12 *749:56 0
46 *294:71 *749:56 0
47 *321:10 *749:56 0
48 *328:12 *749:56 0
49 *449:20 *749:8 0
50 *463:10 *749:12 0.000499799
51 *470:37 *749:56 0
52 *567:10 *749:12 0.000287256
53 *574:8 *749:20 0
54 *617:8 *2371:A0 0
55 *694:14 *749:12 0
56 *747:12 *749:12 0
*RES
1 *3137:Q *749:8 40.7519 
2 *749:8 *749:12 7.8383 
3 *749:12 *749:20 23.09 
4 *749:20 *2886:A 20 
5 *749:20 *2885:B1 22.6162 
6 *749:12 *2696:A 40.5356 
7 *749:8 *749:45 5.7886 
8 *749:45 *2730:A 41.1845 
9 *749:45 *749:56 43.6102 
10 *749:56 *2371:A0 45.7783 
*END

*D_NET *750 0.017824
*CONN
*I *2372:A0 I *D sg13cmos5l_mux2_1
*I *3360:A I *D sg13cmos5l_dlygate4sd3_1
*I *2650:A I *D sg13cmos5l_xor2_1
*I *3139:Q O *D sg13cmos5l_dfrbpq_1
*CAP
1 *2372:A0 0
2 *3360:A 8.92498e-05
3 *2650:A 0
4 *3139:Q 2.77263e-05
5 *750:60 0.00138834
6 *750:52 0.00397258
7 *750:26 0.000655741
8 *750:18 0.00124905
9 *750:6 0.00311602
10 *3360:A *1021:20 0.000112683
11 *750:18 *874:10 7.52158e-05
12 *750:18 *1021:20 0.000230836
13 *750:26 *756:26 0
14 *750:52 *848:12 0.000235141
15 *750:52 *928:8 0.000605949
16 *750:52 *943:18 0
17 *750:52 *954:14 0.00278765
18 *750:52 *965:10 0
19 *750:52 *988:14 0.000145023
20 *750:60 *848:12 0
21 *750:60 *905:18 0
22 *750:60 *1010:8 0
23 *2663:A *750:26 0
24 *3139:CLK *750:18 8.01064e-05
25 *3292:A *750:52 0
26 *3336:A *3360:A 1.54008e-05
27 *19:10 *750:52 0
28 *19:10 *750:60 0
29 *87:8 *750:52 0.000288675
30 *220:45 *750:52 0.00027267
31 *225:53 *3360:A 0
32 *225:53 *750:18 0
33 *280:18 *750:52 0.000340704
34 *359:43 *750:26 0
35 *614:26 *750:52 0
36 *618:8 *750:60 0
37 *637:37 *750:52 4.79124e-05
38 *671:8 *750:60 0.000871853
39 *680:14 *750:18 0
40 *740:95 *750:18 0.000235141
41 *740:99 *750:18 0
42 *741:145 *750:26 0.000980385
*RES
1 *3139:Q *750:6 20.3502 
2 *750:6 *750:18 45.047 
3 *750:18 *750:26 47.6838 
4 *750:26 *2650:A 20 
5 *750:18 *3360:A 20.9682 
6 *750:6 *750:52 49.6331 
7 *750:52 *750:60 34.3067 
8 *750:60 *2372:A0 20 
*END

*D_NET *751 0.0245042
*CONN
*I *2373:A0 I *D sg13cmos5l_mux2_1
*I *2677:A I *D sg13cmos5l_xnor2_1
*I *2894:A1 I *D sg13cmos5l_mux2_1
*I *3141:Q O *D sg13cmos5l_dfrbpq_1
*CAP
1 *2373:A0 0.000561215
2 *2677:A 0
3 *2894:A1 8.32052e-05
4 *3141:Q 0
5 *751:48 0.0031335
6 *751:46 0.00271791
7 *751:33 0.000672809
8 *751:27 0.00149616
9 *751:8 0.000693735
10 *751:4 0.00128825
11 *2373:A0 *775:87 0
12 *2373:A0 *1042:14 0
13 *751:8 *2895:A0 0.000499799
14 *751:27 *766:43 0
15 *751:27 *774:25 0
16 *751:33 *766:39 0
17 *751:33 *774:25 0
18 *751:33 *1010:36 0.000819324
19 *751:48 *762:117 0.00290625
20 *751:48 *775:16 0
21 *751:48 *775:38 0
22 *751:48 *775:57 0
23 *751:48 *793:12 0
24 *751:48 *921:12 0
25 *751:48 *962:8 0
26 *751:48 *1029:8 0
27 *751:48 *1042:14 0
28 *2373:A1 *2373:A0 1.54556e-05
29 *2459:A *751:48 0.00162141
30 *2569:A0 *2373:A0 0
31 *2569:S *2373:A0 0
32 *2586:A0 *2373:A0 0.000532379
33 *3013:D *751:27 0.00024211
34 *3013:D *751:46 0.000112018
35 *3115:CLK *751:46 0
36 *220:45 *751:48 0.000341216
37 *225:53 *751:27 8.00279e-05
38 *376:8 *751:33 0.000181192
39 *376:10 *751:33 0.000181192
40 *393:12 *2894:A1 0
41 *393:18 *2894:A1 1.54556e-05
42 *582:10 *2894:A1 0
43 *582:10 *751:8 0
44 *642:27 *751:48 0
45 *664:6 *751:27 0
46 *664:98 *751:27 0
47 *664:111 *751:27 0
48 *733:83 *751:8 0.00220429
49 *742:82 *751:33 0
50 *742:82 *751:46 0.000128248
51 *742:82 *751:48 0
52 *742:88 *751:48 0.0039771
*RES
1 *3141:Q *751:4 20 
2 *751:4 *751:8 30.2382 
3 *751:8 *2894:A1 40.7519 
4 *751:4 *751:27 46.9525 
5 *751:27 *751:33 49.0022 
6 *751:33 *2677:A 20 
7 *751:27 *751:46 21.6686 
8 *751:46 *751:48 35.2054 
9 *751:48 *2373:A0 45.562 
*END

*D_NET *752 0.0377342
*CONN
*I *2899:B1 I *D sg13cmos5l_o21ai_1
*I *2900:A I *D sg13cmos5l_or3_1
*I *2374:A0 I *D sg13cmos5l_mux2_1
*I *2740:A I *D sg13cmos5l_xnor2_1
*I *2668:A I *D sg13cmos5l_xnor2_1
*I *3143:Q O *D sg13cmos5l_dfrbpq_1
*CAP
1 *2899:B1 5.4574e-05
2 *2900:A 0.000155089
3 *2374:A0 0.000830386
4 *2740:A 0
5 *2668:A 0.000282166
6 *3143:Q 0
7 *752:65 0.000771115
8 *752:46 0.00412002
9 *752:44 0.00328963
10 *752:37 9.22782e-05
11 *752:20 0.00207435
12 *752:14 0.00194141
13 *752:12 0.00114566
14 *752:4 0.00146561
15 *2374:A0 *778:35 0
16 *2900:A *875:10 0
17 *752:12 *1122:87 0
18 *752:20 *1142:90 0
19 *752:37 *1143:43 0.000288087
20 *752:46 *753:52 0.00450854
21 *752:46 *776:73 0
22 *752:46 *778:35 0
23 *752:46 *778:45 0
24 *752:65 *2885:A1 8.0194e-05
25 *2374:A1 *2374:A0 8.00842e-05
26 *2680:B *752:20 1.54008e-05
27 *2728:C *752:46 0.000767328
28 *2740:B *752:20 0.000821083
29 *2887:A2 *752:65 0
30 *2887:A1 *752:65 0
31 *2899:A2 *2899:B1 8.0194e-05
32 *2900:B *2900:A 1.54556e-05
33 *2900:C *2899:B1 0
34 *2900:C *2900:A 0
35 *3111:D *752:65 0
36 *3137:CLK *752:14 0
37 *3137:CLK *752:20 0
38 *3143:CLK *752:65 0
39 *126:14 *2374:A0 0
40 *126:14 *752:46 0.000613071
41 *318:10 *2374:A0 0.000287256
42 *358:96 *752:37 0
43 *442:10 *752:46 0.000479338
44 *449:20 *752:14 0
45 *449:20 *752:20 0
46 *455:14 *2668:A 0
47 *461:6 *2668:A 0.000144877
48 *461:6 *752:20 0.00117544
49 *463:33 *752:12 0
50 *483:39 *2900:A 0
51 *483:39 *752:12 0
52 *483:39 *752:65 0
53 *565:12 *752:20 0
54 *586:8 *2900:A 0.000288087
55 *620:8 *2374:A0 0.000819323
56 *694:14 *752:12 0
57 *694:14 *752:14 0
58 *694:14 *752:46 0
59 *694:25 *752:12 0
60 *694:49 *752:46 0
61 *733:56 *752:20 0.000369824
62 *747:44 *752:46 0
63 *749:8 *752:14 0
64 *749:8 *752:20 0
65 *749:12 *752:46 0
66 *749:45 *752:46 0.0012539
67 *749:56 *752:46 0.00942442
*RES
1 *3143:Q *752:4 20 
2 *752:4 *752:12 49.8159 
3 *752:12 *752:14 0.9159 
4 *752:14 *752:20 16.995 
5 *752:20 *2668:A 22.7192 
6 *752:20 *752:37 41.339 
7 *752:37 *2740:A 20 
8 *752:14 *752:44 20 
9 *752:44 *752:46 55.4758 
10 *752:46 *2374:A0 48.343 
11 *752:4 *752:65 25.6444 
12 *752:65 *2900:A 42.1218 
13 *752:65 *2899:B1 40.5356 
*END

*D_NET *753 0.0160849
*CONN
*I *2375:A0 I *D sg13cmos5l_mux2_1
*I *2903:A1 I *D sg13cmos5l_mux2_1
*I *2664:A I *D sg13cmos5l_xnor2_1
*I *3145:Q O *D sg13cmos5l_dfrbpq_1
*CAP
1 *2375:A0 0
2 *2903:A1 0
3 *2664:A 0
4 *3145:Q 4.96741e-05
5 *753:58 5.30643e-05
6 *753:52 0.00144837
7 *753:46 0.00216616
8 *753:28 0.000477024
9 *753:18 0.00188785
10 *753:8 0.00223135
11 *753:18 *1021:34 2.20966e-05
12 *753:18 *1083:14 0
13 *753:18 *1144:39 0
14 *753:46 *2592:A1 0
15 *753:46 *773:20 0
16 *753:46 *773:78 0.000369733
17 *753:52 *778:45 0.000712759
18 *753:52 *899:26 0
19 *753:52 *948:51 8.00842e-05
20 *753:52 *1032:8 0
21 *753:58 *899:26 0.00012816
22 *2368:A0 *753:18 0
23 *2368:A0 *753:46 0
24 *2368:A1 *753:8 0
25 *2368:A1 *753:46 0
26 *2375:S *753:52 1.54008e-05
27 *2664:B *753:28 1.54008e-05
28 *2903:S *753:28 0.000207854
29 *3239:A *753:28 0
30 *178:8 *753:18 0
31 *328:12 *753:46 0
32 *359:43 *753:18 0
33 *465:26 *753:18 0
34 *465:26 *753:28 0
35 *482:24 *753:18 0.000305653
36 *589:10 *753:18 0
37 *595:30 *753:18 0
38 *595:30 *753:28 0
39 *637:37 *753:8 7.9524e-05
40 *637:37 *753:46 0
41 *667:16 *753:46 0
42 *744:42 *753:18 0.0010362
43 *744:42 *753:46 0.000290042
44 *745:90 *753:28 0
45 *747:44 *753:52 0
46 *752:46 *753:52 0.00450854
*RES
1 *3145:Q *753:8 40.5356 
2 *753:8 *753:18 34.626 
3 *753:18 *753:28 43.9243 
4 *753:28 *2664:A 20 
5 *753:18 *2903:A1 20 
6 *753:8 *753:46 47.032 
7 *753:46 *753:52 41.6197 
8 *753:52 *753:58 40.5974 
9 *753:58 *2375:A0 20 
*END

*D_NET *754 0.00207571
*CONN
*I *3426:A I *D sg13cmos5l_dlygate4sd3_1
*I *3091:Q O *D sg13cmos5l_dfrbpq_1
*CAP
1 *3426:A 0.000293364
2 *3091:Q 9.53918e-05
3 *754:8 0.000388756
4 *3426:A *2759:A 0.000531778
5 *3426:A *1119:46 0.000531778
6 *754:8 *1103:39 0
7 *732:37 *754:8 0.00023464
*RES
1 *3091:Q *754:8 41.0918 
2 *754:8 *3426:A 43.5638 
*END

*D_NET *755 0.00812653
*CONN
*I *3333:A I *D sg13cmos5l_dlygate4sd3_1
*I *2376:A0 I *D sg13cmos5l_mux2_1
*I *2693:A I *D sg13cmos5l_xnor2_1
*I *3147:Q O *D sg13cmos5l_dfrbpq_1
*CAP
1 *3333:A 0
2 *2376:A0 0
3 *2693:A 0
4 *3147:Q 0.000168997
5 *755:31 0.000638658
6 *755:25 0.000935704
7 *755:16 0.00093248
8 *755:10 0.00139852
9 *755:16 *1032:16 0
10 *755:25 *841:8 0.000240515
11 *755:25 *1129:50 0.000112417
12 *755:31 *1043:10 0.00161679
13 config_o[28] *755:10 0
14 config_o[28] *755:16 0
15 *27:10 *755:16 0
16 *27:10 *755:31 0
17 *29:12 *755:16 0.000466477
18 *179:8 *755:16 0
19 *225:53 *755:10 0
20 *285:22 *755:10 0.000288184
21 *285:22 *755:16 0.00125224
22 *291:8 *755:10 0
23 *291:8 *755:25 0
24 *655:25 *755:31 7.55443e-05
25 *747:44 *755:16 0
*RES
1 *3147:Q *755:10 41.8746 
2 *755:10 *755:16 30.403 
3 *755:16 *2693:A 20 
4 *755:10 *755:25 22.6986 
5 *755:25 *755:31 47.519 
6 *755:31 *2376:A0 20 
7 *755:25 *3333:A 20 
*END

*D_NET *756 0.0192876
*CONN
*I *2377:A0 I *D sg13cmos5l_mux2_1
*I *2913:A I *D sg13cmos5l_xnor2_1
*I *2690:A I *D sg13cmos5l_xor2_1
*I *2660:A I *D sg13cmos5l_xnor2_1
*I *3149:Q O *D sg13cmos5l_dfrbpq_1
*CAP
1 *2377:A0 0
2 *2913:A 0
3 *2690:A 0
4 *2660:A 0
5 *3149:Q 0.000371377
6 *756:78 0.000984109
7 *756:72 0.00160046
8 *756:66 0.000700313
9 *756:52 0.000283795
10 *756:36 0.000680882
11 *756:26 0.00286166
12 *756:20 0.00266453
13 *756:14 0.000487377
14 *756:14 *844:10 0.000175974
15 *756:14 *1021:34 0
16 *756:20 *3471:A 0.000307106
17 *756:20 *1129:50 0
18 *756:26 *3135:RESET_B 0.000361364
19 *756:26 *3139:D 0.000175765
20 *756:26 *3471:A 0
21 *756:26 *1010:36 0
22 *756:26 *1120:14 0
23 *756:36 *1010:36 0
24 *756:36 *1071:8 0
25 *756:52 *901:22 0
26 *756:66 *1032:8 0.000447684
27 *756:72 *2521:A 0
28 *756:72 *2981:RESET_B 0.000754602
29 *756:72 *2981:D 0.00072226
30 config_o[28] *756:66 0.000447684
31 *2377:A1 *756:78 1.54008e-05
32 *2690:B *756:26 0
33 *2905:B *756:26 0
34 *2914:A2 *756:52 0.000342364
35 *2915:A2 *756:20 0.000209703
36 *3131:D *756:36 0
37 *3244:A *756:20 0
38 *3244:A *756:26 0.000177164
39 *29:16 *756:14 0.00034162
40 *29:16 *756:52 0
41 *287:14 *756:78 0.00323433
42 *290:22 *756:72 0
43 *291:8 *756:14 0
44 *291:12 *756:14 0.000182023
45 *359:43 *756:26 0
46 *365:8 *756:26 0
47 *405:8 *756:36 0
48 *405:16 *756:36 0.000468855
49 *563:10 *756:36 0.000144018
50 *597:8 *756:52 0
51 *688:54 *756:36 0
52 *736:80 *756:26 0
53 *741:109 *756:36 0.000145149
54 *750:26 *756:26 0
*RES
1 *3149:Q *756:14 43.6565 
2 *756:14 *756:20 22.3999 
3 *756:20 *756:26 20.0232 
4 *756:26 *756:36 46.4272 
5 *756:36 *2660:A 20 
6 *756:26 *2690:A 20 
7 *756:20 *756:52 43.3166 
8 *756:52 *2913:A 20 
9 *3149:Q *756:66 42.0806 
10 *756:66 *756:72 46.592 
11 *756:72 *756:78 35.3779 
12 *756:78 *2377:A0 20 
*END

*D_NET *757 0.0432199
*CONN
*I *2863:B I *D sg13cmos5l_xor2_1
*I *2347:A0 I *D sg13cmos5l_mux2_1
*I *3269:A I *D sg13cmos5l_buf_1
*I *3093:Q O *D sg13cmos5l_dfrbpq_1
*CAP
1 *2863:B 0.000169566
2 *2347:A0 0
3 *3269:A 0
4 *3093:Q 0.000167209
5 *757:86 0.00180141
6 *757:80 0.00221214
7 *757:72 0.0014144
8 *757:55 0.00182809
9 *757:49 0.00196037
10 *757:39 0.00265797
11 *757:37 0.00310321
12 *757:31 0.00260996
13 *757:14 0.000503926
14 *757:8 0.00186947
15 *2863:B *1126:72 0.00027432
16 *2863:B *1148:51 0
17 *757:8 *1147:24 3.23417e-05
18 *757:8 *1147:28 0.000112399
19 *757:14 *2783:B1 0
20 *757:14 *1116:28 0.00105429
21 *757:14 *1120:94 0.000448427
22 *757:14 *1151:43 0
23 *757:31 *762:12 0
24 *757:31 *762:35 0.000112203
25 *757:31 *1147:24 0.000144872
26 *757:31 *1148:28 0
27 *757:37 *1148:41 0.00012816
28 *757:39 *758:125 0
29 *757:39 *759:33 0
30 *757:39 *759:47 0.00103261
31 *757:39 *766:55 0.000287256
32 *757:39 *1085:8 0
33 *757:49 *1140:47 0.000181387
34 *757:55 *758:141 0.000394704
35 *757:55 *1140:47 0.00182684
36 *757:55 *1140:60 0.00113826
37 *757:72 *2856:B 0
38 *757:72 *762:35 0
39 *757:72 *1132:6 0.00011236
40 *757:72 *1132:42 4.77154e-05
41 *757:72 *1156:46 0.000112558
42 *757:80 *2856:B 0.000692707
43 *757:80 *766:39 0.000446438
44 *757:80 *1132:57 0
45 *757:86 *762:49 0
46 *2461:B *757:55 0.000500629
47 *2686:A *757:39 0.00106272
48 *2689:B *757:39 0.000159926
49 *2762:A2 *757:31 0.000177345
50 *2784:B1 *757:8 0
51 *2854:C *757:80 0
52 *2860:B1 *757:86 0
53 *2861:B *757:86 8.00842e-05
54 *3095:D *757:31 8.0194e-05
55 *3125:D *757:72 4.7803e-05
56 *209:29 *757:8 0.000241759
57 *209:29 *757:31 6.46834e-05
58 *209:33 *757:31 0
59 *209:33 *757:72 0.000822037
60 *223:10 *757:39 0.000818406
61 *224:12 *757:39 0.000607109
62 *224:12 *757:49 0.000176048
63 *224:12 *757:55 2.21831e-05
64 *231:12 *757:55 0.000182109
65 *238:14 *757:39 0.000287758
66 *238:14 *757:49 0.000127194
67 *352:10 *757:72 0
68 *354:49 *757:86 0.00176092
69 *355:10 *757:39 0.000234224
70 *355:21 *757:39 0.000212127
71 *358:43 *757:86 0
72 *389:10 *757:39 0
73 *394:8 *757:39 0.00103178
74 *397:8 *757:39 0.000501962
75 *400:20 *757:39 0.000606278
76 *400:30 *757:39 0.00153083
77 *402:10 *757:39 0.00012816
78 *474:10 *757:14 0.000288502
79 *475:8 *757:14 0.000394151
80 *487:52 *757:86 1.54008e-05
81 *550:8 *757:86 0
82 *556:10 *757:86 0.000234311
83 *557:12 *2863:B 4.77425e-05
84 *625:10 *757:55 0.000181694
85 *626:8 *757:55 0.00023464
86 *627:44 *757:55 0.000287343
87 *657:26 *757:55 8.00842e-05
88 *658:36 *757:55 0
89 *661:26 *757:55 0.000872269
90 *732:31 *757:37 0
91 *742:27 *757:80 0.000241897
*RES
1 *3093:Q *757:8 21.9673 
2 *757:8 *757:14 47.2718 
3 *757:14 *3269:A 20 
4 *757:8 *757:31 10.8768 
5 *757:31 *757:37 24.6247 
6 *757:37 *757:39 33.7222 
7 *757:39 *757:49 41.9158 
8 *757:49 *757:55 44.3698 
9 *757:55 *2347:A0 20 
10 *757:31 *757:72 48.1988 
11 *757:72 *757:80 46.7259 
12 *757:80 *757:86 35.8688 
13 *757:86 *2863:B 41.8334 
*END

*D_NET *758 0.0391171
*CONN
*I *2348:A0 I *D sg13cmos5l_mux2_1
*I *2839:A I *D sg13cmos5l_xnor2_1
*I *2655:A I *D sg13cmos5l_xor2_1
*I *2701:A I *D sg13cmos5l_nor3_1
*I *2702:B I *D sg13cmos5l_nand4_1
*I *3438:A I *D sg13cmos5l_dlygate4sd3_1
*I *2640:B I *D sg13cmos5l_xnor2_1
*I *3431:A I *D sg13cmos5l_dlygate4sd3_1
*I *3095:Q O *D sg13cmos5l_dfrbpq_1
*CAP
1 *2348:A0 0
2 *2839:A 0
3 *2655:A 7.39652e-05
4 *2701:A 2.66608e-05
5 *2702:B 0.000302659
6 *3438:A 4.14384e-05
7 *2640:B 0
8 *3431:A 2.28511e-05
9 *3095:Q 0.000292266
10 *758:141 0.000207129
11 *758:131 0.00185292
12 *758:125 0.00304696
13 *758:110 0.000946875
14 *758:102 0.00370374
15 *758:87 0.00254365
16 *758:65 0.00032932
17 *758:63 0.00147885
18 *758:50 0.0028441
19 *758:42 0.00294963
20 *758:33 0.00060451
21 *758:29 0.000696618
22 *758:10 0.000919057
23 *2701:A *2725:B 4.77866e-05
24 *2702:B *2725:B 0.000112404
25 *2702:B *1131:89 4.7381e-05
26 *3431:A *760:29 4.77425e-05
27 *3438:A *2742:A 0
28 *758:10 *2759:A 0
29 *758:29 *2673:C 0.000240405
30 *758:29 *760:29 0
31 *758:29 *1085:16 0
32 *758:42 *760:29 0
33 *758:50 *2738:B 0
34 *758:50 *2850:A 0
35 *758:50 *1088:10 0
36 *758:50 *1090:10 0
37 *758:50 *1115:16 0
38 *758:50 *1115:26 0
39 *758:50 *1119:57 0.000128247
40 *758:63 *761:31 0
41 *758:63 *1090:10 0
42 *758:63 *1142:49 0.000288087
43 *758:63 *1142:60 0
44 *758:63 *1142:75 0
45 *758:63 *1150:126 0
46 *758:87 *1081:20 0
47 *758:87 *1119:57 0
48 *758:102 *2895:A0 0
49 *758:102 *1081:20 0
50 *758:102 *1119:57 0
51 *758:110 *792:12 0
52 *758:110 *1121:28 0
53 *758:110 *1153:46 0.000208615
54 *758:110 *1153:78 7.52158e-05
55 *758:125 *766:55 0.000182313
56 *758:125 *1136:54 0.000181192
57 *758:125 *1140:10 0.000395177
58 *758:125 *1146:66 0
59 *758:131 *2431:B 0
60 *758:131 *963:8 0
61 *758:131 *1008:12 0.000393406
62 *758:131 *1095:42 0.00246581
63 *758:131 *1140:47 0.000977086
64 *758:131 *1140:60 0
65 *758:131 *1146:66 0.00113743
66 *758:141 *2435:A 0
67 *758:141 *902:8 4.77425e-05
68 *2702:C *2702:B 4.77425e-05
69 *2738:A *758:50 0
70 *2738:D *758:50 8.01609e-05
71 *2759:B *758:33 0
72 *2759:B *758:42 0
73 *2843:A2 *758:110 0.000208615
74 *2846:B *758:110 0
75 *2848:A1 *758:110 0
76 *3212:A *3431:A 1.54008e-05
77 *3212:A *758:10 0
78 *208:25 *758:50 0
79 *219:51 *758:125 0.000859056
80 *224:12 *758:131 0
81 *224:37 *758:131 0.00012816
82 *293:25 *758:10 0
83 *355:6 *758:33 4.77425e-05
84 *355:45 *758:33 4.77425e-05
85 *355:45 *758:42 0.000257477
86 *369:36 *758:87 0
87 *369:69 *758:63 0.000181192
88 *370:10 *758:102 0
89 *372:25 *758:42 0.000176431
90 *372:25 *758:50 0.000403035
91 *376:16 *758:50 0
92 *389:10 *758:29 0
93 *393:18 *758:125 0.000290042
94 *395:49 *758:29 4.67945e-05
95 *395:57 *758:29 7.51285e-05
96 *400:16 *758:102 0.000854533
97 *400:20 *758:125 7.53228e-05
98 *407:32 *2655:A 0
99 *416:8 *758:63 0.000765875
100 *429:56 *758:63 0.000287343
101 *451:31 *758:50 0.0002574
102 *456:8 *758:63 0.000288587
103 *494:10 *758:87 0
104 *504:10 *758:102 0.000606376
105 *505:8 *758:110 0
106 *543:12 *758:110 0
107 *546:8 *758:50 0
108 *658:36 *758:141 4.77425e-05
109 *662:39 *758:131 0.000234224
110 *662:43 *758:131 0.000143913
111 *673:8 *758:10 7.51285e-05
112 *673:8 *758:29 0.000159598
113 *673:18 *758:10 0.000229444
114 *679:14 *758:63 0
115 *688:8 *758:63 0
116 *732:37 *758:110 0.000606364
117 *733:16 *2655:A 0.000112048
118 *733:52 *3438:A 0
119 *733:52 *758:63 0
120 *734:52 *758:63 0
121 *738:25 *758:63 0
122 *738:35 *758:63 0
123 *740:14 *758:110 0
124 *740:27 *758:110 0
125 *740:37 *758:33 0.000144451
126 *740:37 *758:42 1.54008e-05
127 *740:50 *758:102 0.000871474
128 *740:50 *758:110 0.000143171
129 *741:28 *758:110 8.00842e-05
130 *742:10 *758:87 0
131 *757:39 *758:125 0
132 *757:55 *758:141 0.000394704
*RES
1 *3095:Q *758:10 42.9252 
2 *758:10 *3431:A 40.3193 
3 *758:10 *758:29 45.5929 
4 *758:29 *758:33 20.9682 
5 *758:33 *2640:B 20 
6 *758:33 *758:42 24.8616 
7 *758:42 *758:50 33.0398 
8 *758:50 *3438:A 20.5356 
9 *758:50 *758:63 36.2561 
10 *758:63 *758:65 20 
11 *758:65 *2702:B 22.7192 
12 *758:65 *2701:A 20.3193 
13 *758:42 *758:87 9.8159 
14 *758:87 *2655:A 40.7519 
15 *758:87 *758:102 33.9565 
16 *758:102 *758:110 49.8468 
17 *758:110 *2839:A 20 
18 *758:102 *758:125 34.1934 
19 *758:125 *758:131 42.5467 
20 *758:131 *758:141 42.2608 
21 *758:141 *2348:A0 20 
*END

*D_NET *759 0.0184311
*CONN
*I *3417:A I *D sg13cmos5l_dlygate4sd3_1
*I *2682:B I *D sg13cmos5l_xnor2_1
*I *2687:A I *D sg13cmos5l_xor2_1
*I *3268:A I *D sg13cmos5l_buf_1
*I *3097:Q O *D sg13cmos5l_dfrbpq_1
*CAP
1 *3417:A 0
2 *2682:B 2.46405e-05
3 *2687:A 0
4 *3268:A 0.000543596
5 *3097:Q 2.60565e-05
6 *759:47 0.000508225
7 *759:37 0.000604858
8 *759:33 0.00123101
9 *759:27 0.00235998
10 *759:8 0.00177061
11 *3268:A *3276:A 0.000209544
12 *3268:A *762:35 7.51285e-05
13 *3268:A *1113:82 0
14 *3268:A *1156:46 0.00166899
15 *759:8 *1132:42 4.77425e-05
16 *759:27 *762:35 1.55212e-05
17 *759:27 *1081:20 0.00103095
18 *759:27 *1086:10 0
19 *759:27 *1150:94 0
20 *759:33 *1150:94 0
21 *759:47 *1120:46 6.99179e-05
22 *2779:C *3268:A 0.00145686
23 *183:42 *759:33 0
24 *209:33 *759:8 4.77425e-05
25 *372:25 *759:27 0
26 *384:18 *759:27 0
27 *384:18 *759:33 0
28 *393:18 *759:33 0.00231566
29 *394:8 *759:33 0.000663122
30 *400:20 *759:33 0.000320048
31 *400:30 *759:33 0.000503098
32 *741:42 *2682:B 4.77425e-05
33 *741:42 *759:37 0.00011211
34 *742:27 *759:27 0.00103261
35 *742:48 *759:27 0.000712758
36 *757:39 *759:33 0
37 *757:39 *759:47 0.00103261
*RES
1 *3097:Q *759:8 40.3193 
2 *759:8 *3268:A 49.4142 
3 *759:8 *759:27 34.4921 
4 *759:27 *759:33 35.5942 
5 *759:33 *759:37 20.7519 
6 *759:37 *759:47 45.4693 
7 *759:47 *2687:A 20 
8 *759:37 *2682:B 20.3193 
9 *759:27 *3417:A 20 
*END

*D_NET *760 0.0189547
*CONN
*I *3422:A I *D sg13cmos5l_dlygate4sd3_1
*I *2649:B I *D sg13cmos5l_xor2_1
*I *2350:A0 I *D sg13cmos5l_mux2_1
*I *2850:A I *D sg13cmos5l_xor2_1
*I *2657:B I *D sg13cmos5l_xnor2_1
*I *2681:A I *D sg13cmos5l_xnor2_1
*I *3099:Q O *D sg13cmos5l_dfrbpq_1
*CAP
1 *3422:A 4.72978e-05
2 *2649:B 2.31187e-05
3 *2350:A0 0.000440495
4 *2850:A 3.04348e-05
5 *2657:B 0
6 *2681:A 0
7 *3099:Q 0
8 *760:65 0.00240895
9 *760:59 0.00344755
10 *760:46 0.00220592
11 *760:29 0.00239922
12 *760:21 0.00197742
13 *760:12 0.000304219
14 *760:4 0.000554632
15 *2350:A0 *1033:30 0
16 *2350:A0 *1139:26 0.000339004
17 *760:12 *788:22 0.000715749
18 *760:21 *2782:A 0
19 *760:21 *1119:46 0
20 *760:29 *2782:A 0
21 *760:29 *1072:23 0
22 *760:29 *1085:16 0.000854488
23 *760:29 *1116:8 0
24 *760:46 *2853:A2 0.000175513
25 *760:46 *1085:16 0
26 *760:46 *1145:99 0
27 *760:59 *766:39 0
28 *760:59 *1145:99 0
29 *760:59 *1145:112 0
30 *760:65 *763:38 0
31 *760:65 *763:105 0
32 *760:65 *766:39 0
33 *760:65 *774:25 0
34 *760:65 *774:40 0
35 *760:65 *1131:20 0
36 *760:65 *1139:38 2.20966e-05
37 *2350:A1 *2350:A0 1.54008e-05
38 *2657:A *760:46 0.000305981
39 *2675:A *760:29 0.000305903
40 *2781:B *760:29 0.000208747
41 *2786:B *760:59 0
42 *2844:B *2649:B 4.77425e-05
43 *2844:B *760:65 0.000111957
44 *3212:A *760:29 0
45 *3314:A *2350:A0 0
46 *3431:A *760:29 4.77425e-05
47 *3435:A *760:46 8.00842e-05
48 *208:6 *760:12 0
49 *208:6 *760:21 0
50 *224:72 *760:65 0
51 *311:10 *2350:A0 0.000144308
52 *364:8 *760:59 0.000288174
53 *372:25 *760:46 0
54 *373:20 *760:59 0
55 *376:16 *2850:A 0
56 *378:33 *760:59 0
57 *395:49 *2850:A 0
58 *395:57 *760:29 0
59 *432:12 *760:59 0.000393736
60 *433:10 *760:59 0.000340791
61 *435:10 *760:59 0
62 *435:10 *760:65 4.77105e-05
63 *467:12 *760:21 0
64 *467:23 *760:21 0
65 *467:23 *760:29 0
66 *495:10 *760:46 0
67 *495:10 *760:59 0
68 *524:8 *760:65 0
69 *546:8 *760:46 0
70 *673:18 *760:29 0
71 *690:16 *2350:A0 0.000435477
72 *740:66 *2649:B 1.54008e-05
73 *740:66 *760:59 7.52149e-05
74 *742:27 *760:46 0.000144179
75 *758:29 *760:29 0
76 *758:42 *760:29 0
77 *758:50 *2850:A 0
*RES
1 *3099:Q *760:4 20 
2 *760:4 *760:12 44.0685 
3 *760:12 *2681:A 20 
4 *760:4 *760:21 2.7089 
5 *760:21 *760:29 16.392 
6 *760:29 *2657:B 20 
7 *760:29 *760:46 26.9113 
8 *760:46 *2850:A 40.3193 
9 *760:46 *760:59 34.935 
10 *760:59 *760:65 38.1589 
11 *760:65 *2350:A0 44.8616 
12 *760:59 *2649:B 20.3193 
13 *760:21 *3422:A 20.5974 
*END

*D_NET *761 0.0191293
*CONN
*I *2666:A I *D sg13cmos5l_xnor2_1
*I *3267:A I *D sg13cmos5l_buf_1
*I *3101:Q O *D sg13cmos5l_dfrbpq_1
*CAP
1 *2666:A 0
2 *3267:A 0.000615791
3 *3101:Q 0.000121391
4 *761:43 0.000841052
5 *761:37 0.00148924
6 *761:31 0.0017306
7 *761:27 0.00251585
8 *761:8 0.00217062
9 *3267:A *2789:A1 0.0013484
10 *3267:A *3276:A 8.00842e-05
11 *3267:A *1118:78 0.000181192
12 *3267:A *1122:104 0.000393736
13 *761:8 *762:41 0.000207854
14 *761:27 *2829:A 0
15 *761:27 *2852:A1 0.000313318
16 *761:27 *3436:A 0
17 *761:27 *1115:16 0
18 *761:27 *1115:26 0
19 *761:27 *1118:89 0.000393736
20 *761:27 *1122:10 0
21 *761:27 *1122:53 0.000597428
22 *761:27 *1132:57 0
23 *761:27 *1132:87 0
24 *761:31 *1142:49 0
25 *761:31 *1142:60 0.000340704
26 *761:31 *1142:75 0.000234224
27 *761:37 *1079:12 0.00117733
28 *761:43 *762:148 0.000498673
29 *2672:B *761:37 0.00117772
30 *2790:B1 *3267:A 0
31 *2852:B1 *761:27 1.54008e-05
32 *209:33 *761:8 0.000207854
33 *415:10 *761:43 0.000340288
34 *440:6 *761:43 0
35 *485:22 *3267:A 0.000605949
36 *487:10 *3267:A 0
37 *495:10 *3267:A 0
38 *664:403 *761:43 0
39 *736:34 *761:31 0
40 *738:35 *761:31 0
41 *739:72 *761:43 0.000658895
42 *739:93 *761:43 0.000871941
43 *758:63 *761:31 0
*RES
1 *3101:Q *761:8 41.4008 
2 *761:8 *3267:A 48.8683 
3 *761:8 *761:27 34.0183 
4 *761:27 *761:31 30.2382 
5 *761:31 *761:37 47.8898 
6 *761:37 *761:43 30.3721 
7 *761:43 *2666:A 20 
*END

*D_NET *762 0.05358
*CONN
*I *2654:B I *D sg13cmos5l_xor2_1
*I *2730:B I *D sg13cmos5l_xnor2_1
*I *2352:A0 I *D sg13cmos5l_mux2_1
*I *3436:A I *D sg13cmos5l_dlygate4sd3_1
*I *2864:A I *D sg13cmos5l_xnor2_1
*I *2708:B_N I *D sg13cmos5l_nor2b_1
*I *2706:A I *D sg13cmos5l_nor2b_1
*I *3433:A I *D sg13cmos5l_dlygate4sd3_1
*I *3103:Q O *D sg13cmos5l_dfrbpq_1
*CAP
1 *2654:B 0
2 *2730:B 0
3 *2352:A0 0
4 *3436:A 0.000120198
5 *2864:A 4.72978e-05
6 *2708:B_N 4.72167e-05
7 *2706:A 0
8 *3433:A 0
9 *3103:Q 3.49104e-05
10 *762:158 0.00107403
11 *762:148 0.00234086
12 *762:140 0.00149341
13 *762:138 0.00114903
14 *762:123 0.000978205
15 *762:117 0.00304253
16 *762:113 0.00225581
17 *762:109 0.00111394
18 *762:107 0.0012465
19 *762:96 0.0015957
20 *762:71 0.000220845
21 *762:63 0.00114525
22 *762:59 0.00204689
23 *762:49 0.00212489
24 *762:41 0.00203836
25 *762:35 0.00193753
26 *762:18 0.000255377
27 *762:12 0.00156689
28 *762:8 0.000215764
29 *2708:B_N *2902:A 0
30 *2708:B_N *1155:34 3.23965e-05
31 *3436:A *1132:57 4.77425e-05
32 *3436:A *1132:87 0.000143818
33 *762:12 *1148:28 0
34 *762:18 *876:59 0
35 *762:18 *1146:26 0
36 *762:35 *1132:6 0.00011236
37 *762:35 *1132:42 0.000274477
38 *762:35 *1148:41 0
39 *762:59 *2867:A1 0.000112426
40 *762:59 *1113:22 0.000712759
41 *762:59 *1130:20 4.77921e-05
42 *762:59 *1145:68 0
43 *762:59 *1148:47 0
44 *762:59 *1154:61 0.000112048
45 *762:59 *1155:32 0
46 *762:59 *1155:34 0
47 *762:63 *1155:32 2.20968e-05
48 *762:63 *1155:34 0.00137526
49 *762:71 *1155:49 0.000447182
50 *762:96 *1132:87 6.40363e-05
51 *762:107 *1130:53 0.000819651
52 *762:107 *1130:66 0.000288502
53 *762:117 *775:16 0
54 *762:117 *780:23 0
55 *762:117 *1131:10 0
56 *762:123 *2566:A 0
57 *762:123 *2566:B 0.00027443
58 *762:123 *2939:RESET_B 0
59 *762:123 *1096:20 0.00156725
60 *762:123 *1098:8 0
61 *762:123 *1098:14 0
62 *762:123 *1128:27 0
63 *762:148 *1119:137 0
64 *762:148 *1126:87 0.00113826
65 *762:158 *2697:A 6.47823e-05
66 *762:158 *1119:137 0
67 *762:158 *1130:121 0.000305794
68 *762:158 *1143:88 0
69 *2357:A1 *762:117 0.000320048
70 *2699:A2 *762:158 0
71 *2712:A2 *762:63 0
72 *2712:B1 *762:63 0
73 *2730:A *762:158 0
74 *2792:B *2708:B_N 0
75 *2792:B *762:63 0
76 *2844:B *762:113 0
77 *2844:B *762:138 0
78 *2867:B2 *762:59 0
79 *2868:B *762:59 0
80 *2868:C *762:59 0
81 *2868:D *762:59 4.77425e-05
82 *3199:A *762:158 0
83 *3268:A *762:35 7.51285e-05
84 *3403:A *762:123 8.03692e-05
85 *113:12 *762:117 0
86 *209:33 *762:41 0
87 *209:45 *762:59 0.00177884
88 *219:12 *762:8 0.000181694
89 *262:10 *762:123 0
90 *293:25 *762:8 0.000181192
91 *354:30 *762:35 0.000140165
92 *354:49 *762:41 0.00117652
93 *354:49 *762:59 0.000234224
94 *358:18 *762:35 0
95 *358:29 *762:35 0
96 *359:10 *762:49 0.000250553
97 *359:10 *762:96 0.000531247
98 *359:10 *762:107 0.00418272
99 *359:10 *762:117 0
100 *359:60 *762:49 0.000145162
101 *369:10 *762:140 0
102 *369:10 *762:148 4.77425e-05
103 *377:12 *762:117 0
104 *381:8 *762:148 1.54008e-05
105 *391:10 *762:117 0
106 *391:14 *762:107 0
107 *397:44 *762:148 0
108 *410:50 *762:63 0
109 *411:14 *762:71 0
110 *411:41 *762:158 0
111 *411:47 *762:158 0
112 *414:10 *762:158 0
113 *423:10 *762:63 0
114 *423:10 *762:71 0
115 *440:6 *762:140 0
116 *440:6 *762:148 0
117 *453:8 *762:107 0
118 *483:22 *762:59 0
119 *483:22 *762:63 0
120 *483:22 *762:71 8.00842e-05
121 *487:52 *762:49 0
122 *499:26 *762:18 0
123 *529:8 *762:96 0
124 *558:8 *762:59 0
125 *561:10 *762:59 0
126 *636:38 *762:117 0.000504221
127 *637:8 *762:117 0.000340482
128 *689:48 *762:117 0
129 *708:55 *762:35 1.55212e-05
130 *736:45 *762:138 0
131 *740:66 *762:113 0.000273912
132 *740:66 *762:138 0.00016127
133 *740:77 *762:138 0.000921086
134 *741:92 *762:117 0
135 *742:82 *762:117 0.00209962
136 *751:48 *762:117 0.00290625
137 *757:31 *762:12 0
138 *757:31 *762:35 0.000112203
139 *757:72 *762:35 0
140 *757:86 *762:49 0
141 *759:27 *762:35 1.55212e-05
142 *761:8 *762:41 0.000207854
143 *761:27 *3436:A 0
144 *761:43 *762:148 0.000498673
*RES
1 *3103:Q *762:8 40.8446 
2 *762:8 *762:12 21.4008 
3 *762:12 *762:18 42.3278 
4 *762:18 *3433:A 20 
5 *762:12 *762:35 30.3103 
6 *762:35 *762:41 47.8898 
7 *762:41 *762:49 48.549 
8 *762:49 *762:59 34.1549 
9 *762:59 *762:63 10.0322 
10 *762:63 *762:71 42.6162 
11 *762:71 *2706:A 20 
12 *762:63 *2708:B_N 20.5356 
13 *762:59 *2864:A 20.5974 
14 *762:41 *762:96 23.1106 
15 *762:96 *3436:A 21.1845 
16 *762:96 *762:107 39.3846 
17 *762:107 *762:109 20 
18 *762:109 *762:113 21.8334 
19 *762:113 *762:117 48.2838 
20 *762:117 *762:123 31.6017 
21 *762:123 *2352:A0 40 
22 *762:109 *762:138 48.5799 
23 *762:138 *762:140 1.8334 
24 *762:140 *762:148 33.9668 
25 *762:148 *762:158 29.9654 
26 *762:158 *2730:B 20 
27 *762:140 *2654:B 20 
*END

*D_NET *763 0.023842
*CONN
*I *2353:A0 I *D sg13cmos5l_mux2_1
*I *2823:A I *D sg13cmos5l_xor2_1
*I *2702:A I *D sg13cmos5l_nand4_1
*I *2676:B I *D sg13cmos5l_xnor2_1
*I *2662:S1 I *D sg13cmos5l_mux4_1
*I *2720:A I *D sg13cmos5l_nor2_1
*I *3419:A I *D sg13cmos5l_dlygate4sd3_1
*I *2800:A I *D sg13cmos5l_xnor2_1
*I *3105:Q O *D sg13cmos5l_dfrbpq_1
*CAP
1 *2353:A0 0
2 *2823:A 0
3 *2702:A 0
4 *2676:B 0
5 *2662:S1 0
6 *2720:A 0.000206898
7 *3419:A 0
8 *2800:A 0
9 *3105:Q 9.26836e-05
10 *763:105 0.0017594
11 *763:89 0.00036344
12 *763:76 0.000788364
13 *763:65 2.5134e-05
14 *763:57 0.000700066
15 *763:53 0.000419678
16 *763:38 0.000948855
17 *763:36 0.00375436
18 *763:27 0.00153862
19 *763:20 0.000621216
20 *763:12 0.00092685
21 *763:8 0.00028237
22 *2720:A *1131:30 0.000499886
23 *763:8 *1129:22 0
24 *763:12 *3237:A 0.000339349
25 *763:12 *1129:22 0.000209692
26 *763:20 *801:10 0.000660971
27 *763:20 *1103:39 0
28 *763:27 *3237:A 0.000192674
29 *763:27 *1129:22 0.000208074
30 *763:36 *3237:A 0.0020989
31 *763:36 *876:63 0.000112441
32 *763:36 *1129:22 0.000145009
33 *763:38 *1131:30 0.000159839
34 *763:38 *1145:112 0
35 *763:53 *1131:30 0
36 *763:57 *1124:34 0
37 *763:57 *1131:24 0
38 *763:105 *1096:20 0
39 *763:105 *1145:112 0
40 *2676:A *763:76 1.54556e-05
41 *2676:A *763:89 0.000194291
42 *2702:D *763:89 0.000183049
43 *2844:B *2720:A 4.77425e-05
44 *3214:A *763:12 0
45 *5:28 *763:12 0
46 *208:31 *763:57 0
47 *208:31 *763:76 0
48 *208:31 *763:89 0
49 *219:51 *763:36 0.000111476
50 *224:72 *763:105 0.00188245
51 *311:10 *763:105 0.000340288
52 *312:10 *763:105 0
53 *359:10 *763:89 0
54 *364:49 *763:76 0
55 *364:49 *763:89 0
56 *374:8 *763:38 0.000181608
57 *376:10 *763:65 7.52158e-05
58 *377:8 *763:76 0
59 *391:10 *763:76 0
60 *392:10 *763:65 7.51285e-05
61 *393:12 *763:57 0
62 *400:16 *763:53 0
63 *400:16 *763:57 0.000338662
64 *400:16 *763:76 0.000192695
65 *429:31 *763:89 0.000872269
66 *467:44 *763:20 0
67 *709:8 *763:8 0
68 *732:37 *763:20 0.0017241
69 *737:26 *763:38 0.000552831
70 *760:65 *763:38 0
71 *760:65 *763:105 0
*RES
1 *3105:Q *763:8 40.8446 
2 *763:8 *763:12 22.266 
3 *763:12 *763:20 48.549 
4 *763:20 *2800:A 20 
5 *763:12 *763:27 1.4008 
6 *763:27 *3419:A 20 
7 *763:27 *763:36 34.1625 
8 *763:36 *763:38 6.283 
9 *763:38 *2720:A 42.6471 
10 *763:38 *763:53 21.6171 
11 *763:53 *763:57 2.8634 
12 *763:57 *763:65 40.4661 
13 *763:65 *2662:S1 20 
14 *763:57 *763:76 4.4496 
15 *763:76 *2676:B 20 
16 *763:76 *763:89 45.459 
17 *763:89 *2702:A 20 
18 *763:53 *2823:A 20 
19 *763:36 *763:105 38.2207 
20 *763:105 *2353:A0 20 
*END

*D_NET *764 0.00740333
*CONN
*I *3035:RESET_B I *D sg13cmos5l_dfrbpq_1
*I *3036:L_HI O *D sg13cmos5l_tiehi
*CAP
1 *3035:RESET_B 0
2 *3036:L_HI 9.99351e-05
3 *764:14 0.00183308
4 *764:8 0.00193301
5 *764:8 *861:12 0.000144861
6 *764:14 *877:30 0.00193507
7 *764:14 *899:22 0
8 config_o[26] *764:14 0
9 *2516:A *764:8 0
10 *25:14 *764:14 0
11 *701:8 *764:14 0.00145737
*RES
1 *3036:L_HI *764:8 40.9682 
2 *764:8 *764:14 39.364 
3 *764:14 *3035:RESET_B 20 
*END

*D_NET *765 0.00181005
*CONN
*I *2527:A I *D sg13cmos5l_nor2b_1
*I *2596:C I *D sg13cmos5l_nand3_1
*I *2421:B I *D sg13cmos5l_nand2_1
*I *3440:X O *D sg13cmos5l_buf_1
*CAP
1 *2527:A 0
2 *2596:C 0.000232892
3 *2421:B 0.000172969
4 *3440:X 0
5 *765:27 0.000550702
6 *765:6 0.000490779
7 *2421:B *799:57 0
8 *2421:B *1114:16 0.000112667
9 *2596:C *799:42 0
10 *2596:C *876:28 0
11 *2596:C *1121:67 0
12 *2596:C *1130:46 0
13 *765:27 *799:42 0
14 *765:27 *799:57 0.00023464
15 *765:27 *881:8 0
16 *765:27 *1125:12 0
17 *2797:A2 *2596:C 0
18 *2797:A2 *765:27 0
19 *219:12 *765:27 0
20 *293:6 *765:27 1.54008e-05
*RES
1 *3440:X *765:6 40 
2 *765:6 *2421:B 42.0703 
3 *765:6 *765:27 23.4299 
4 *765:27 *2596:C 22.1836 
5 *765:27 *2527:A 20 
*END

*D_NET *766 0.0401069
*CONN
*I *2448:A I *D sg13cmos5l_nand2_1
*I *2613:A0 I *D sg13cmos5l_mux2_1
*I *2544:A0 I *D sg13cmos5l_mux2_1
*I *2790:A1 I *D sg13cmos5l_a22oi_1
*I *3441:X O *D sg13cmos5l_buf_1
*CAP
1 *2448:A 0
2 *2613:A0 0.000597983
3 *2544:A0 3.3181e-05
4 *2790:A1 7.4801e-05
5 *3441:X 4.72978e-05
6 *766:95 0.000546308
7 *766:63 0.00168632
8 *766:55 0.00175084
9 *766:43 0.00230514
10 *766:39 0.00489425
11 *766:16 0.00419313
12 *766:12 0.00363611
13 *766:6 0.00339617
14 *2544:A0 *1052:40 1.54008e-05
15 *2544:A0 *1137:30 0
16 *2613:A0 *2609:A0 0
17 *2613:A0 *2997:RESET_B 0
18 *2613:A0 *1033:18 0.000274769
19 *2613:A0 *1137:24 0
20 *2613:A0 *1137:30 0.000177142
21 *2613:A0 *1147:65 0
22 *2613:A0 *1147:75 0
23 *2613:A0 *1157:12 0
24 *766:12 *2902:A 0
25 *766:12 *1114:16 0.00105302
26 *766:12 *1125:8 0
27 *766:12 *1130:36 0
28 *766:12 *1147:14 0.00153905
29 *766:12 *1147:16 0
30 *766:12 *1154:16 0
31 *766:12 *1155:16 0.000209725
32 *766:12 *1155:34 0
33 *766:16 *1136:20 0
34 *766:39 *774:25 1.56704e-05
35 *766:39 *1092:16 0
36 *766:39 *1131:20 0
37 *766:43 *1129:50 0
38 *766:55 *876:86 0
39 *766:55 *1140:10 4.74263e-05
40 *766:55 *1147:46 0.000391382
41 *766:63 *2609:A0 0
42 *766:63 *1052:40 0.00128078
43 *766:63 *1136:70 0
44 *766:63 *1147:46 0.00111363
45 *766:95 *767:66 0.000234224
46 *766:95 *1136:42 0
47 *2450:B *766:95 0.000238932
48 *2545:B *766:63 4.77425e-05
49 *2786:B *766:39 0
50 *2789:A2 *766:16 0.000181192
51 *2790:B1 *766:39 0.000181694
52 *2790:B2 *2790:A1 0
53 *3169:A *766:43 0
54 *3441:A *766:12 0
55 *3452:A *766:12 0
56 *5:18 *766:63 0
57 *5:30 *766:43 0
58 *5:30 *766:55 0
59 *105:10 *766:63 0.000241259
60 *208:31 *766:39 0.00215378
61 *219:51 *766:55 0
62 *221:6 *766:95 0.000270196
63 *221:10 *766:95 7.51285e-05
64 *221:38 *766:95 0
65 *237:10 *766:95 0.000235141
66 *302:10 *2613:A0 0
67 *373:20 *766:39 0
68 *376:10 *766:39 0
69 *493:12 *766:16 0.000159511
70 *493:12 *766:39 0.00113743
71 *495:10 *766:39 0.00161522
72 *498:10 *2790:A1 0
73 *499:14 *766:12 0.00302737
74 *499:26 *2790:A1 0.000112558
75 *526:10 *766:39 0
76 *664:6 *766:43 0
77 *664:19 *766:43 0
78 *664:19 *766:55 0
79 *664:98 *766:43 0
80 *664:111 *766:43 0
81 *751:27 *766:43 0
82 *751:33 *766:39 0
83 *757:39 *766:55 0.000287256
84 *757:80 *766:39 0.000446438
85 *758:125 *766:55 0.000182313
86 *760:59 *766:39 0
87 *760:65 *766:39 0
*RES
1 *3441:X *766:6 20.5974 
2 *766:6 *766:12 36.462 
3 *766:12 *766:16 23.0694 
4 *766:16 *2790:A1 40.7519 
5 *766:16 *766:39 43.3939 
6 *766:39 *766:43 29.1876 
7 *766:43 *766:55 46.8701 
8 *766:55 *766:63 12.1849 
9 *766:63 *2544:A0 20.5356 
10 *766:63 *2613:A0 25.8916 
11 *766:43 *766:95 46.265 
12 *766:95 *2448:A 20 
*END

*D_NET *767 0.0230752
*CONN
*I *2549:A I *D sg13cmos5l_and2_1
*I *2618:A I *D sg13cmos5l_and2_1
*I *2602:A I *D sg13cmos5l_and2_1
*I *2432:A I *D sg13cmos5l_nand3_1
*I *2444:A I *D sg13cmos5l_nand3_1
*I *2450:A I *D sg13cmos5l_nand3_1
*I *2447:A I *D sg13cmos5l_nand3_1
*I *3278:A I *D sg13cmos5l_buf_1
*I *3225:X O *D sg13cmos5l_buf_1
*CAP
1 *2549:A 0.000217649
2 *2618:A 0.000569389
3 *2602:A 0.000223661
4 *2432:A 0.00010586
5 *2444:A 2.08689e-05
6 *2450:A 0
7 *2447:A 0
8 *3278:A 0.000443977
9 *3225:X 0
10 *767:97 0.00157209
11 *767:91 0.00130411
12 *767:66 0.000642124
13 *767:47 0.00121055
14 *767:37 0.00129518
15 *767:29 0.000811745
16 *767:27 0.00116724
17 *767:23 0.00164274
18 *767:6 0.000612061
19 *2432:A *1033:10 0.000112558
20 *2432:A *1129:80 0.000106064
21 *2444:A *1052:40 3.24516e-05
22 *2444:A *1136:70 4.78524e-05
23 *2549:A *2549:B 8.03692e-05
24 *2549:A *3229:A 0.000287256
25 *2549:A *1141:115 0
26 *2618:A *1106:22 0
27 *3278:A *2613:S 0
28 *3278:A *772:10 0.000128248
29 *3278:A *788:32 7.57164e-05
30 *3278:A *1068:8 0
31 *3278:A *1147:75 4.77425e-05
32 *3278:A *1157:8 0
33 *3278:A *1157:85 0
34 *767:23 *772:10 0.000129078
35 *767:23 *772:19 0.000372382
36 *767:27 *2598:A 0
37 *767:27 *2601:A0 0
38 *767:27 *3063:RESET_B 0
39 *767:27 *1033:10 0.00111502
40 *767:27 *1141:115 0.000112558
41 *767:27 *1157:61 0
42 *767:37 *1052:40 0.0006608
43 *767:37 *1129:22 0.00105265
44 *767:37 *1129:80 0.000181192
45 *767:37 *1136:70 0.0006608
46 *767:47 *876:86 0.000144151
47 *767:47 *1052:12 0
48 *767:47 *1136:54 0
49 *767:47 *1136:58 0.000129203
50 *767:47 *1136:70 0.000144151
51 *767:66 *952:22 0.000371346
52 *767:91 *3229:A 5.30319e-05
53 *767:91 *772:19 0.000872685
54 *767:91 *1107:8 0.000287758
55 *767:91 *1141:115 0
56 *2444:B *767:47 0
57 *2444:C *767:47 7.52149e-05
58 *2447:B *767:66 0.000208041
59 *2447:C *767:47 0
60 *2450:B *767:66 0
61 *2618:B *2618:A 0.000531357
62 *2931:D *767:47 4.77425e-05
63 *2933:D *767:66 0.000143358
64 *2999:CLK *767:27 0
65 *131:18 *767:97 0.000241204
66 *183:22 *767:47 0.000235055
67 *219:51 *767:47 0
68 *221:6 *767:47 0
69 *331:36 *2602:A 0.000501628
70 *331:36 *2618:A 0.000265893
71 *660:20 *767:27 0
72 *661:18 *2432:A 0.000144899
73 *727:50 *767:27 0.000112651
74 *729:20 *3278:A 0.000394443
75 *729:20 *767:23 0
76 *734:101 *767:37 0
77 *734:103 *2432:A 0.00012816
78 *734:103 *767:37 0.000767035
79 *766:95 *767:66 0.000234224
*RES
1 *3225:X *767:6 40 
2 *767:6 *3278:A 44.8925 
3 *767:6 *767:23 2.3278 
4 *767:23 *767:27 31.3506 
5 *767:27 *767:29 20 
6 *767:29 *767:37 30.2897 
7 *767:37 *767:47 45.6547 
8 *767:47 *2447:A 20 
9 *767:47 *767:66 46.386 
10 *767:66 *2450:A 20 
11 *767:37 *2444:A 20.3193 
12 *767:29 *2432:A 41.5656 
13 *767:23 *767:91 4.3054 
14 *767:91 *767:97 46.1594 
15 *767:97 *2602:A 42.3278 
16 *767:97 *2618:A 45.3354 
17 *767:91 *2549:A 42.3072 
*END

*D_NET *768 0.0239475
*CONN
*I *2537:A I *D sg13cmos5l_and2_1
*I *2535:A I *D sg13cmos5l_and2_1
*I *2547:A I *D sg13cmos5l_and2_1
*I *2539:A I *D sg13cmos5l_and2_1
*I *2608:A I *D sg13cmos5l_and2_1
*I *2604:A I *D sg13cmos5l_and2_1
*I *2616:A I *D sg13cmos5l_and2_1
*I *2600:A I *D sg13cmos5l_and2_1
*I *3226:X O *D sg13cmos5l_buf_1
*CAP
1 *2537:A 0.000959123
2 *2535:A 0.000629437
3 *2547:A 0.000225377
4 *2539:A 0
5 *2608:A 0
6 *2604:A 0.000222072
7 *2616:A 0.00040126
8 *2600:A 0
9 *3226:X 0.000312098
10 *768:85 0.00112019
11 *768:76 0.000862398
12 *768:70 0.00161161
13 *768:35 0.00122104
14 *768:29 0.000898156
15 *768:21 0.000470535
16 *768:14 0.00114135
17 *768:10 0.00156808
18 *2535:A *2538:A1 0
19 *2535:A *771:42 0.000176562
20 *2535:A *932:16 0.000638547
21 *2535:A *1027:27 0
22 *2535:A *1101:24 0.000660557
23 *2535:A *1129:115 0
24 *2535:A *1129:122 0
25 *2537:A *771:19 0.000265903
26 *2537:A *771:42 0.000340704
27 *2537:A *1041:10 0
28 *2537:A *1108:24 0
29 *2537:A *1109:20 0
30 *2547:A *2530:A1 0
31 *2547:A *2547:B 8.0216e-05
32 *2547:A *932:16 0.000874843
33 *2547:A *1101:24 0.000874342
34 *2604:A *1107:16 0.000851329
35 *2616:A *2616:B 7.41973e-05
36 *2616:A *847:14 0.000380993
37 *2616:A *1100:12 0
38 *768:10 *3226:A 0.000873513
39 *768:10 *3229:A 0.000872683
40 *768:14 *2599:A0 0
41 *768:14 *2599:A1 0.000144768
42 *768:14 *1059:10 0.000143932
43 *768:21 *3226:A 0.000587086
44 *768:21 *3229:A 0.000556151
45 *768:35 *3049:RESET_B 0.000144157
46 *768:35 *1107:16 0.000713674
47 *768:70 *3226:A 5.30319e-05
48 *768:70 *771:19 0.000128248
49 *768:76 *815:10 0
50 *768:85 *1125:58 0
51 *2535:B *2535:A 4.30144e-05
52 *2539:B *768:76 0.0001117
53 *2539:B *768:85 8.03692e-05
54 *2600:B *768:14 0
55 *2604:B *2604:A 7.94055e-05
56 *2608:B *768:29 0.000112519
57 *2615:A1 *768:35 0.000176522
58 *3051:CLK *768:14 0
59 *3164:A *768:14 0
60 *3165:A *768:76 0
61 *3394:A *2537:A 0.00012816
62 *3398:A *768:35 0
63 *3410:A *768:14 0
64 *47:6 *768:10 0
65 *47:6 *768:14 0
66 *48:12 *768:14 0
67 *49:8 *2547:A 0
68 *52:20 *2537:A 0.000240459
69 *100:12 *2535:A 0
70 *295:33 *768:85 0
71 *331:36 *2604:A 0.000876178
72 *331:36 *768:35 0.000716154
73 *332:42 *768:14 0
74 *632:8 *768:85 0
75 *658:28 *2535:A 0
76 *662:10 *2535:A 0
77 *663:12 *768:76 0
78 *663:12 *768:85 0
79 *664:254 *2535:A 0
80 *712:10 *768:76 0
81 *727:50 *2537:A 0
82 *727:50 *768:70 0
83 *727:56 *2537:A 0
84 *730:41 *768:35 0.000304878
85 *731:8 *768:35 0
86 *731:39 *768:14 0
87 *731:39 *768:29 0
88 *731:39 *768:35 0
*RES
1 *3226:X *768:10 45.2427 
2 *768:10 *768:14 30.0528 
3 *768:14 *2600:A 20 
4 *768:10 *768:21 2.8222 
5 *768:21 *768:29 22.7192 
6 *768:29 *768:35 27.7456 
7 *768:35 *2616:A 44.0608 
8 *768:35 *2604:A 44.5938 
9 *768:29 *2608:A 20 
10 *768:21 *768:70 0.8446 
11 *768:70 *768:76 25.645 
12 *768:76 *2539:A 20 
13 *768:76 *768:85 22.4823 
14 *768:85 *2547:A 44.8101 
15 *768:85 *2535:A 47.7147 
16 *768:70 *2537:A 49.5996 
*END

*D_NET *769 0.0116497
*CONN
*I *2606:A I *D sg13cmos5l_and2_1
*I *2620:A I *D sg13cmos5l_and2_1
*I *2624:A I *D sg13cmos5l_and2_1
*I *2622:A I *D sg13cmos5l_and2_1
*I *3227:X O *D sg13cmos5l_buf_1
*CAP
1 *2606:A 0.000154861
2 *2620:A 0.000139218
3 *2624:A 0.000548707
4 *2622:A 4.37077e-05
5 *3227:X 9.69515e-05
6 *769:56 0.000942965
7 *769:35 0.0013743
8 *769:24 0.000142636
9 *769:20 0.000637415
10 *769:12 0.0013617
11 *769:8 0.000743462
12 *2606:A *1114:56 0
13 *2620:A *1102:10 0
14 *2622:A *2622:B 8.00842e-05
15 *2622:A *3071:RESET_B 8.00842e-05
16 *2624:A *2622:B 0.000144308
17 *2624:A *2624:B 8.0216e-05
18 *769:8 *838:12 0.000341707
19 *769:8 *847:22 7.56299e-05
20 *769:12 *2603:A0 0.000209489
21 *769:12 *2603:S 0
22 *769:12 *1114:56 0
23 *769:20 *1031:20 8.00842e-05
24 *769:20 *1100:12 0.00124474
25 *769:24 *1100:12 0.00039332
26 *769:35 *1100:12 0.00012816
27 *769:56 *1099:14 0.000886473
28 *769:56 *1100:12 0.000394151
29 en_ros_o[1] *769:8 0
30 *2606:B *2606:A 0
31 *2606:B *769:12 0
32 *3071:D *2624:A 0.000111749
33 *3187:A *769:12 0
34 *140:8 *2620:A 0.00034079
35 *682:8 *769:12 0
36 *683:12 *2624:A 0
37 *728:36 *769:24 0.000393493
38 *728:36 *769:35 0.000106894
39 *728:36 *769:56 0.000372382
*RES
1 *3227:X *769:8 41.5862 
2 *769:8 *769:12 25.9431 
3 *769:12 *769:20 46.3242 
4 *769:20 *769:24 21.8334 
5 *769:24 *2622:A 40.5356 
6 *769:24 *769:35 0.5974 
7 *769:35 *2624:A 44.8822 
8 *769:35 *769:56 48.4254 
9 *769:56 *2620:A 41.5862 
10 *769:12 *2606:A 21.3184 
*END

*D_NET *770 0.0158354
*CONN
*I *2435:A I *D sg13cmos5l_nand3_1
*I *2461:A I *D sg13cmos5l_nand3_1
*I *2552:A I *D sg13cmos5l_and2_1
*I *2464:A I *D sg13cmos5l_nand3_1
*I *2438:A I *D sg13cmos5l_nand3_1
*I *2454:A I *D sg13cmos5l_nand3_1
*I *2429:A I *D sg13cmos5l_nand3_1
*I *2441:A I *D sg13cmos5l_nand3_1
*I *3228:X O *D sg13cmos5l_buf_1
*CAP
1 *2435:A 0.000543392
2 *2461:A 3.17045e-05
3 *2552:A 0
4 *2464:A 0.000662857
5 *2438:A 5.92151e-05
6 *2454:A 0.000407731
7 *2429:A 0.000331218
8 *2441:A 0
9 *3228:X 0
10 *770:97 0.00103752
11 *770:89 0.00173366
12 *770:74 0.0015944
13 *770:68 0.000938642
14 *770:55 0.000274289
15 *770:18 0.000445165
16 *770:16 0.000705453
17 *770:6 0.000270708
18 *2429:A *1095:42 0
19 *2435:A *2433:A 0
20 *2435:A *2440:A 0
21 *2435:A *2556:B 0
22 *2435:A *924:8 0.000143932
23 *2435:A *1094:20 0.000144
24 *2435:A *1140:87 0
25 *2454:A *771:73 4.78359e-05
26 *2454:A *1125:37 0
27 *2464:A *2463:A 0
28 *2464:A *2463:B 0.000144089
29 *770:16 *771:73 8.00842e-05
30 *770:16 *771:79 7.51285e-05
31 *770:16 *1125:37 8.00842e-05
32 *770:18 *1095:42 0
33 *770:68 *902:18 7.51285e-05
34 *770:74 *902:8 0.000209438
35 *770:74 *1095:42 0.000340375
36 *770:89 *1095:42 0.00133161
37 *770:97 *2434:B 0
38 *770:97 *2567:A0 0.000241089
39 *770:97 *957:8 0
40 *770:97 *1139:138 0
41 *2429:B *2429:A 4.78028e-05
42 *2435:B *2435:A 1.54556e-05
43 *2441:B *2454:A 0.000337693
44 *2456:A *2429:A 2.56334e-05
45 *2461:B *770:89 0
46 *2464:C *2464:A 0
47 *3258:A *2429:A 0.00034079
48 *3288:A *2464:A 0
49 *66:10 *2429:A 7.52158e-05
50 *68:12 *2435:A 0
51 *222:12 *770:16 0.000287256
52 *306:35 *2429:A 0
53 *306:35 *770:16 0.000552415
54 *306:35 *770:18 0.000341205
55 *306:35 *770:55 0.000287672
56 *306:35 *770:68 0.000447598
57 *309:10 *2435:A 0
58 *625:14 *2464:A 0
59 *633:16 *770:89 0
60 *633:16 *770:97 0
61 *634:29 *770:97 7.99147e-05
62 *634:31 *770:97 0
63 *635:27 *2464:A 0.00104799
64 *657:26 *2464:A 0
65 *664:188 *2435:A 0
66 *664:190 *2435:A 0
67 *664:230 *2435:A 0
68 *677:20 *770:55 0
69 *677:20 *770:68 0
70 *734:107 *2461:A 0
71 *734:107 *770:89 0
72 *758:141 *2435:A 0
*RES
1 *3228:X *770:6 40 
2 *770:6 *770:16 43.2136 
3 *770:16 *770:18 1.5862 
4 *770:18 *2441:A 40 
5 *770:18 *2429:A 43.9552 
6 *770:16 *2454:A 43.9964 
7 *770:6 *770:55 1.339 
8 *770:55 *2438:A 40.5356 
9 *770:55 *770:68 22.0806 
10 *770:68 *770:74 22.987 
11 *770:74 *2464:A 47.0246 
12 *770:74 *770:89 27.4675 
13 *770:89 *770:97 48.6417 
14 *770:97 *2552:A 20 
15 *770:89 *2461:A 20.3193 
16 *770:68 *2435:A 25.9122 
*END

*D_NET *771 0.028993
*CONN
*I *2554:A I *D sg13cmos5l_and2_1
*I *2568:A I *D sg13cmos5l_and2_1
*I *3228:A I *D sg13cmos5l_buf_1
*I *2556:A I *D sg13cmos5l_and2_1
*I *3227:A I *D sg13cmos5l_buf_1
*I *3226:A I *D sg13cmos5l_buf_1
*I *3229:X O *D sg13cmos5l_buf_1
*CAP
1 *2554:A 0
2 *2568:A 0
3 *3228:A 0
4 *2556:A 0
5 *3227:A 0.000548324
6 *3226:A 0.000491248
7 *3229:X 0
8 *771:110 0.000403994
9 *771:102 0.00119237
10 *771:94 0.00259711
11 *771:79 0.00019264
12 *771:73 0.000851587
13 *771:58 0.000207227
14 *771:50 0.00132297
15 *771:44 0.00226553
16 *771:42 0.00100682
17 *771:27 0.00134002
18 *771:19 0.00187131
19 *771:6 0.000564047
20 *3226:A *3051:RESET_B 0
21 *3226:A *1141:115 0.00162698
22 *3227:A *2603:S 0
23 *3227:A *847:22 0
24 *3227:A *1108:20 0.000466681
25 *771:19 *1141:115 0.00037308
26 *771:27 *847:14 0.000144768
27 *771:27 *1045:10 7.52149e-05
28 *771:42 *2538:A1 0
29 *771:42 *2607:A0 4.79124e-05
30 *771:42 *847:14 0
31 *771:42 *1114:56 0.000596799
32 *771:42 *1125:66 0.000175728
33 *771:42 *1141:115 0.00031912
34 *771:50 *1125:58 0.00053303
35 *771:58 *2556:B 1.65559e-05
36 *771:58 *906:8 0
37 *771:58 *1103:41 0.00050063
38 *771:58 *1103:64 0.000318607
39 *771:58 *1129:130 0.000500631
40 *771:73 *1103:41 0
41 *771:73 *1125:37 0.000368863
42 *771:73 *1125:58 0.000143932
43 *771:94 *808:14 0
44 *771:94 *810:16 0
45 *771:94 *813:14 0.000144861
46 *771:94 *932:16 0
47 *771:94 *1047:8 0
48 *771:94 *1087:12 0
49 *771:94 *1101:24 0
50 *771:110 *2568:B 8.00842e-05
51 *771:110 *795:10 0
52 *771:110 *1139:138 0
53 config_o[1] *771:94 0.000538173
54 config_o[2] *771:102 0.000599262
55 config_o[5] *771:102 0
56 config_o[6] *771:110 0
57 sel_load_src_o[5] *771:94 0
58 sel_load_src_o[5] *771:102 0
59 *2441:C *771:73 0
60 *2454:A *771:73 4.78359e-05
61 *2535:A *771:42 0.000176562
62 *2537:A *771:19 0.000265903
63 *2537:A *771:42 0.000340704
64 *2554:B *771:94 0
65 *2607:S *771:42 0.000112536
66 *2608:B *771:27 0
67 *2929:CLK *771:79 0.000181192
68 *3057:D *771:42 0.000112536
69 *3192:A *771:94 0
70 *3398:A *771:27 0
71 *47:6 *3226:A 0
72 *49:14 *771:50 0.000501045
73 *49:14 *771:94 0.00212916
74 *134:12 *771:27 0
75 *295:33 *771:42 0
76 *654:8 *771:94 0
77 *658:18 *771:94 0
78 *662:10 *771:50 0
79 *662:27 *771:73 0
80 *678:8 *771:94 0
81 *684:23 *771:50 0.000533536
82 *684:23 *771:73 0.00012863
83 *713:12 *3227:A 0.000240196
84 *728:36 *771:27 0
85 *734:103 *771:58 0
86 *768:10 *3226:A 0.000873513
87 *768:21 *3226:A 0.000587086
88 *768:70 *3226:A 5.30319e-05
89 *768:70 *771:19 0.000128248
90 *770:16 *771:73 8.00842e-05
91 *770:16 *771:79 7.51285e-05
*RES
1 *3229:X *771:6 40 
2 *771:6 *3226:A 48.9198 
3 *771:6 *771:19 1.8334 
4 *771:19 *771:27 46.5714 
5 *771:27 *3227:A 45.2942 
6 *771:19 *771:42 30.9901 
7 *771:42 *771:44 20 
8 *771:44 *771:50 25.8916 
9 *771:50 *771:58 43.9217 
10 *771:58 *2556:A 20 
11 *771:50 *771:73 46.4581 
12 *771:73 *771:79 41.8334 
13 *771:79 *3228:A 20 
14 *771:44 *771:94 40.9296 
15 *771:94 *771:102 48.4563 
16 *771:102 *771:110 43.6977 
17 *771:110 *2568:A 20 
18 *771:94 *2554:A 20 
*END

*D_NET *772 0.0146919
*CONN
*I *3229:A I *D sg13cmos5l_buf_1
*I *2457:A I *D sg13cmos5l_nand3_1
*I *2558:A I *D sg13cmos5l_and2_1
*I *3225:A I *D sg13cmos5l_buf_1
*I *3230:X O *D sg13cmos5l_buf_1
*CAP
1 *3229:A 0.000779741
2 *2457:A 0
3 *2558:A 0.00035206
4 *3225:A 0
5 *3230:X 7.46099e-05
6 *772:27 0.000467418
7 *772:23 0.0026077
8 *772:19 0.00367746
9 *772:10 0.000479985
10 *2558:A *1135:80 0.000111596
11 *3229:A *1141:115 0
12 *772:10 *3063:RESET_B 4.77425e-05
13 *772:10 *1068:8 0.000235141
14 *772:10 *1147:75 0
15 *772:19 *1068:8 0.000235228
16 *772:19 *1141:94 0
17 *772:23 *1129:90 0.00104736
18 *2549:A *3229:A 0.000287256
19 *3278:A *772:10 0.000128248
20 *221:10 *772:27 0.000500215
21 *224:52 *772:27 0.000340704
22 *244:8 *2558:A 0.000287672
23 *663:37 *2558:A 0.000175721
24 *712:10 *3229:A 0
25 *712:14 *3229:A 0
26 *727:50 *3229:A 0
27 *727:50 *772:19 0
28 *767:23 *772:10 0.000129078
29 *767:23 *772:19 0.000372382
30 *767:91 *3229:A 5.30319e-05
31 *767:91 *772:19 0.000872685
32 *768:10 *3229:A 0.000872683
33 *768:21 *3229:A 0.000556151
*RES
1 *3230:X *772:10 41.4111 
2 *772:10 *3225:A 40 
3 *772:10 *772:19 5.7886 
4 *772:19 *772:23 41.5167 
5 *772:23 *772:27 22.3278 
6 *772:27 *2558:A 43.6874 
7 *772:27 *2457:A 40 
8 *772:19 *3229:A 49.4966 
*END

*D_NET *773 0.0198922
*CONN
*I *2496:A I *D sg13cmos5l_nand3_1
*I *2575:A I *D sg13cmos5l_and2_1
*I *2502:A I *D sg13cmos5l_nand3_1
*I *2499:A I *D sg13cmos5l_nand3_1
*I *2526:A I *D sg13cmos5l_nand3_1
*I *2523:A I *D sg13cmos5l_nand3_1
*I *2593:A I *D sg13cmos5l_and2_1
*I *2577:A I *D sg13cmos5l_and2_1
*I *3231:X O *D sg13cmos5l_buf_1
*CAP
1 *2496:A 0.000862116
2 *2575:A 2.63987e-05
3 *2502:A 0.000151448
4 *2499:A 0.000264627
5 *2526:A 0.000327016
6 *2523:A 0
7 *2593:A 0
8 *2577:A 0
9 *3231:X 4.7542e-05
10 *773:118 0.000936355
11 *773:107 0.00061173
12 *773:78 0.00110493
13 *773:65 0.00010084
14 *773:57 0.000843376
15 *773:42 0.000356248
16 *773:28 0.00139404
17 *773:24 0.00149835
18 *773:22 0.000425184
19 *773:20 0.0011447
20 *773:10 0.00144308
21 *773:8 0.000493744
22 *2496:A *2474:A 0.000128355
23 *2496:A *937:10 0.000160758
24 *2496:A *988:14 0
25 *2502:A *2501:A 0
26 *2502:A *2575:B 0
27 *2526:A *2595:B 0.000209413
28 *2526:A *780:64 0
29 *2575:A *2575:B 4.75212e-05
30 *773:10 *988:14 0.00012816
31 *773:20 *3465:A 0
32 *773:20 *857:10 0
33 *773:20 *954:14 4.79124e-05
34 *773:20 *965:10 0
35 *773:20 *988:14 0.000181192
36 *773:42 *901:22 0.000128247
37 *773:57 *2981:D 0
38 *773:57 *3029:RESET_B 0
39 *773:65 *2593:B 4.75166e-05
40 *773:65 *896:14 0.000341216
41 *773:78 *2592:A1 0
42 *773:78 *784:10 0
43 *773:107 *2474:A 0.000609161
44 *773:107 *857:10 0
45 *773:107 *988:14 0
46 *773:118 *2474:A 0.000182121
47 *2368:A0 *773:20 8.00842e-05
48 *2368:A1 *773:20 0.000466191
49 *2496:C *2496:A 0.000713675
50 *2497:A *773:20 0.000231341
51 *2499:B *2499:A 0.000465932
52 *2502:B *2502:A 1.54008e-05
53 *2592:A0 *773:24 0
54 *2592:A0 *773:28 0
55 *2963:CLK *2496:A 0.000175752
56 *3250:A *773:8 7.92265e-05
57 *3307:A *773:78 0
58 *3373:A *773:42 0
59 *18:14 *773:20 0
60 *19:8 *773:20 8.01174e-05
61 *25:14 *773:24 0
62 *25:14 *773:28 0
63 *27:10 *773:65 0.000340288
64 *29:16 *773:57 0.000181279
65 *119:8 *2496:A 0
66 *129:14 *2526:A 0.000209413
67 *225:53 *773:57 0
68 *285:22 *773:78 9.55398e-05
69 *290:22 *773:42 0
70 *290:22 *773:57 0.000787833
71 *291:12 *773:57 0.000181192
72 *294:52 *2499:A 0.000465932
73 *294:52 *773:8 7.92265e-05
74 *294:52 *773:20 0
75 *294:59 *773:20 0
76 *294:71 *773:20 0
77 *294:71 *773:78 0
78 *294:86 *773:28 0
79 *294:86 *773:42 4.79124e-05
80 *317:8 *773:78 0
81 *320:12 *773:42 0.000102126
82 *623:8 *773:78 0
83 *655:12 *773:78 8.01609e-05
84 *655:25 *773:78 0.000160112
85 *667:8 *773:42 0
86 *667:16 *773:42 0.000111876
87 *695:38 *773:28 0.000128576
88 *753:46 *773:20 0
89 *753:46 *773:78 0.000369733
*RES
1 *3231:X *773:8 40.5356 
2 *773:8 *773:10 0.5974 
3 *773:10 *773:20 31.1652 
4 *773:20 *773:22 20 
5 *773:22 *773:24 0.8446 
6 *773:24 *773:28 22.8222 
7 *773:28 *773:42 43.6668 
8 *773:42 *2577:A 20 
9 *773:28 *773:57 47.3233 
10 *773:57 *773:65 41.9055 
11 *773:65 *2593:A 20 
12 *773:24 *773:78 30.7532 
13 *773:78 *2523:A 20 
14 *773:22 *2526:A 43.2342 
15 *773:10 *2499:A 43.1312 
16 *773:8 *773:107 4.8719 
17 *773:107 *2502:A 41.1845 
18 *773:107 *773:118 0.8446 
19 *773:118 *2575:A 40.3193 
20 *773:118 *2496:A 48.6417 
*END

*D_NET *774 0.013849
*CONN
*I *2827:A I *D sg13cmos5l_and2_1
*I *2473:A I *D sg13cmos5l_nand3_1
*I *3231:A I *D sg13cmos5l_buf_1
*I *2476:A I *D sg13cmos5l_nand3_1
*I *2470:A I *D sg13cmos5l_nand3_1
*I *2562:A I *D sg13cmos5l_and2_1
*I *2560:A I *D sg13cmos5l_and2_1
*I *2871:A I *D sg13cmos5l_and2_1
*I *3232:X O *D sg13cmos5l_buf_1
*CAP
1 *2827:A 0
2 *2473:A 0
3 *3231:A 0.000902898
4 *2476:A 0
5 *2470:A 0
6 *2562:A 4.24304e-05
7 *2560:A 3.32921e-05
8 *2871:A 0.000383038
9 *3232:X 2.77263e-05
10 *774:70 0.00101006
11 *774:64 0.000666546
12 *774:49 0.00109771
13 *774:40 0.000927742
14 *774:25 0.00141718
15 *774:17 0.00115653
16 *774:6 0.000530395
17 *2560:A *2560:B 4.77534e-05
18 *2562:A *2562:B 8.02267e-05
19 *2871:A *780:8 0
20 *2871:A *780:23 0
21 *2871:A *1010:36 0
22 *3231:A *2474:B 0.000709635
23 *3231:A *1128:55 4.77425e-05
24 *774:17 *780:8 0
25 *774:25 *780:8 0
26 *774:40 *2472:A 0
27 *774:49 *2562:B 1.54008e-05
28 *2358:A0 *774:64 0.000287672
29 *2358:S *3231:A 0
30 *2661:A *774:25 0
31 *2661:B *2871:A 0
32 *2661:B *774:17 0
33 *2661:B *774:25 0
34 *2827:B *774:25 0.000176605
35 *2965:CLK *774:64 0.000338289
36 *3250:A *3231:A 0.00140169
37 *112:8 *774:25 0
38 *113:12 *774:49 0
39 *224:72 *774:40 0
40 *258:14 *2562:A 8.02267e-05
41 *258:14 *774:49 0.000904946
42 *258:14 *774:64 3.23965e-05
43 *294:52 *774:64 0
44 *311:10 *2560:A 0
45 *637:18 *774:40 0.000340704
46 *680:22 *774:49 0.000596689
47 *680:22 *774:64 4.78521e-05
48 *690:38 *774:64 0.000242236
49 *736:80 *774:70 0.000287672
50 *741:109 *2871:A 0
51 *751:27 *774:25 0
52 *751:33 *774:25 0
53 *760:65 *774:25 0
54 *760:65 *774:40 0
55 *766:39 *774:25 1.56704e-05
*RES
1 *3232:X *774:6 20.3502 
2 *774:6 *2871:A 23.7286 
3 *774:6 *774:17 0.9682 
4 *774:17 *774:25 30.7841 
5 *774:25 *2560:A 40.3193 
6 *774:25 *774:40 23.8831 
7 *774:40 *2562:A 20.5356 
8 *774:40 *774:49 6.1594 
9 *774:49 *2470:A 20 
10 *774:49 *774:64 45.9328 
11 *774:64 *774:70 41.339 
12 *774:70 *2476:A 20 
13 *774:70 *3231:A 29.8365 
14 *774:64 *2473:A 20 
15 *774:17 *2827:A 20 
*END

*D_NET *775 0.0202277
*CONN
*I *2479:A I *D sg13cmos5l_nand3_1
*I *2486:A I *D sg13cmos5l_nand3_1
*I *2514:A I *D sg13cmos5l_nand3_1
*I *2489:A I *D sg13cmos5l_nand3_1
*I *2564:A I *D sg13cmos5l_and2_1
*I *2467:A I *D sg13cmos5l_nand3_1
*I *2482:A I *D sg13cmos5l_nand3_1
*I *2566:A I *D sg13cmos5l_and2_1
*I *3233:X O *D sg13cmos5l_buf_1
*CAP
1 *2479:A 0.000157727
2 *2486:A 0.000215424
3 *2514:A 0
4 *2489:A 8.31202e-05
5 *2564:A 0.000509843
6 *2467:A 2.72969e-05
7 *2482:A 0.000563806
8 *2566:A 0.000147288
9 *3233:X 0.000599525
10 *775:93 0.000423032
11 *775:87 0.0012994
12 *775:72 0.00179441
13 *775:61 0.00143797
14 *775:57 0.000713656
15 *775:38 0.000511969
16 *775:16 0.00112343
17 *775:10 0.00124923
18 *2467:A *3233:A 0
19 *2479:A *3017:RESET_B 7.84876e-05
20 *2486:A *1013:10 0.000177032
21 *775:10 *2565:S 0
22 *775:10 *3233:A 0
23 *775:10 *797:10 0.000272955
24 *775:16 *3236:A 0
25 *775:16 *779:8 0
26 *775:16 *854:14 0
27 *775:38 *779:23 0
28 *775:38 *921:12 0.000129077
29 *775:57 *3017:RESET_B 0.00014445
30 *775:57 *921:12 0.000288087
31 *775:61 *779:23 0
32 *775:61 *854:14 0.00076662
33 *775:72 *779:23 0
34 *775:72 *854:14 0.00167356
35 *775:72 *921:12 0
36 *775:87 *2586:S 0.000403795
37 *775:87 *854:14 0.00076579
38 *775:87 *919:14 0
39 *775:87 *1013:10 0
40 *775:87 *1134:82 0.000208982
41 *2357:A0 *2482:A 0.000596856
42 *2357:A1 *2482:A 0.000306903
43 *2357:A1 *2566:A 4.77425e-05
44 *2357:A1 *775:16 7.51285e-05
45 *2357:S *2482:A 0
46 *2364:A0 *2486:A 0
47 *2373:A0 *775:87 0
48 *2373:A1 *775:87 0.000112535
49 *2479:B *2479:A 0
50 *2486:B *2486:A 0
51 *2489:B *2489:A 0.000112558
52 *2489:B *775:72 7.51285e-05
53 *2489:B *775:87 0.000744194
54 *2495:A *2482:A 0.000435204
55 *2586:A0 *775:87 0
56 *2945:D *2479:A 8.01612e-05
57 *3017:CLK *2564:A 0
58 *3023:D *2489:A 0.000144582
59 *3285:A *2486:A 0
60 *3326:A *2486:A 0
61 *3395:A *2564:A 0
62 *18:24 *775:93 0
63 *20:24 *775:87 0.000176786
64 *82:12 *2479:A 0
65 *241:37 *2564:A 0
66 *251:30 *2467:A 1.54008e-05
67 *251:36 *775:38 7.52149e-05
68 *251:36 *775:57 0.00012816
69 *260:10 *2467:A 4.77425e-05
70 *262:10 *2482:A 9.72884e-05
71 *262:10 *2566:A 0.000175699
72 *267:12 *2564:A 1.54449e-05
73 *283:22 *775:87 0
74 *325:10 *775:87 0
75 *609:51 *775:93 0
76 *635:27 *2564:A 0.000790949
77 *640:30 *2479:A 6.34045e-05
78 *640:30 *775:57 0.000144659
79 *664:164 *2564:A 0
80 *668:12 *775:10 0
81 *751:48 *775:16 0
82 *751:48 *775:38 0
83 *751:48 *775:57 0
84 *762:117 *775:16 0
85 *762:123 *2566:A 0
*RES
1 *3233:X *775:10 45.6444 
2 *775:10 *775:16 24.1303 
3 *775:16 *2566:A 21.5347 
4 *775:16 *2482:A 26.3757 
5 *775:10 *775:38 2.7501 
6 *775:38 *2467:A 40.3193 
7 *775:38 *775:57 23.4711 
8 *775:57 *775:61 23.5638 
9 *775:61 *2564:A 45.2942 
10 *775:61 *775:72 7.7662 
11 *775:72 *2489:A 40.9682 
12 *775:72 *775:87 32.7514 
13 *775:87 *775:93 41.8334 
14 *775:93 *2514:A 20 
15 *775:93 *2486:A 22.1836 
16 *775:57 *2479:A 21.751 
*END

*D_NET *776 0.0206541
*CONN
*I *2493:A I *D sg13cmos5l_nand3_1
*I *2517:A I *D sg13cmos5l_nand3_1
*I *2583:A I *D sg13cmos5l_and2_1
*I *2591:A I *D sg13cmos5l_and2_1
*I *2520:A I *D sg13cmos5l_nand3_1
*I *2508:A I *D sg13cmos5l_nand3_1
*I *2505:A I *D sg13cmos5l_nand3_1
*I *2511:A I *D sg13cmos5l_nand3_1
*I *3234:X O *D sg13cmos5l_buf_1
*CAP
1 *2493:A 0
2 *2517:A 0
3 *2583:A 0
4 *2591:A 0
5 *2520:A 0.000192187
6 *2508:A 0
7 *2505:A 0.000395762
8 *2511:A 0.000116592
9 *3234:X 0.000310461
10 *776:114 0.00105802
11 *776:77 0.000336846
12 *776:73 0.000718741
13 *776:71 0.00206499
14 *776:67 0.00086769
15 *776:54 0.000410198
16 *776:46 0.00103061
17 *776:42 0.000344001
18 *776:25 0.00168225
19 *776:12 0.00155514
20 *2505:A *888:26 0
21 *2505:A *988:14 0
22 *2511:A *3234:A 0
23 *2511:A *910:12 0
24 *2520:A *2591:B 0
25 *2520:A *1134:14 0
26 *2520:A *1138:116 0.000176075
27 *776:12 *3234:A 0
28 *776:12 *927:8 0.000143171
29 *776:25 *966:8 0.000607109
30 *776:25 *988:14 0
31 *776:42 *948:18 0.000110936
32 *776:54 *848:12 0
33 *776:54 *852:10 0.000289113
34 *776:67 *948:51 0
35 *776:71 *915:20 0.000790835
36 *776:73 *850:8 0
37 *776:73 *888:30 0
38 *776:77 *850:8 0
39 *776:114 *2492:B 0
40 *776:114 *2977:RESET_B 0.000208063
41 *776:114 *2977:D 0
42 *776:114 *888:30 0
43 *776:114 *915:20 0
44 *776:114 *1038:10 0.000144833
45 *776:114 *1127:87 0
46 config_o[24] *776:67 0.000234224
47 config_o[26] *776:77 0
48 *2371:S *776:67 0.000209093
49 *2508:B *776:54 0
50 *2969:CLK *776:25 0
51 *3282:A *776:25 0.00111943
52 *3299:A *776:114 0
53 *3311:A *776:46 0.000143171
54 *3311:A *776:67 0.000595522
55 *3391:A *776:114 0
56 *90:12 *2505:A 0.000712342
57 *126:14 *776:114 0.000181608
58 *241:56 *2505:A 0.000448401
59 *268:14 *776:12 0.000305766
60 *268:20 *776:25 0
61 *268:20 *776:42 8.0216e-05
62 *270:22 *776:71 0.000790835
63 *277:22 *2505:A 0.00011215
64 *277:22 *776:54 0
65 *282:32 *2511:A 0
66 *282:32 *776:25 0
67 *286:18 *776:114 8.0216e-05
68 *616:10 *776:25 0.000714297
69 *635:44 *2505:A 0
70 *635:44 *776:25 0
71 *664:331 *776:54 0
72 *664:335 *776:54 0
73 *749:56 *776:73 0.000926217
74 *749:56 *776:77 0.00044694
75 *752:46 *776:73 0
*RES
1 *3234:X *776:12 23.2703 
2 *776:12 *2511:A 21.1021 
3 *776:12 *776:25 32.7102 
4 *776:25 *2505:A 45.0573 
5 *776:25 *776:42 21.5347 
6 *776:42 *776:46 1.751 
7 *776:46 *776:54 43.5432 
8 *776:54 *2508:A 20 
9 *776:46 *776:67 45.0882 
10 *776:67 *776:71 25.2942 
11 *776:71 *776:73 6.5302 
12 *776:73 *776:77 22.0806 
13 *776:77 *2520:A 21.9982 
14 *776:77 *2591:A 20 
15 *776:73 *2583:A 40 
16 *776:71 *776:114 30.0528 
17 *776:114 *2517:A 20 
18 *776:42 *2493:A 20 
*END

*D_NET *777 0.000567675
*CONN
*I *2378:B_N I *D sg13cmos5l_nor2b_1
*I *3442:X O *D sg13cmos5l_buf_1
*CAP
1 *2378:B_N 0
2 *3442:X 0.000283838
3 *777:10 0.000283838
4 *777:10 *968:8 0
5 *2420:A *777:10 0
*RES
1 *3442:X *777:10 43.3578 
2 *777:10 *2378:B_N 40 
*END

*D_NET *778 0.0209844
*CONN
*I *2589:A I *D sg13cmos5l_and2_1
*I *2573:A I *D sg13cmos5l_and2_1
*I *2581:A I *D sg13cmos5l_and2_1
*I *2585:A I *D sg13cmos5l_and2_1
*I *3235:X O *D sg13cmos5l_buf_1
*CAP
1 *2589:A 7.92034e-05
2 *2573:A 3.33203e-05
3 *2581:A 0
4 *2585:A 0
5 *3235:X 0.0002326
6 *778:79 0.000372418
7 *778:57 5.00717e-05
8 *778:51 0.00122599
9 *778:45 0.00194252
10 *778:35 0.00233437
11 *778:31 0.00287459
12 *778:20 0.000279838
13 *778:14 0.0017102
14 *778:10 0.000616034
15 *2573:A *1127:68 4.77702e-05
16 *2589:A *910:22 0.00011184
17 *778:10 *3234:A 8.00327e-05
18 *778:10 *1127:116 7.90445e-05
19 *778:35 *899:26 0
20 *778:35 *1038:10 0.000500717
21 *778:45 *899:26 0
22 *778:51 *888:10 0
23 *778:51 *899:22 0
24 *778:57 *1134:110 0.000235971
25 config_o[19] *778:10 0
26 config_o[21] *778:14 0.000404663
27 config_o[23] *778:20 0
28 config_o[25] *778:51 0.000287256
29 config_o[27] *778:31 0
30 config_o[27] *778:35 0
31 config_o[28] *778:31 0
32 config_o[28] *778:35 0
33 config_o[29] *778:79 0.000234311
34 *2374:A0 *778:35 0
35 *2516:B *2589:A 0
36 *2590:A0 *778:45 0.000659557
37 *13:12 *778:14 0
38 *13:12 *778:31 0
39 *15:16 *778:14 0.000663945
40 *15:16 *778:31 0.000616
41 *15:16 *778:79 0.000370859
42 *19:10 *778:20 0
43 *122:8 *778:57 0.000182525
44 *251:22 *778:51 0.000401201
45 *277:22 *778:45 0.000659513
46 *280:18 *778:51 0
47 *323:12 *778:51 0.000464365
48 *620:8 *778:35 0.000978834
49 *640:51 *778:51 0.000240926
50 *645:10 *778:51 0.000175513
51 *645:28 *778:51 0.000981538
52 *670:12 *778:51 0.000144089
53 *752:46 *778:35 0
54 *752:46 *778:45 0
55 *753:52 *778:45 0.000712759
*RES
1 *3235:X *778:10 42.369 
2 *778:10 *778:14 24.429 
3 *778:14 *778:20 42.0806 
4 *778:20 *2585:A 20 
5 *778:14 *778:31 30.094 
6 *778:31 *778:35 14.9453 
7 *778:35 *778:45 49.0537 
8 *778:45 *778:51 32.6896 
9 *778:51 *778:57 41.0918 
10 *778:57 *2581:A 20 
11 *778:35 *2573:A 40.3193 
12 *778:31 *778:79 43.5741 
13 *778:79 *2589:A 40.7519 
*END

*D_NET *779 0.0182627
*CONN
*I *2570:A I *D sg13cmos5l_and2_1
*I *3235:A I *D sg13cmos5l_buf_1
*I *3234:A I *D sg13cmos5l_buf_1
*I *2587:A I *D sg13cmos5l_and2_1
*I *3233:A I *D sg13cmos5l_buf_1
*I *3236:X O *D sg13cmos5l_buf_1
*CAP
1 *2570:A 0
2 *3235:A 0.000300343
3 *3234:A 0.000757867
4 *2587:A 0
5 *3233:A 0.000591416
6 *3236:X 0.000128957
7 *779:78 0.000116502
8 *779:46 0.0017739
9 *779:35 0.00010339
10 *779:27 0.00176702
11 *779:23 0.002389
12 *779:8 0.00204493
13 *3234:A *1127:116 0.000402278
14 *3235:A *1127:116 0.000369826
15 *779:8 *854:14 0
16 *779:23 *854:14 0
17 *779:23 *921:12 0.00268507
18 *779:27 *877:18 0.0002736
19 *779:35 *948:10 4.77425e-05
20 *779:35 *1013:16 4.77425e-05
21 *779:35 *1138:74 0.00039332
22 *779:46 *877:18 0.000160112
23 *779:46 *1013:16 0.00166941
24 *779:78 *854:14 0
25 config_o[19] *779:46 0
26 *2364:A1 *779:46 0.000159183
27 *2467:A *3233:A 0
28 *2511:A *3234:A 0
29 *3019:CLK *3233:A 0.000630506
30 *3023:D *779:23 0
31 *3039:CLK *779:27 0
32 *3204:A *779:23 0
33 *3205:A *779:23 0
34 *3205:A *779:27 0
35 *3310:A *779:27 8.02598e-05
36 *3383:A *779:23 0
37 *3383:A *779:27 0
38 *14:12 *3235:A 0
39 *16:26 *779:27 0
40 *18:24 *3235:A 0
41 *251:30 *3233:A 0
42 *260:10 *3233:A 0
43 *263:43 *3233:A 0.000370376
44 *265:28 *3234:A 8.02269e-05
45 *265:28 *779:46 0
46 *268:14 *3234:A 0
47 *269:47 *779:78 0
48 *278:14 *779:35 0.00039332
49 *609:39 *779:46 0
50 *609:51 *779:46 0
51 *641:18 *779:46 0.000446352
52 *668:12 *3233:A 0
53 *700:10 *779:27 0
54 *775:10 *3233:A 0
55 *775:16 *779:8 0
56 *775:38 *779:23 0
57 *775:61 *779:23 0
58 *775:72 *779:23 0
59 *776:12 *3234:A 0
60 *778:10 *3234:A 8.00327e-05
*RES
1 *3236:X *779:8 41.0918 
2 *779:8 *3233:A 46.3757 
3 *779:8 *779:23 35.2234 
4 *779:23 *779:27 8.2709 
5 *779:27 *779:35 42.1527 
6 *779:35 *2587:A 20 
7 *779:27 *779:46 29.9395 
8 *779:46 *3234:A 47.1791 
9 *779:46 *3235:A 43.0797 
10 *779:23 *779:78 41.339 
11 *779:78 *2570:A 20 
*END

*D_NET *780 0.0168156
*CONN
*I *3236:A I *D sg13cmos5l_buf_1
*I *2595:A I *D sg13cmos5l_and2_1
*I *2579:A I *D sg13cmos5l_and2_1
*I *3232:A I *D sg13cmos5l_buf_1
*I *3237:X O *D sg13cmos5l_buf_1
*CAP
1 *3236:A 0.000330747
2 *2595:A 0
3 *2579:A 6.50223e-05
4 *3232:A 0
5 *3237:X 0.000398834
6 *780:64 0.000842287
7 *780:45 0.00329092
8 *780:23 0.00444583
9 *780:8 0.0021303
10 *2579:A *2579:B 8.00842e-05
11 *2579:A *2963:RESET_B 2.21754e-05
12 *3236:A *797:10 0
13 *780:8 *1010:36 0
14 *780:8 *1129:50 0
15 *780:23 *1010:36 0
16 *780:45 *2495:B 4.77534e-05
17 *780:45 *2963:RESET_B 0.000106442
18 *780:45 *789:14 0
19 *780:45 *943:14 0
20 *780:45 *1040:10 0.000272538
21 *780:64 *2579:B 1.54008e-05
22 *780:64 *901:26 0.000181192
23 *780:64 *1019:10 0.00039332
24 config_o[25] *780:64 0
25 *2357:A1 *3236:A 0
26 *2357:A1 *780:23 0
27 *2358:A0 *780:23 0
28 *2369:S *780:45 1.54008e-05
29 *2369:S *780:64 0
30 *2495:A *780:45 7.21305e-05
31 *2526:A *780:64 0
32 *2578:A0 *780:45 0
33 *2827:B *780:8 0.000241313
34 *2871:A *780:8 0
35 *2871:A *780:23 0
36 *2951:CLK *780:45 0.000273562
37 *3115:D *780:8 0
38 *3131:D *780:8 0
39 *3293:A *780:45 0
40 *3300:A *780:45 0.000660197
41 *21:18 *780:45 8.00842e-05
42 *25:14 *780:64 0
43 *79:8 *780:23 0
44 *113:12 *780:23 0
45 *262:10 *780:45 0.000856479
46 *263:14 *780:23 0
47 *272:10 *780:45 0
48 *636:38 *780:23 0
49 *636:42 *780:45 0.00105058
50 *638:8 *3236:A 0.000767035
51 *638:8 *780:23 0.00012816
52 *668:12 *3236:A 4.78356e-05
53 *689:48 *780:23 0
54 *691:28 *780:45 0
55 *737:10 *780:23 0
56 *737:18 *780:23 0
57 *762:117 *780:23 0
58 *774:17 *780:8 0
59 *774:25 *780:8 0
60 *775:16 *3236:A 0
*RES
1 *3237:X *780:8 23.4476 
2 *780:8 *3232:A 20 
3 *780:8 *780:23 36.4441 
4 *780:23 *780:45 44.4522 
5 *780:45 *2579:A 20.8858 
6 *780:45 *780:64 48.4666 
7 *780:64 *2595:A 20 
8 *780:23 *3236:A 44.3775 
*END

*D_NET *781 0.0015579
*CONN
*I *3095:RESET_B I *D sg13cmos5l_dfrbpq_1
*I *3096:L_HI O *D sg13cmos5l_tiehi
*CAP
1 *3095:RESET_B 0.000448447
2 *3096:L_HI 0.000448447
3 *3095:RESET_B *2760:A 0
4 *3095:RESET_B *2856:B 0
5 *3095:RESET_B *1077:12 0
6 *3095:RESET_B *1156:31 0
7 *209:33 *3095:RESET_B 0.000661009
8 *473:10 *3095:RESET_B 0
*RES
1 *3096:L_HI *3095:RESET_B 44.429 
*END

*D_NET *782 0.00670216
*CONN
*I *3033:RESET_B I *D sg13cmos5l_dfrbpq_1
*I *3034:L_HI O *D sg13cmos5l_tiehi
*CAP
1 *3033:RESET_B 0.00101542
2 *3034:L_HI 0.000485684
3 *782:16 0.00154388
4 *782:10 0.00101415
5 *782:10 *2582:S 4.77425e-05
6 *782:10 *2971:RESET_B 0.000660537
7 *782:10 *899:22 0
8 *782:10 *916:22 4.75229e-05
9 *782:10 *1134:14 0.000305904
10 *782:16 *899:22 0.000240957
11 *782:16 *916:22 0.000272907
12 *782:16 *1138:25 0
13 *2367:A1 *782:10 0.000305349
14 *2367:S *782:16 0.000112308
15 *2519:A *782:10 0
16 *19:10 *782:10 0.00012816
17 *90:12 *3033:RESET_B 0
18 *241:56 *3033:RESET_B 0
19 *251:30 *782:16 8.01612e-05
20 *269:25 *782:10 0
21 *280:10 *3033:RESET_B 0.000393736
22 *609:16 *3033:RESET_B 4.77425e-05
23 *635:44 *3033:RESET_B 0
*RES
1 *3034:L_HI *782:10 45.6753 
2 *782:10 *782:16 45.0779 
3 *782:16 *3033:RESET_B 48.3018 
*END

*D_NET *783 0.000795728
*CONN
*I *3125:RESET_B I *D sg13cmos5l_dfrbpq_1
*I *3126:L_HI O *D sg13cmos5l_tiehi
*CAP
1 *3125:RESET_B 0
2 *3126:L_HI 0.000397864
3 *783:10 0.000397864
4 *783:10 *2854:D 0
5 *708:36 *783:10 0
*RES
1 *3126:L_HI *783:10 43.3578 
2 *783:10 *3125:RESET_B 40 
*END

*D_NET *784 0.00344176
*CONN
*I *3031:RESET_B I *D sg13cmos5l_dfrbpq_1
*I *3032:L_HI O *D sg13cmos5l_tiehi
*CAP
1 *3031:RESET_B 0.000223378
2 *3032:L_HI 0.00111134
3 *784:10 0.00133472
4 *3031:RESET_B *2594:A1 0.000240476
5 *784:10 *841:14 0
6 *784:10 *844:14 0
7 *784:10 *950:10 7.91347e-05
8 *784:10 *1003:10 0.000112426
9 *3031:CLK *3031:RESET_B 0
10 *3307:A *784:10 0
11 *329:14 *3031:RESET_B 0
12 *623:8 *784:10 0
13 *655:12 *784:10 0.000340288
14 *773:78 *784:10 0
*RES
1 *3032:L_HI *784:10 49.8159 
2 *784:10 *3031:RESET_B 42.1527 
*END

*D_NET *785 0.000922465
*CONN
*I *3093:RESET_B I *D sg13cmos5l_dfrbpq_1
*I *3094:L_HI O *D sg13cmos5l_tiehi
*CAP
1 *3093:RESET_B 5.69445e-05
2 *3094:L_HI 0.000233477
3 *785:8 0.000290422
4 *785:8 *1114:30 0
5 *785:8 *1121:46 0
6 *785:8 *1151:39 0.000341621
*RES
1 *3094:L_HI *785:8 42.3278 
2 *785:8 *3093:RESET_B 40.5356 
*END

*D_NET *786 0.000719365
*CONN
*I *3029:RESET_B I *D sg13cmos5l_dfrbpq_1
*I *3030:L_HI O *D sg13cmos5l_tiehi
*CAP
1 *3029:RESET_B 0.000263802
2 *3030:L_HI 0.000263802
3 *3029:RESET_B *2981:D 0
4 *3029:D *3029:RESET_B 0.000191761
5 *225:53 *3029:RESET_B 0
6 *773:57 *3029:RESET_B 0
*RES
1 *3030:L_HI *3029:RESET_B 43.296 
*END

*D_NET *787 0.00295634
*CONN
*I *3153:RESET_B I *D sg13cmos5l_dfrbpq_1
*I *3154:L_HI O *D sg13cmos5l_tiehi
*CAP
1 *3153:RESET_B 0.0010015
2 *3154:L_HI 0.000364236
3 *787:12 0.00136573
4 *3153:RESET_B *1159:12 0
5 *787:12 *2415:B 0
6 *787:12 *2916:A 0.000176965
7 *787:12 *2917:A 0
8 *3153:D *3153:RESET_B 0
9 *3153:CLK *3153:RESET_B 0
10 *5:6 *3153:RESET_B 0
11 *181:16 *787:12 0
12 *182:8 *3153:RESET_B 0
13 *210:65 *787:12 4.79124e-05
*RES
1 *3154:L_HI *787:12 43.5844 
2 *787:12 *3153:RESET_B 48.215 
*END

*D_NET *788 0.0272398
*CONN
*I *3277:A I *D sg13cmos5l_buf_1
*I *3237:A I *D sg13cmos5l_buf_1
*I *3230:A I *D sg13cmos5l_buf_1
*I *3443:X O *D sg13cmos5l_buf_1
*CAP
1 *3277:A 0
2 *3237:A 0.00247304
3 *3230:A 0
4 *3443:X 0.000689192
5 *788:32 0.00124127
6 *788:26 0.00471621
7 *788:22 0.00244748
8 *788:12 0.0021656
9 *788:8 0.00140921
10 *3237:A *2826:A0 0
11 *3237:A *3141:RESET_B 0.000339179
12 *3237:A *794:10 0
13 *3237:A *1069:10 0
14 *3237:A *1129:50 0
15 *3237:A *1153:93 0
16 *788:12 *2419:A 0
17 *788:12 *3159:RESET_B 0
18 *788:12 *3161:RESET_B 0
19 *788:12 *1118:10 0.000242236
20 *788:12 *1118:28 0.00024122
21 *788:22 *1092:34 7.56308e-05
22 *788:22 *1114:30 0
23 *788:22 *1119:38 0
24 *788:22 *1156:23 0
25 *788:22 *1156:63 0
26 *788:26 *794:10 0.000821812
27 *788:26 *1092:34 0.00177672
28 *788:26 *1092:45 0.0019187
29 *788:32 *2635:S 4.77425e-05
30 *788:32 *1063:8 0.000289003
31 *788:32 *1068:8 0.000288675
32 *788:32 *1141:94 0
33 *2419:B *788:12 0
34 *2808:B *788:22 0.000159096
35 *2826:A1 *3237:A 4.79124e-05
36 *2827:B *3237:A 0
37 *3085:CLK *788:32 0
38 *3115:D *3237:A 0
39 *3121:CLK *3237:A 0
40 *3151:CLK *788:12 0
41 *3211:A *788:32 0.00033953
42 *3214:A *3237:A 0
43 *3242:A *788:12 0
44 *3278:A *788:32 7.57164e-05
45 *3328:A *788:12 0
46 *5:18 *3237:A 0
47 *5:18 *788:32 0
48 *64:8 *788:8 0
49 *150:8 *788:26 0
50 *155:10 *788:22 0.000288502
51 *187:14 *788:22 0
52 *187:14 *788:26 0
53 *204:42 *788:8 0.000715333
54 *210:40 *788:8 0.000394151
55 *215:10 *788:8 0
56 *216:12 *788:8 0
57 *219:24 *3237:A 0
58 *331:8 *788:22 0
59 *331:14 *788:12 0
60 *396:8 *788:22 0.000448513
61 *692:12 *788:12 0
62 *729:20 *788:32 0
63 *741:63 *3237:A 0
64 *741:80 *3237:A 0
65 *743:8 *3237:A 0.000241429
66 *743:33 *3237:A 0
67 *760:12 *788:22 0.000715749
68 *763:12 *3237:A 0.000339349
69 *763:27 *3237:A 0.000192674
70 *763:36 *3237:A 0.0020989
*RES
1 *3443:X *788:8 48.755 
2 *788:8 *788:12 26.2604 
3 *788:12 *788:22 37.9014 
4 *788:22 *788:26 37.1598 
5 *788:26 *788:32 31.916 
6 *788:32 *3230:A 40 
7 *788:26 *3237:A 45.2968 
8 *788:12 *3277:A 20 
*END

*D_NET *789 0.00297842
*CONN
*I *3027:RESET_B I *D sg13cmos5l_dfrbpq_1
*I *3028:L_HI O *D sg13cmos5l_tiehi
*CAP
1 *3027:RESET_B 0
2 *3028:L_HI 0.00121615
3 *789:14 0.00121615
4 *789:14 *2967:RESET_B 0
5 *789:14 *943:14 0
6 *789:14 *1019:10 8.00842e-05
7 *789:14 *1127:45 0
8 *789:14 *1138:101 0
9 *2496:B *789:14 0
10 *3293:A *789:14 0.000466038
11 *3393:A *789:14 0
12 *275:10 *789:14 0
13 *780:45 *789:14 0
*RES
1 *3028:L_HI *789:14 30.74 
2 *789:14 *3027:RESET_B 20 
*END

*D_NET *790 0.00140104
*CONN
*I *3091:RESET_B I *D sg13cmos5l_dfrbpq_1
*I *3092:L_HI O *D sg13cmos5l_tiehi
*CAP
1 *3091:RESET_B 0.000108272
2 *3092:L_HI 0.000282126
3 *790:10 0.000390398
4 *3091:RESET_B *2770:A1 0
5 *3091:RESET_B *1148:28 0.000143756
6 *790:10 *2769:A2 0
7 *790:10 *1103:35 0.000396298
8 *790:10 *1118:28 0
9 *790:10 *1125:25 0
10 *790:10 *1150:40 8.0194e-05
11 *790:10 *1151:73 0
12 *480:8 *790:10 0
*RES
1 *3092:L_HI *790:10 43.2342 
2 *790:10 *3091:RESET_B 40.9682 
*END

*D_NET *791 0.0142418
*CONN
*I *3025:RESET_B I *D sg13cmos5l_dfrbpq_1
*I *3026:L_HI O *D sg13cmos5l_tiehi
*CAP
1 *3025:RESET_B 0
2 *3026:L_HI 0.000281875
3 *791:18 0.00307869
4 *791:8 0.00336057
5 *791:8 *3147:RESET_B 0.000433968
6 *791:8 *3147:D 0
7 *791:8 *901:10 0
8 *791:8 *1076:22 0
9 *791:18 *841:14 0.00321039
10 *791:18 *844:14 0
11 *791:18 *896:14 0.0024729
12 *791:18 *1003:10 0.00140342
13 *791:18 *1032:16 0
14 config_o[29] *791:18 0
15 *3147:CLK *791:18 0
16 *27:10 *791:18 0
17 *95:12 *791:18 0
18 *279:14 *791:18 0
19 *285:12 *791:8 0
*RES
1 *3026:L_HI *791:8 42.9149 
2 *791:8 *791:18 36.7607 
3 *791:18 *3025:RESET_B 40 
*END

*D_NET *792 0.00157698
*CONN
*I *3123:RESET_B I *D sg13cmos5l_dfrbpq_1
*I *3124:L_HI O *D sg13cmos5l_tiehi
*CAP
1 *3123:RESET_B 0.000137903
2 *3124:L_HI 0.000216068
3 *792:12 0.000353971
4 *3123:RESET_B *1120:46 0.000240405
5 *792:12 *1124:34 0
6 *3425:A *792:12 4.78524e-05
7 *741:28 *792:12 0.000340374
8 *743:18 *3123:RESET_B 0.000240405
9 *758:110 *792:12 0
*RES
1 *3124:L_HI *792:12 42.6883 
2 *792:12 *3123:RESET_B 41.6171 
*END

*D_NET *793 0.00432397
*CONN
*I *3023:RESET_B I *D sg13cmos5l_dfrbpq_1
*I *3024:L_HI O *D sg13cmos5l_tiehi
*CAP
1 *3023:RESET_B 0.000392613
2 *3024:L_HI 0.000794831
3 *793:12 0.00118744
4 *793:12 *854:14 0.000144043
5 *793:12 *1042:14 0
6 config_o[13] *793:12 0
7 *2489:C *3023:RESET_B 0.000434904
8 *2586:A0 *793:12 0.000106807
9 *3023:D *3023:RESET_B 0
10 *3204:A *3023:RESET_B 0
11 *3396:A *793:12 0.000337934
12 *263:49 *793:12 0
13 *283:22 *793:12 0
14 *642:27 *793:12 0.000925388
15 *751:48 *793:12 0
*RES
1 *3024:L_HI *793:12 49.1464 
2 *793:12 *3023:RESET_B 43.914 
*END

*D_NET *794 0.00165924
*CONN
*I *3089:RESET_B I *D sg13cmos5l_dfrbpq_1
*I *3090:L_HI O *D sg13cmos5l_tiehi
*CAP
1 *3089:RESET_B 0
2 *3090:L_HI 0.000418715
3 *794:10 0.000418715
4 *3089:CLK *794:10 0
5 *3237:A *794:10 0
6 *187:14 *794:10 0
7 *788:26 *794:10 0.000821812
*RES
1 *3090:L_HI *794:10 45.6444 
2 *794:10 *3089:RESET_B 40 
*END

*D_NET *795 0.00282639
*CONN
*I *3021:RESET_B I *D sg13cmos5l_dfrbpq_1
*I *3022:L_HI O *D sg13cmos5l_tiehi
*CAP
1 *3021:RESET_B 5.17435e-05
2 *3022:L_HI 0.00104995
3 *795:10 0.00110169
4 *795:10 *2568:B 0
5 *795:10 *958:8 0.00060761
6 config_o[6] *795:10 0
7 *76:10 *3021:RESET_B 1.54008e-05
8 *76:10 *795:10 0
9 *641:10 *795:10 0
10 *734:107 *3021:RESET_B 0
11 *771:110 *795:10 0
*RES
1 *3022:L_HI *795:10 49.9704 
2 *795:10 *3021:RESET_B 40.166 
*END

*D_NET *796 0.000879276
*CONN
*I *3139:RESET_B I *D sg13cmos5l_dfrbpq_1
*I *3140:L_HI O *D sg13cmos5l_tiehi
*CAP
1 *3139:RESET_B 0.000270803
2 *3140:L_HI 0.000270803
3 *3139:RESET_B *1010:36 0.000337671
4 *3139:RESET_B *1129:50 0
*RES
1 *3140:L_HI *3139:RESET_B 42.6162 
*END

*D_NET *797 0.00161303
*CONN
*I *3019:RESET_B I *D sg13cmos5l_dfrbpq_1
*I *3020:L_HI O *D sg13cmos5l_tiehi
*CAP
1 *3019:RESET_B 0
2 *3020:L_HI 0.0003309
3 *797:10 0.0003309
4 *797:10 *2563:S 0.000159096
5 *797:10 *1010:22 0
6 *797:10 *1135:108 0.000181279
7 *3236:A *797:10 0
8 *263:43 *797:10 0.000337902
9 *668:12 *797:10 0
10 *775:10 *797:10 0.000272955
*RES
1 *3020:L_HI *797:10 43.8522 
2 *797:10 *3019:RESET_B 40 
*END

*D_NET *798 0.00198226
*CONN
*I *3087:RESET_B I *D sg13cmos5l_dfrbpq_1
*I *3088:L_HI O *D sg13cmos5l_tiehi
*CAP
1 *3087:RESET_B 4.25262e-05
2 *3088:L_HI 0.000556641
3 *798:12 0.000599168
4 *3087:RESET_B *1146:26 8.0216e-05
5 *3087:RESET_B *1151:99 8.0216e-05
6 *2639:A *798:12 4.78192e-05
7 *3271:A *798:12 0.000112426
8 *149:14 *798:12 0
9 *354:10 *798:12 0.00028206
10 *358:10 *798:12 0
11 *732:14 *798:12 0.000181192
*RES
1 *3088:L_HI *798:12 45.6238 
2 *798:12 *3087:RESET_B 40.5356 
*END

*D_NET *799 0.00551492
*CONN
*I *2421:A I *D sg13cmos5l_nand2_1
*I *2527:B_N I *D sg13cmos5l_nor2b_1
*I *2378:A I *D sg13cmos5l_nor2b_1
*I *2596:A I *D sg13cmos5l_nand3_1
*I *3444:X O *D sg13cmos5l_buf_1
*CAP
1 *2421:A 0
2 *2527:B_N 0
3 *2378:A 0.00112059
4 *2596:A 0
5 *3444:X 0.000167108
6 *799:57 0.000269351
7 *799:42 0.000454653
8 *799:18 0.00124752
9 *799:12 0.000495263
10 *799:8 0.000350139
11 *2378:A *1114:28 0
12 *2378:A *1116:40 8.01938e-05
13 *2378:A *1121:67 0
14 *799:8 *1114:24 0
15 *799:8 *1147:20 0
16 *799:12 *1121:67 0
17 *799:12 *1130:46 0
18 *799:18 *1103:20 0.000393736
19 *799:18 *1147:20 0
20 *799:42 *1130:46 0
21 *799:57 *1114:16 0
22 *799:57 *1114:24 0.000112446
23 *799:57 *1125:12 0.00023464
24 *799:57 *1130:46 0.000274561
25 *2421:B *799:57 0
26 *2596:C *799:42 0
27 *2766:A2 *2378:A 8.00842e-05
28 *330:12 *2378:A 0
29 *765:27 *799:42 0
30 *765:27 *799:57 0.00023464
*RES
1 *3444:X *799:8 41.8334 
2 *799:8 *799:12 21.8334 
3 *799:12 *799:18 41.8334 
4 *799:18 *2596:A 20 
5 *799:18 *2378:A 29.3936 
6 *799:12 *799:42 1.8334 
7 *799:42 *2527:B_N 20 
8 *799:42 *799:57 43.4608 
9 *799:57 *2421:A 20 
*END

*D_NET *800 0.0015984
*CONN
*I *3017:RESET_B I *D sg13cmos5l_dfrbpq_1
*I *3018:L_HI O *D sg13cmos5l_tiehi
*CAP
1 *3017:RESET_B 0.000148885
2 *3018:L_HI 0.00014829
3 *800:12 0.000297175
4 *2479:A *3017:RESET_B 7.84876e-05
5 *78:10 *800:12 0.000394653
6 *82:12 *800:12 4.77425e-05
7 *241:37 *3017:RESET_B 0
8 *260:10 *800:12 4.77425e-05
9 *640:30 *800:12 0.00029097
10 *775:57 *3017:RESET_B 0.00014445
*RES
1 *3018:L_HI *800:12 42.472 
2 *800:12 *3017:RESET_B 41.4008 
*END

*D_NET *801 0.00270076
*CONN
*I *3121:RESET_B I *D sg13cmos5l_dfrbpq_1
*I *3122:L_HI O *D sg13cmos5l_tiehi
*CAP
1 *3121:RESET_B 6.25998e-05
2 *3122:L_HI 0.000339651
3 *801:10 0.000402251
4 *3121:RESET_B *1153:93 0.000111837
5 *801:10 *1103:39 0.000770114
6 *801:10 *1129:22 0.000240934
7 *5:28 *801:10 0
8 *732:37 *801:10 0
9 *743:18 *3121:RESET_B 0.000112399
10 *763:20 *801:10 0.000660971
*RES
1 *3122:L_HI *801:10 45.1809 
2 *801:10 *3121:RESET_B 40.7519 
*END

*D_NET *802 0.00227832
*CONN
*I *3015:RESET_B I *D sg13cmos5l_dfrbpq_1
*I *3016:L_HI O *D sg13cmos5l_tiehi
*CAP
1 *3015:RESET_B 0.000212639
2 *3016:L_HI 0.000426307
3 *802:8 0.000638946
4 *2561:A1 *3015:RESET_B 0
5 *79:8 *802:8 0.000872268
6 *253:10 *802:8 0
7 *263:37 *3015:RESET_B 0
8 *263:37 *802:8 0.00012816
9 *638:27 *3015:RESET_B 0
*RES
1 *3016:L_HI *802:8 45.047 
2 *802:8 *3015:RESET_B 41.8334 
*END

*D_NET *803 0.00130274
*CONN
*I *3085:RESET_B I *D sg13cmos5l_dfrbpq_1
*I *3086:L_HI O *D sg13cmos5l_tiehi
*CAP
1 *3085:RESET_B 0.000523411
2 *3086:L_HI 0.000523411
3 *3085:RESET_B *2633:S 7.8685e-05
4 *3085:RESET_B *1141:53 0.000177237
5 *3085:CLK *3085:RESET_B 0
6 *148:10 *3085:RESET_B 0
*RES
1 *3086:L_HI *3085:RESET_B 44.7792 
*END

*D_NET *804 0.000727161
*CONN
*I *3013:RESET_B I *D sg13cmos5l_dfrbpq_1
*I *3014:L_HI O *D sg13cmos5l_tiehi
*CAP
1 *3013:RESET_B 0.0002263
2 *3014:L_HI 0.0002263
3 *689:35 *3013:RESET_B 0
4 *737:8 *3013:RESET_B 0.000274562
*RES
1 *3014:L_HI *3013:RESET_B 42.678 
*END

*D_NET *805 0.00118722
*CONN
*I *3147:RESET_B I *D sg13cmos5l_dfrbpq_1
*I *3148:L_HI O *D sg13cmos5l_tiehi
*CAP
1 *3147:RESET_B 0.000376627
2 *3148:L_HI 0.000376627
3 *3147:RESET_B *3147:D 0
4 *3147:RESET_B *3149:RESET_B 0
5 *3147:RESET_B *896:8 0
6 *3147:RESET_B *901:10 0
7 *3334:A *3147:RESET_B 0
8 *791:8 *3147:RESET_B 0.000433968
*RES
1 *3148:L_HI *3147:RESET_B 43.914 
*END

*D_NET *806 0.00123541
*CONN
*I *3011:RESET_B I *D sg13cmos5l_dfrbpq_1
*I *3012:L_HI O *D sg13cmos5l_tiehi
*CAP
1 *3011:RESET_B 0.000393546
2 *3012:L_HI 0.000393546
3 *3011:RESET_B *2428:A 0
4 *2429:C *3011:RESET_B 0.000207986
5 *2453:A *3011:RESET_B 0
6 *2456:A *3011:RESET_B 0
7 *2550:A *3011:RESET_B 0.000240328
8 *2929:D *3011:RESET_B 0
*RES
1 *3012:L_HI *3011:RESET_B 42.99 
*END

*D_NET *807 0.00123746
*CONN
*I *3083:RESET_B I *D sg13cmos5l_dfrbpq_1
*I *3084:L_HI O *D sg13cmos5l_tiehi
*CAP
1 *3083:RESET_B 0.000530529
2 *3084:L_HI 0.000530529
3 *3083:RESET_B *2634:A 0
4 *3083:RESET_B *2634:B 0
5 *3083:RESET_B *1141:49 0
6 *3083:RESET_B *1152:31 0
7 *3083:D *3083:RESET_B 0.000176405
8 *350:10 *3083:RESET_B 0
*RES
1 *3084:L_HI *3083:RESET_B 44.7586 
*END

*D_NET *808 0.00219843
*CONN
*I *3009:RESET_B I *D sg13cmos5l_dfrbpq_1
*I *3010:L_HI O *D sg13cmos5l_tiehi
*CAP
1 *3009:RESET_B 0.000227779
2 *3010:L_HI 0.000393912
3 *808:14 0.000621691
4 *3009:RESET_B *1027:27 0.000209808
5 *3009:RESET_B *1103:64 0.000404121
6 *3183:A *808:14 0
7 *298:10 *3009:RESET_B 0
8 *298:10 *808:14 0
9 *658:18 *808:14 0.000341119
10 *664:254 *808:14 0
11 *771:94 *808:14 0
*RES
1 *3010:L_HI *808:14 43.8728 
2 *808:14 *3009:RESET_B 42.6986 
*END

*D_NET *809 0.00133266
*CONN
*I *3119:RESET_B I *D sg13cmos5l_dfrbpq_1
*I *3120:L_HI O *D sg13cmos5l_tiehi
*CAP
1 *3119:RESET_B 0
2 *3120:L_HI 0.000249411
3 *809:10 0.000249411
4 *809:10 *1117:108 0.00027267
5 *515:10 *809:10 0.00027267
6 *739:10 *809:10 0.000288503
7 *744:14 *809:10 0
*RES
1 *3120:L_HI *809:10 43.1724 
2 *809:10 *3119:RESET_B 40 
*END

*D_NET *810 0.0098976
*CONN
*I *3453:A I *D sg13cmos5l_buf_1
*I *2919:X O *D sg13cmos5l_mux2_1
*CAP
1 *3453:A 0
2 *2919:X 0.000416615
3 *810:16 0.00148273
4 *810:10 0.00189935
5 *810:10 *817:12 0.000338533
6 *810:16 *3496:A 1.54556e-05
7 *810:16 *830:10 0
8 *810:16 *932:16 0.00428217
9 *810:16 *1114:30 0.000503098
10 *810:16 *1114:86 0.0003963
11 config_o[0] *810:16 0
12 sel_load_src_o[4] *810:16 0.000144849
13 *58:12 *810:16 0
14 *295:23 *810:10 4.77425e-05
15 *295:33 *810:10 0.000370757
16 *657:8 *810:16 0
17 *657:26 *810:16 0
18 *662:27 *810:10 0
19 *684:23 *810:10 0
20 *771:94 *810:16 0
*RES
1 *2919:X *810:10 44.3466 
2 *810:10 *810:16 42.2686 
3 *810:16 *3453:A 20 
*END

*D_NET *811 0.00205126
*CONN
*I *3007:RESET_B I *D sg13cmos5l_dfrbpq_1
*I *3008:L_HI O *D sg13cmos5l_tiehi
*CAP
1 *3007:RESET_B 0.000168887
2 *3008:L_HI 0.000711777
3 *811:8 0.000880664
4 *3007:RESET_B *2551:A0 0.000274535
5 *3007:RESET_B *1047:18 1.54008e-05
6 *811:8 *3005:RESET_B 0
7 *3007:D *3007:RESET_B 0
8 *109:10 *811:8 0
9 *184:8 *811:8 0
10 *634:8 *811:8 0
11 *654:24 *811:8 0
*RES
1 *3008:L_HI *811:8 47.2718 
2 *811:8 *3007:RESET_B 41.8334 
*END

*D_NET *812 0.000466435
*CONN
*I *3081:RESET_B I *D sg13cmos5l_dfrbpq_1
*I *3082:L_HI O *D sg13cmos5l_tiehi
*CAP
1 *3081:RESET_B 0.000233218
2 *3082:L_HI 0.000233218
3 *3081:D *3081:RESET_B 0
4 *3339:A *3081:RESET_B 0
*RES
1 *3082:L_HI *3081:RESET_B 42.266 
*END

*D_NET *813 0.00358794
*CONN
*I *3005:RESET_B I *D sg13cmos5l_dfrbpq_1
*I *3006:L_HI O *D sg13cmos5l_tiehi
*CAP
1 *3005:RESET_B 0.000403527
2 *3006:L_HI 0.000392062
3 *813:14 0.000795589
4 *3005:RESET_B *2553:S 0.000871939
5 *3005:RESET_B *1094:32 0
6 *813:14 *2553:A1 0.000177109
7 *2554:B *813:14 0.00034976
8 *109:10 *813:14 0.000112388
9 *184:8 *3005:RESET_B 0.000340704
10 *654:24 *813:14 0
11 *771:94 *813:14 0.000144861
12 *811:8 *3005:RESET_B 0
*RES
1 *3006:L_HI *813:14 44.6144 
2 *813:14 *3005:RESET_B 45.7886 
*END

*D_NET *814 0.00194486
*CONN
*I *3137:RESET_B I *D sg13cmos5l_dfrbpq_1
*I *3138:L_HI O *D sg13cmos5l_tiehi
*CAP
1 *3137:RESET_B 0.000617074
2 *3138:L_HI 0.000617074
3 *3137:RESET_B *2872:B 0.000177034
4 *3137:RESET_B *3133:RESET_B 0
5 *3137:RESET_B *1154:128 0
6 *735:18 *3137:RESET_B 0.000533678
*RES
1 *3138:L_HI *3137:RESET_B 46.6744 
*END

*D_NET *815 0.00204894
*CONN
*I *3003:RESET_B I *D sg13cmos5l_dfrbpq_1
*I *3004:L_HI O *D sg13cmos5l_tiehi
*CAP
1 *3003:RESET_B 0.000354269
2 *3004:L_HI 0.000670203
3 *815:10 0.00102447
4 *3003:RESET_B *2549:B 0
5 *3003:RESET_B *2599:A0 0
6 *3003:RESET_B *2987:RESET_B 0
7 *815:10 *1035:8 0
8 *815:10 *1105:14 0
9 *815:10 *1157:76 0
10 *2987:CLK *3003:RESET_B 0
11 *47:6 *3003:RESET_B 0
12 *187:18 *815:10 0
13 *296:10 *815:10 0
14 *663:12 *815:10 0
15 *768:76 *815:10 0
*RES
1 *3004:L_HI *815:10 46.6023 
2 *815:10 *3003:RESET_B 43.3475 
*END

*D_NET *816 0.00171531
*CONN
*I *3079:RESET_B I *D sg13cmos5l_dfrbpq_1
*I *3080:L_HI O *D sg13cmos5l_tiehi
*CAP
1 *3079:RESET_B 5.81931e-05
2 *3080:L_HI 0.000601763
3 *816:10 0.000659956
4 *816:10 *1153:12 0
5 *3079:CLK *816:10 0
6 *3380:A *816:10 0
7 *145:12 *816:10 0.000395396
8 *720:22 *816:10 0
*RES
1 *3080:L_HI *816:10 45.7062 
2 *816:10 *3079:RESET_B 40.5356 
*END

*D_NET *817 0.0016289
*CONN
*I *3001:RESET_B I *D sg13cmos5l_dfrbpq_1
*I *3002:L_HI O *D sg13cmos5l_tiehi
*CAP
1 *3001:RESET_B 0.000139252
2 *3002:L_HI 0.000505932
3 *817:12 0.000645184
4 *3001:RESET_B *2547:B 0
5 *49:14 *817:12 0
6 *632:8 *3001:RESET_B 0
7 *684:23 *817:12 0
8 *810:10 *817:12 0.000338533
*RES
1 *3002:L_HI *817:12 44.4187 
2 *817:12 *3001:RESET_B 41.1845 
*END

*D_NET *818 0.00134844
*CONN
*I *3117:RESET_B I *D sg13cmos5l_dfrbpq_1
*I *3118:L_HI O *D sg13cmos5l_tiehi
*CAP
1 *3117:RESET_B 0.0001234
2 *3118:L_HI 0.000311027
3 *818:10 0.000434427
4 *3117:RESET_B *1117:49 0
5 *3117:RESET_B *1145:62 8.02379e-05
6 *818:10 *836:10 0
7 *818:10 *1123:10 0.000111896
8 *3264:A *818:10 0
9 *162:12 *818:10 0.00028745
10 *521:12 *818:10 0
*RES
1 *3118:L_HI *818:10 43.0797 
2 *818:10 *3117:RESET_B 41.1845 
*END

*D_NET *819 0.000581135
*CONN
*I *2999:RESET_B I *D sg13cmos5l_dfrbpq_1
*I *3000:L_HI O *D sg13cmos5l_tiehi
*CAP
1 *2999:RESET_B 0.000290568
2 *3000:L_HI 0.000290568
3 *2999:RESET_B *2430:A 0
4 *2999:RESET_B *2540:S 0
5 *660:20 *2999:RESET_B 0
*RES
1 *3000:L_HI *2999:RESET_B 42.9252 
*END

*D_NET *820 0.00172317
*CONN
*I *3077:RESET_B I *D sg13cmos5l_dfrbpq_1
*I *3078:L_HI O *D sg13cmos5l_tiehi
*CAP
1 *3077:RESET_B 0
2 *3078:L_HI 0.000861584
3 *820:10 0.000861584
4 *820:10 *1141:74 0
5 *3077:CLK *820:10 0
6 *3406:A *820:10 0
7 *5:6 *820:10 0
8 *718:12 *820:10 0
*RES
1 *3078:L_HI *820:10 47.1276 
2 *820:10 *3077:RESET_B 40 
*END

*D_NET *821 0.00258518
*CONN
*I *3454:A I *D sg13cmos5l_buf_1
*I *2354:X O *D sg13cmos5l_mux2_1
*CAP
1 *3454:A 0.000618677
2 *2354:X 0.000618677
3 *3454:A *2485:A 0
4 *3454:A *3455:A 0.000444916
5 *3454:A *1098:14 0
6 *2485:B *3454:A 0
7 *2487:A *3454:A 0
8 *266:18 *3454:A 0.000242313
9 *601:40 *3454:A 0.000242017
10 *602:25 *3454:A 0.000176731
11 *602:40 *3454:A 0.000241847
*RES
1 *2354:X *3454:A 47.1894 
*END

*D_NET *822 0.000363481
*CONN
*I *2997:RESET_B I *D sg13cmos5l_dfrbpq_1
*I *2998:L_HI O *D sg13cmos5l_tiehi
*CAP
1 *2997:RESET_B 0.00018174
2 *2998:L_HI 0.00018174
3 *2997:RESET_B *2609:A0 0
4 *2613:A0 *2997:RESET_B 0
5 *302:10 *2997:RESET_B 0
*RES
1 *2998:L_HI *2997:RESET_B 41.8334 
*END

*D_NET *823 0.00198709
*CONN
*I *3151:RESET_B I *D sg13cmos5l_dfrbpq_1
*I *3152:L_HI O *D sg13cmos5l_tiehi
*CAP
1 *3151:RESET_B 0
2 *3152:L_HI 0.000626239
3 *823:14 0.000626239
4 *823:14 *2415:C 0
5 *823:14 *858:8 0.000234726
6 *823:14 *972:10 0
7 *213:10 *823:14 0.000499887
*RES
1 *3152:L_HI *823:14 46.7774 
2 *823:14 *3151:RESET_B 40 
*END

*D_NET *824 0.000480847
*CONN
*I *2995:RESET_B I *D sg13cmos5l_dfrbpq_1
*I *2996:L_HI O *D sg13cmos5l_tiehi
*CAP
1 *2995:RESET_B 0.000240424
2 *2996:L_HI 0.000240424
3 *2995:RESET_B *2430:A 0
4 *2995:RESET_B *2540:S 0
5 *295:19 *2995:RESET_B 0
*RES
1 *2996:L_HI *2995:RESET_B 41.234 
*END

*D_NET *825 0.00227899
*CONN
*I *3075:RESET_B I *D sg13cmos5l_dfrbpq_1
*I *3076:L_HI O *D sg13cmos5l_tiehi
*CAP
1 *3075:RESET_B 0.000914087
2 *3076:L_HI 0.000914087
3 *3075:RESET_B *2625:A1 0
4 *3075:RESET_B *2625:S 0
5 *3075:RESET_B *2626:A 0.000241136
6 *3075:RESET_B *2626:B 0
7 *3075:RESET_B *1152:14 0
8 *2625:A0 *3075:RESET_B 0
9 *3075:D *3075:RESET_B 0
10 *3075:CLK *3075:RESET_B 0
11 *331:24 *3075:RESET_B 0
12 *331:30 *3075:RESET_B 0
13 *346:10 *3075:RESET_B 0.000209676
14 *703:8 *3075:RESET_B 0
*RES
1 *3076:L_HI *3075:RESET_B 48.3224 
*END

*D_NET *826 0.00136804
*CONN
*I *2993:RESET_B I *D sg13cmos5l_dfrbpq_1
*I *2994:L_HI O *D sg13cmos5l_tiehi
*CAP
1 *2993:RESET_B 0
2 *2994:L_HI 0.000547187
3 *826:14 0.000547187
4 *826:14 *3057:RESET_B 0
5 *826:14 *1114:56 0
6 *295:33 *826:14 0.000273671
7 *664:254 *826:14 0
*RES
1 *2994:L_HI *826:14 44.9696 
2 *826:14 *2993:RESET_B 40 
*END

*D_NET *827 0.00054156
*CONN
*I *3115:RESET_B I *D sg13cmos5l_dfrbpq_1
*I *3116:L_HI O *D sg13cmos5l_tiehi
*CAP
1 *3115:RESET_B 0.00027078
2 *3116:L_HI 0.00027078
3 *3115:RESET_B *1129:50 0
4 *664:111 *3115:RESET_B 0
*RES
1 *3116:L_HI *3115:RESET_B 42.6162 
*END

*D_NET *828 0.00272605
*CONN
*I *2991:RESET_B I *D sg13cmos5l_dfrbpq_1
*I *2992:L_HI O *D sg13cmos5l_tiehi
*CAP
1 *2991:RESET_B 0
2 *2992:L_HI 0.00136302
3 *828:8 0.00136302
4 *828:8 *1024:10 0
5 *828:8 *1057:8 0
6 *828:8 *1137:101 0
7 *2537:B *828:8 0
8 *2991:D *828:8 0
9 *3055:CLK *828:8 0
10 *3191:A *828:8 0
11 *3394:A *828:8 0
12 *52:20 *828:8 0
13 *727:56 *828:8 0
*RES
1 *2992:L_HI *828:8 30.592 
2 *828:8 *2991:RESET_B 20 
*END

*D_NET *829 0.0019962
*CONN
*I *3073:RESET_B I *D sg13cmos5l_dfrbpq_1
*I *3074:L_HI O *D sg13cmos5l_tiehi
*CAP
1 *3073:RESET_B 5.43089e-05
2 *3074:L_HI 0.00046716
3 *829:8 0.000521469
4 *829:8 *1057:29 0.000873099
5 *829:8 *1105:14 0
6 *3073:D *3073:RESET_B 8.01612e-05
7 *49:14 *3073:RESET_B 0
8 *331:63 *829:8 0
9 *344:10 *829:8 0
*RES
1 *3074:L_HI *829:8 46.283 
2 *829:8 *3073:RESET_B 40.5356 
*END

*D_NET *830 0.00203981
*CONN
*I *2989:RESET_B I *D sg13cmos5l_dfrbpq_1
*I *2990:L_HI O *D sg13cmos5l_tiehi
*CAP
1 *2989:RESET_B 0.000200472
2 *2990:L_HI 0.00072838
3 *830:10 0.000928852
4 *830:10 *2536:A1 0
5 *830:10 *2603:A0 0
6 *830:10 *1114:86 0
7 *830:10 *1137:93 0
8 *3191:A *2989:RESET_B 0
9 *657:26 *2989:RESET_B 0
10 *657:26 *830:10 0.000182109
11 *664:254 *830:10 0
12 *686:27 *830:10 0
13 *810:16 *830:10 0
*RES
1 *2990:L_HI *830:10 45.8328 
2 *830:10 *2989:RESET_B 41.8334 
*END

*D_NET *831 0.000891974
*CONN
*I *3135:RESET_B I *D sg13cmos5l_dfrbpq_1
*I *3136:L_HI O *D sg13cmos5l_tiehi
*CAP
1 *3135:RESET_B 0.000265305
2 *3136:L_HI 0.000265305
3 *3135:RESET_B *1010:36 0
4 *756:26 *3135:RESET_B 0.000361364
*RES
1 *3136:L_HI *3135:RESET_B 42.6162 
*END

*D_NET *832 0.00163471
*CONN
*I *3455:A I *D sg13cmos5l_buf_1
*I *2355:X O *D sg13cmos5l_mux2_1
*CAP
1 *3455:A 0.000449786
2 *2355:X 0.000449786
3 *3455:A *919:14 0
4 *2487:A *3455:A 0
5 *3396:A *3455:A 0
6 *3454:A *3455:A 0.000444916
7 *266:18 *3455:A 0.000274769
8 *283:22 *3455:A 1.54556e-05
*RES
1 *2355:X *3455:A 45.356 
*END

*D_NET *833 0.00164484
*CONN
*I *2987:RESET_B I *D sg13cmos5l_dfrbpq_1
*I *2988:L_HI O *D sg13cmos5l_tiehi
*CAP
1 *2987:RESET_B 0.000467055
2 *2988:L_HI 0.000467055
3 *2987:RESET_B *2549:B 0.00066299
4 *2548:A1 *2987:RESET_B 4.77425e-05
5 *3003:RESET_B *2987:RESET_B 0
6 *3003:D *2987:RESET_B 0
*RES
1 *2988:L_HI *2987:RESET_B 45.0264 
*END

*D_NET *834 0.00538345
*CONN
*I *3071:RESET_B I *D sg13cmos5l_dfrbpq_1
*I *3072:L_HI O *D sg13cmos5l_tiehi
*CAP
1 *3071:RESET_B 0.00073407
2 *3072:L_HI 0.000417777
3 *834:10 0.00115185
4 *3071:RESET_B *2619:A1 0.000111416
5 *3071:RESET_B *2622:B 0
6 *834:10 *1104:12 0.00124482
7 *834:10 *1110:14 8.00842e-05
8 en_ros_o[2] *834:10 0.00156334
9 *2622:A *3071:RESET_B 8.00842e-05
10 *48:22 *3071:RESET_B 0
11 *343:10 *3071:RESET_B 0
12 *724:10 *3071:RESET_B 0
*RES
1 *3072:L_HI *834:10 47.8074 
2 *834:10 *3071:RESET_B 46.5302 
*END

*D_NET *835 0.000666365
*CONN
*I *2985:RESET_B I *D sg13cmos5l_dfrbpq_1
*I *2986:L_HI O *D sg13cmos5l_tiehi
*CAP
1 *2985:RESET_B 0.000229046
2 *2986:L_HI 0.000229046
3 *2985:RESET_B *987:46 0
4 *3389:A *2985:RESET_B 0
5 *663:37 *2985:RESET_B 0.000208272
*RES
1 *2986:L_HI *2985:RESET_B 42.1836 
*END

*D_NET *836 0.00101041
*CONN
*I *3113:RESET_B I *D sg13cmos5l_dfrbpq_1
*I *3114:L_HI O *D sg13cmos5l_tiehi
*CAP
1 *3113:RESET_B 0
2 *3114:L_HI 0.00046502
3 *836:10 0.00046502
4 *836:10 *1113:22 8.03692e-05
5 *2819:A1 *836:10 0
6 *162:12 *836:10 0
7 *483:22 *836:10 0
8 *818:10 *836:10 0
*RES
1 *3114:L_HI *836:10 44.841 
2 *836:10 *3113:RESET_B 40 
*END

*D_NET *837 0.00377342
*CONN
*I *2983:RESET_B I *D sg13cmos5l_dfrbpq_1
*I *2984:L_HI O *D sg13cmos5l_tiehi
*CAP
1 *2983:RESET_B 0.000327145
2 *2984:L_HI 0.000686593
3 *837:10 0.00101374
4 *837:10 *944:12 0
5 *837:10 *1043:10 0
6 *837:10 *1076:16 0.00034245
7 config_o[30] *837:10 0
8 *2377:A1 *837:10 0.000555822
9 *3031:CLK *2983:RESET_B 0
10 *3257:A *837:10 0
11 *3287:A *837:10 0
12 *3365:A *837:10 0.000424255
13 *317:20 *837:10 0.000181695
14 *329:14 *2983:RESET_B 0.000241721
15 *702:14 *2983:RESET_B 0
*RES
1 *2984:L_HI *837:10 48.24 
2 *837:10 *2983:RESET_B 42.46 
*END

*D_NET *838 0.00404718
*CONN
*I *3069:RESET_B I *D sg13cmos5l_dfrbpq_1
*I *3070:L_HI O *D sg13cmos5l_tiehi
*CAP
1 *3069:RESET_B 0
2 *3070:L_HI 0
3 *838:12 0.00081718
4 *838:6 0.00081718
5 *838:12 *847:22 0
6 *838:12 *1100:26 0.000770024
7 en_ros_o[1] *838:12 0
8 *48:12 *838:12 0
9 *48:22 *838:12 0.00130109
10 *769:8 *838:12 0.000341707
*RES
1 *3070:L_HI *838:6 40 
2 *838:6 *838:12 31.2682 
3 *838:12 *3069:RESET_B 20 
*END

*D_NET *839 0.00194804
*CONN
*I *2981:RESET_B I *D sg13cmos5l_dfrbpq_1
*I *2982:L_HI O *D sg13cmos5l_tiehi
*CAP
1 *2981:RESET_B 0.000596719
2 *2982:L_HI 0.000596719
3 *2981:RESET_B *2981:D 0
4 *2981:RESET_B *3045:RESET_B 0
5 *225:53 *2981:RESET_B 0
6 *756:72 *2981:RESET_B 0.000754602
*RES
1 *2982:L_HI *2981:RESET_B 45.7268 
*END

*D_NET *840 0.000831375
*CONN
*I *3145:RESET_B I *D sg13cmos5l_dfrbpq_1
*I *3146:L_HI O *D sg13cmos5l_tiehi
*CAP
1 *3145:RESET_B 0.000207178
2 *3146:L_HI 0.000207178
3 *3145:RESET_B *1021:34 0
4 *3145:RESET_B *1129:50 0
5 *3145:RESET_B *1144:47 0.000176581
6 *21:8 *3145:RESET_B 0.000240437
*RES
1 *3146:L_HI *3145:RESET_B 42.1836 
*END

*D_NET *841 0.0111485
*CONN
*I *2979:RESET_B I *D sg13cmos5l_dfrbpq_1
*I *2980:L_HI O *D sg13cmos5l_tiehi
*CAP
1 *2979:RESET_B 0
2 *2980:L_HI 0.000308499
3 *841:14 0.00162689
4 *841:8 0.00193539
5 *841:8 *944:12 0
6 *841:8 *1129:50 0.000498085
7 *841:14 *844:14 0
8 *841:14 *1003:10 0.00140383
9 *841:14 *1009:10 0
10 *3029:CLK *841:14 0.000287672
11 *3147:CLK *841:14 0.00113784
12 *95:12 *841:14 0
13 *225:53 *841:8 0
14 *285:22 *841:14 0
15 *291:8 *841:8 0
16 *655:12 *841:14 0.000499383
17 *755:25 *841:8 0.000240515
18 *784:10 *841:14 0
19 *791:18 *841:14 0.00321039
*RES
1 *2980:L_HI *841:8 43.3475 
2 *841:8 *841:14 44.4007 
3 *841:14 *2979:RESET_B 20 
*END

*D_NET *842 0.00104207
*CONN
*I *3067:RESET_B I *D sg13cmos5l_dfrbpq_1
*I *3068:L_HI O *D sg13cmos5l_tiehi
*CAP
1 *3067:RESET_B 0.000521034
2 *3068:L_HI 0.000521034
3 *47:6 *3067:RESET_B 0
4 *675:8 *3067:RESET_B 0
*RES
1 *3068:L_HI *3067:RESET_B 44.4084 
*END

*D_NET *843 0.00618236
*CONN
*I *3456:A I *D sg13cmos5l_buf_1
*I *2356:X O *D sg13cmos5l_mux2_1
*CAP
1 *3456:A 0
2 *2356:X 0.000375794
3 *843:12 0.0011161
4 *843:8 0.00149189
5 *843:8 *926:28 0.000498284
6 *843:12 *1021:8 0.00204196
7 config_o[14] *843:12 0.00012816
8 *2373:A1 *843:12 0
9 *2580:A0 *843:8 0.000530158
10 *16:26 *843:12 0
11 *269:47 *843:12 0
12 *607:50 *843:12 0
13 *639:44 *843:12 0
*RES
1 *2356:X *843:8 44.2127 
2 *843:8 *843:12 32.9574 
3 *843:12 *3456:A 20 
*END

*D_NET *844 0.0120697
*CONN
*I *2977:RESET_B I *D sg13cmos5l_dfrbpq_1
*I *2978:L_HI O *D sg13cmos5l_tiehi
*CAP
1 *2977:RESET_B 0.000120252
2 *2978:L_HI 0.000364453
3 *844:14 0.0029831
4 *844:10 0.0032273
5 *2977:RESET_B *1038:10 0.000208063
6 *844:14 *1002:10 0.000449137
7 *844:14 *1009:10 0.00120385
8 *844:14 *1127:68 0.00012816
9 config_o[28] *844:14 0
10 *95:12 *844:14 0.000827056
11 *225:53 *844:10 0.000530355
12 *279:14 *844:14 0.000500506
13 *285:22 *844:14 0.00114339
14 *291:8 *844:10 0
15 *756:14 *844:10 0.000175974
16 *776:114 *2977:RESET_B 0.000208063
17 *784:10 *844:14 0
18 *791:18 *844:14 0
19 *841:14 *844:14 0
*RES
1 *2978:L_HI *844:10 43.914 
2 *844:10 *844:14 49.767 
3 *844:14 *2977:RESET_B 21.4008 
*END

*D_NET *845 0.000387481
*CONN
*I *3111:RESET_B I *D sg13cmos5l_dfrbpq_1
*I *3112:L_HI O *D sg13cmos5l_tiehi
*CAP
1 *3111:RESET_B 0.000193741
2 *3112:L_HI 0.000193741
3 *2900:B *3111:RESET_B 0
*RES
1 *3112:L_HI *3111:RESET_B 42.1836 
*END

*D_NET *846 0.00331688
*CONN
*I *2975:RESET_B I *D sg13cmos5l_dfrbpq_1
*I *2976:L_HI O *D sg13cmos5l_tiehi
*CAP
1 *2975:RESET_B 4.32164e-05
2 *2976:L_HI 0.000477618
3 *846:8 0.000520834
4 *846:8 *1012:12 0.000924885
5 *2373:S *846:8 0.000371552
6 *269:47 *2975:RESET_B 8.01938e-05
7 *607:50 *2975:RESET_B 8.00842e-05
8 *619:8 *846:8 0.000818493
*RES
1 *2976:L_HI *846:8 47.2718 
2 *846:8 *2975:RESET_B 40.5356 
*END

*D_NET *847 0.00540619
*CONN
*I *3065:RESET_B I *D sg13cmos5l_dfrbpq_1
*I *3066:L_HI O *D sg13cmos5l_tiehi
*CAP
1 *3065:RESET_B 0
2 *3066:L_HI 0.00123292
3 *847:22 0.000379852
4 *847:14 0.00161277
5 *847:14 *2607:A0 0.000337507
6 *847:14 *2616:B 4.77425e-05
7 *847:14 *1045:10 0
8 *847:14 *1100:20 0.000627256
9 *847:14 *1108:20 0
10 en_ros_o[1] *847:22 0.000288087
11 *2607:S *847:14 0
12 *2616:A *847:14 0.000380993
13 *3165:A *847:14 0
14 *3227:A *847:22 0
15 *713:12 *847:22 0.000208747
16 *731:26 *847:14 6.99179e-05
17 *769:8 *847:22 7.56299e-05
18 *771:27 *847:14 0.000144768
19 *771:42 *847:14 0
20 *838:12 *847:22 0
*RES
1 *3066:L_HI *847:14 32.2226 
2 *847:14 *847:22 43.9758 
3 *847:22 *3065:RESET_B 20 
*END

*D_NET *848 0.00978678
*CONN
*I *2973:RESET_B I *D sg13cmos5l_dfrbpq_1
*I *2974:L_HI O *D sg13cmos5l_tiehi
*CAP
1 *2973:RESET_B 0
2 *2974:L_HI 0
3 *848:12 0.00222917
4 *848:6 0.00222917
5 *848:12 *2501:B 0.000288087
6 *848:12 *852:10 0.000394151
7 *848:12 *912:32 8.0216e-05
8 *848:12 *916:12 0.000181192
9 *848:12 *927:14 0
10 *848:12 *954:14 0
11 *848:12 *965:10 0.000287342
12 *848:12 *1138:25 0.000818908
13 *2497:A *848:12 0.00049947
14 *91:8 *848:12 0.000288174
15 *269:10 *848:12 0.00119271
16 *269:25 *848:12 0.00106304
17 *280:18 *848:12 0
18 *635:50 *848:12 0
19 *671:8 *848:12 0
20 *745:102 *848:12 0
21 *750:52 *848:12 0.000235141
22 *750:60 *848:12 0
23 *776:54 *848:12 0
*RES
1 *2974:L_HI *848:6 40 
2 *848:6 *848:12 46.1002 
3 *848:12 *2973:RESET_B 20 
*END

*D_NET *849 0.000694533
*CONN
*I *3133:RESET_B I *D sg13cmos5l_dfrbpq_1
*I *3134:L_HI O *D sg13cmos5l_tiehi
*CAP
1 *3133:RESET_B 0.000226173
2 *3134:L_HI 0.000226173
3 *3133:RESET_B *1142:119 0.000242187
4 *3137:RESET_B *3133:RESET_B 0
5 *694:14 *3133:RESET_B 0
6 *694:25 *3133:RESET_B 0
*RES
1 *3134:L_HI *3133:RESET_B 42.6162 
*END

*D_NET *850 0.00441424
*CONN
*I *2971:RESET_B I *D sg13cmos5l_dfrbpq_1
*I *2972:L_HI O *D sg13cmos5l_tiehi
*CAP
1 *2971:RESET_B 0.000564066
2 *2972:L_HI 0.000611892
3 *850:8 0.00117596
4 *2971:RESET_B *2582:A1 0
5 *2971:RESET_B *899:22 0
6 *2971:RESET_B *1134:14 1.54556e-05
7 *850:8 *888:30 0.000871525
8 config_o[26] *850:8 0
9 *2582:A0 *2971:RESET_B 0.000272889
10 *3035:D *2971:RESET_B 0
11 *3207:A *2971:RESET_B 0.000241913
12 *776:73 *850:8 0
13 *776:77 *850:8 0
14 *782:10 *2971:RESET_B 0.000660537
*RES
1 *2972:L_HI *850:8 46.283 
2 *850:8 *2971:RESET_B 46.077 
*END

*D_NET *851 0.00104679
*CONN
*I *3063:RESET_B I *D sg13cmos5l_dfrbpq_1
*I *3064:L_HI O *D sg13cmos5l_tiehi
*CAP
1 *3063:RESET_B 0.000499524
2 *3064:L_HI 0.000499524
3 *3063:RESET_B *2542:S 0
4 *3063:RESET_B *2598:A 0
5 *3063:RESET_B *1147:75 0
6 *2614:B *3063:RESET_B 0
7 *332:8 *3063:RESET_B 0
8 *767:27 *3063:RESET_B 0
9 *772:10 *3063:RESET_B 4.77425e-05
*RES
1 *3064:L_HI *3063:RESET_B 44.7792 
*END

*D_NET *852 0.00588998
*CONN
*I *2969:RESET_B I *D sg13cmos5l_dfrbpq_1
*I *2970:L_HI O *D sg13cmos5l_tiehi
*CAP
1 *2969:RESET_B 0.000483044
2 *2970:L_HI 0.000799456
3 *852:10 0.0012825
4 *2969:RESET_B *948:51 0.000304879
5 *852:10 *1127:68 0
6 *3311:A *852:10 0.000950905
7 *241:56 *2969:RESET_B 0.000176201
8 *270:22 *852:10 0.00120973
9 *664:327 *2969:RESET_B 0
10 *776:54 *852:10 0.000289113
11 *848:12 *852:10 0.000394151
*RES
1 *2970:L_HI *852:10 49.9395 
2 *852:10 *2969:RESET_B 44.3569 
*END

*D_NET *853 0.000957921
*CONN
*I *3109:RESET_B I *D sg13cmos5l_dfrbpq_1
*I *3110:L_HI O *D sg13cmos5l_tiehi
*CAP
1 *3109:RESET_B 0.000155801
2 *3110:L_HI 0.000185775
3 *853:8 0.000341576
4 *3109:RESET_B *2757:B1 0.000274769
5 *853:8 *1152:98 0
6 *672:8 *853:8 0
7 *734:10 *853:8 0
*RES
1 *3110:L_HI *853:8 42.0806 
2 *853:8 *3109:RESET_B 41.8334 
*END

*D_NET *854 0.00779171
*CONN
*I *3457:A I *D sg13cmos5l_buf_1
*I *2357:X O *D sg13cmos5l_mux2_1
*CAP
1 *3457:A 0
2 *2357:X 6.01588e-05
3 *854:14 0.00192793
4 *854:8 0.00198809
5 *854:8 *1128:27 0
6 *854:14 *880:10 0
7 *854:14 *1044:8 0
8 *2357:A1 *854:8 0
9 *2489:B *854:14 0
10 *2509:B *854:14 0
11 *16:20 *854:14 0
12 *16:26 *854:14 0
13 *259:18 *854:14 0
14 *263:37 *854:14 0
15 *283:22 *854:14 1.54556e-05
16 *638:8 *854:14 0
17 *640:30 *854:14 0.000450066
18 *664:293 *854:14 0
19 *775:16 *854:14 0
20 *775:61 *854:14 0.00076662
21 *775:72 *854:14 0.00167356
22 *775:87 *854:14 0.00076579
23 *779:8 *854:14 0
24 *779:23 *854:14 0
25 *779:78 *854:14 0
26 *793:12 *854:14 0.000144043
*RES
1 *2357:X *854:8 40.5356 
2 *854:8 *854:14 44.308 
3 *854:14 *3457:A 20 
*END

*D_NET *855 0.000824626
*CONN
*I *2967:RESET_B I *D sg13cmos5l_dfrbpq_1
*I *2968:L_HI O *D sg13cmos5l_tiehi
*CAP
1 *2967:RESET_B 0.000300335
2 *2968:L_HI 0.000300335
3 *2967:RESET_B *1127:45 0.000144009
4 *2496:B *2967:RESET_B 0
5 *275:10 *2967:RESET_B 7.9947e-05
6 *789:14 *2967:RESET_B 0
*RES
1 *2968:L_HI *2967:RESET_B 43.3784 
*END

*D_NET *856 0.000947591
*CONN
*I *3061:RESET_B I *D sg13cmos5l_dfrbpq_1
*I *3062:L_HI O *D sg13cmos5l_tiehi
*CAP
1 *3061:RESET_B 0.000449924
2 *3062:L_HI 0.000449924
3 *3061:RESET_B *3059:RESET_B 0
4 *2612:B *3061:RESET_B 0
5 *3059:D *3061:RESET_B 4.77425e-05
6 *3061:CLK *3061:RESET_B 0
7 *51:8 *3061:RESET_B 0
*RES
1 *3062:L_HI *3061:RESET_B 44.017 
*END

*D_NET *857 0.00180479
*CONN
*I *2965:RESET_B I *D sg13cmos5l_dfrbpq_1
*I *2966:L_HI O *D sg13cmos5l_tiehi
*CAP
1 *2965:RESET_B 0
2 *2966:L_HI 0.000797953
3 *857:10 0.000797953
4 *18:14 *857:10 0.000208878
5 *220:45 *857:10 0
6 *773:20 *857:10 0
7 *773:107 *857:10 0
*RES
1 *2966:L_HI *857:10 46.6332 
2 *857:10 *2965:RESET_B 40 
*END

*D_NET *858 0.00256423
*CONN
*I *3155:RESET_B I *D sg13cmos5l_dfrbpq_1
*I *3156:L_HI O *D sg13cmos5l_tiehi
*CAP
1 *3155:RESET_B 0.00010962
2 *3156:L_HI 4.46223e-05
3 *858:16 0.000625263
4 *858:8 0.000560265
5 *858:16 *2412:A 0.000181608
6 *858:16 *914:12 0.000128576
7 *858:16 *970:14 0
8 *3151:D *858:16 0.000369698
9 *3153:CLK *3155:RESET_B 0
10 *181:16 *858:16 7.51285e-05
11 *213:10 *858:8 0.000234726
12 *681:18 *3155:RESET_B 0
13 *823:14 *858:8 0.000234726
*RES
1 *3156:L_HI *858:8 41.0918 
2 *858:8 *858:16 44.0376 
3 *858:16 *3155:RESET_B 40.9682 
*END

*D_NET *859 0.00264122
*CONN
*I *2963:RESET_B I *D sg13cmos5l_dfrbpq_1
*I *2964:L_HI O *D sg13cmos5l_tiehi
*CAP
1 *2963:RESET_B 0.000855277
2 *2964:L_HI 0.000855277
3 *2963:RESET_B *2579:B 0
4 *2963:RESET_B *2963:D 0.000128618
5 *2963:RESET_B *976:22 0
6 *2963:RESET_B *1040:10 0.000240196
7 *2963:RESET_B *1138:97 0.00030522
8 *2579:A *2963:RESET_B 2.21754e-05
9 *21:18 *2963:RESET_B 8.01612e-05
10 *121:12 *2963:RESET_B 0
11 *744:48 *2963:RESET_B 4.78521e-05
12 *780:45 *2963:RESET_B 0.000106442
*RES
1 *2964:L_HI *2963:RESET_B 49.1876 
*END

*D_NET *860 0.000831434
*CONN
*I *3059:RESET_B I *D sg13cmos5l_dfrbpq_1
*I *3060:L_HI O *D sg13cmos5l_tiehi
*CAP
1 *3059:RESET_B 0.000218851
2 *3060:L_HI 7.88369e-05
3 *860:8 0.000297688
4 *860:8 *1066:8 0.000236057
5 en_ros_o[1] *860:8 0
6 *3061:RESET_B *3059:RESET_B 0
7 *3061:CLK *3059:RESET_B 0
*RES
1 *3060:L_HI *860:8 41.0918 
2 *860:8 *3059:RESET_B 41.8334 
*END

*D_NET *861 0.00608275
*CONN
*I *2961:RESET_B I *D sg13cmos5l_dfrbpq_1
*I *2962:L_HI O *D sg13cmos5l_tiehi
*CAP
1 *2961:RESET_B 0
2 *2962:L_HI 0.000555581
3 *861:18 0.00100875
4 *861:12 0.00156433
5 *861:12 *994:10 0.000370856
6 *861:18 *2961:D 0
7 config_o[25] *861:18 0.00109016
8 config_o[27] *861:12 0
9 *2516:A *861:12 0
10 *126:8 *861:12 0.000240802
11 *269:41 *861:18 0
12 *612:10 *861:18 0.000979163
13 *612:21 *861:18 0.000128248
14 *764:8 *861:12 0.000144861
*RES
1 *2962:L_HI *861:12 45.7474 
2 *861:12 *861:18 31.2064 
3 *861:18 *2961:RESET_B 20 
*END

*D_NET *862 0.000547581
*CONN
*I *3107:RESET_B I *D sg13cmos5l_dfrbpq_1
*I *3108:L_HI O *D sg13cmos5l_tiehi
*CAP
1 *3107:RESET_B 0.000273791
2 *3108:L_HI 0.000273791
3 *3107:RESET_B *2804:A 0
4 *3107:D *3107:RESET_B 0
5 *183:12 *3107:RESET_B 0
*RES
1 *3108:L_HI *3107:RESET_B 42.678 
*END

*D_NET *863 0.000919145
*CONN
*I *2959:RESET_B I *D sg13cmos5l_dfrbpq_1
*I *2960:L_HI O *D sg13cmos5l_tiehi
*CAP
1 *2959:RESET_B 0.000192688
2 *2960:L_HI 9.56601e-05
3 *863:8 0.000288348
4 *2959:RESET_B *1010:16 0
5 *863:8 *1098:14 0
6 *2959:CLK *2959:RESET_B 0
7 *267:12 *863:8 0.000342449
8 *635:27 *2959:RESET_B 0
9 *642:10 *2959:RESET_B 0
*RES
1 *2960:L_HI *863:8 41.5862 
2 *863:8 *2959:RESET_B 41.8334 
*END

*D_NET *864 0.000720107
*CONN
*I *3057:RESET_B I *D sg13cmos5l_dfrbpq_1
*I *3058:L_HI O *D sg13cmos5l_tiehi
*CAP
1 *3057:RESET_B 0.000319973
2 *3058:L_HI 0.000319973
3 *3057:RESET_B *1114:56 8.01609e-05
4 *664:254 *3057:RESET_B 0
5 *826:14 *3057:RESET_B 0
*RES
1 *3058:L_HI *3057:RESET_B 42.8634 
*END

*D_NET *865 0.0128291
*CONN
*I *3458:A I *D sg13cmos5l_buf_1
*I *2358:X O *D sg13cmos5l_mux2_1
*CAP
1 *3458:A 0.000130271
2 *2358:X 9.34316e-05
3 *865:10 0.00233984
4 *865:8 0.002303
5 *865:10 *926:34 0.00162512
6 *865:10 *1012:12 0.000926424
7 *865:10 *1021:8 0
8 *865:10 *1144:55 0.00392221
9 *2373:S *3458:A 0
10 *2580:A0 *865:10 0
11 *261:8 *865:10 0
12 *283:22 *3458:A 0
13 *607:50 *865:10 0.00129765
14 *619:8 *865:10 0
15 *639:25 *865:10 0
16 *639:44 *3458:A 7.86835e-05
17 *639:44 *865:10 0
18 *680:22 *865:8 0.000112487
*RES
1 *2358:X *865:8 40.7519 
2 *865:8 *865:10 31.003 
3 *865:10 *3458:A 41.1845 
*END

*D_NET *866 0.00582894
*CONN
*I *2957:RESET_B I *D sg13cmos5l_dfrbpq_1
*I *2958:L_HI O *D sg13cmos5l_tiehi
*CAP
1 *2957:RESET_B 0
2 *2958:L_HI 0.00081482
3 *866:16 0.00153643
4 *866:10 0.00235125
5 *866:10 *910:22 4.77537e-05
6 *866:10 *1037:10 0
7 *866:16 *2572:A1 0
8 *866:16 *905:18 0.000950851
9 config_o[28] *866:10 0
10 *2572:A0 *866:16 8.00842e-05
11 *3370:A *866:16 0
12 *3390:A *866:10 0
13 *15:16 *866:10 4.77537e-05
14 *269:47 *866:16 0
15 *286:18 *866:10 0
16 *644:10 *866:10 0
*RES
1 *2958:L_HI *866:10 47.3439 
2 *866:10 *866:16 33.2779 
3 *866:16 *2957:RESET_B 20 
*END

*D_NET *867 0.000579794
*CONN
*I *3131:RESET_B I *D sg13cmos5l_dfrbpq_1
*I *3132:L_HI O *D sg13cmos5l_tiehi
*CAP
1 *3131:RESET_B 0.000222741
2 *3132:L_HI 0.000222741
3 *3131:RESET_B *1129:50 0
4 *3131:RESET_B *1144:47 0.000134311
5 *664:111 *3131:RESET_B 0
*RES
1 *3132:L_HI *3131:RESET_B 42.1836 
*END

*D_NET *868 0.000837078
*CONN
*I *2955:RESET_B I *D sg13cmos5l_dfrbpq_1
*I *2956:L_HI O *D sg13cmos5l_tiehi
*CAP
1 *2955:RESET_B 0.000297574
2 *2956:L_HI 0.000297574
3 *2955:RESET_B *2480:A 0
4 *2955:RESET_B *1138:33 0.00024193
*RES
1 *2956:L_HI *2955:RESET_B 43.1724 
*END

*D_NET *869 0.00505647
*CONN
*I *3055:RESET_B I *D sg13cmos5l_dfrbpq_1
*I *3056:L_HI O *D sg13cmos5l_tiehi
*CAP
1 *3055:RESET_B 0.00022435
2 *3056:L_HI 0.000918384
3 *869:12 0.00114273
4 *869:12 *3049:RESET_B 0
5 *869:12 *1045:10 0.000433882
6 *3049:CLK *869:12 0.000208008
7 *3187:A *3055:RESET_B 0.000402967
8 *52:20 *3055:RESET_B 0.000370625
9 *331:36 *869:12 0.00135552
*RES
1 *3056:L_HI *869:12 49.7644 
2 *869:12 *3055:RESET_B 42.6986 
*END

*D_NET *870 0.000745228
*CONN
*I *2953:RESET_B I *D sg13cmos5l_dfrbpq_1
*I *2954:L_HI O *D sg13cmos5l_tiehi
*CAP
1 *2953:RESET_B 6.34193e-05
2 *2954:L_HI 0.000138592
3 *870:8 0.000202011
4 *870:8 *1144:55 0.000341205
5 *2955:CLK *870:8 0
*RES
1 *2954:L_HI *870:8 41.5862 
2 *870:8 *2953:RESET_B 40.5356 
*END

*D_NET *871 0.000587113
*CONN
*I *3105:RESET_B I *D sg13cmos5l_dfrbpq_1
*I *3106:L_HI O *D sg13cmos5l_tiehi
*CAP
1 *3105:RESET_B 0.000293556
2 *3106:L_HI 0.000293556
3 *3105:RESET_B *1120:46 0
4 *3105:RESET_B *1124:62 0
*RES
1 *3106:L_HI *3105:RESET_B 42.6162 
*END

*D_NET *872 0.0034986
*CONN
*I *2951:RESET_B I *D sg13cmos5l_dfrbpq_1
*I *2952:L_HI O *D sg13cmos5l_tiehi
*CAP
1 *2951:RESET_B 0.000255971
2 *2952:L_HI 0.000671199
3 *872:8 0.00092717
4 *2578:A0 *2951:RESET_B 0
5 *3196:A *2951:RESET_B 0
6 *691:10 *2951:RESET_B 8.00842e-05
7 *748:38 *872:8 0.00156418
*RES
1 *2952:L_HI *872:8 47.2718 
2 *872:8 *2951:RESET_B 42.266 
*END

*D_NET *873 0.00580345
*CONN
*I *3053:RESET_B I *D sg13cmos5l_dfrbpq_1
*I *3054:L_HI O *D sg13cmos5l_tiehi
*CAP
1 *3053:RESET_B 0
2 *3054:L_HI 0.000122455
3 *873:14 0.000946578
4 *873:8 0.00106903
5 *873:8 *1110:14 0.000176731
6 *873:14 *1031:10 0.000872464
7 *873:14 *1031:20 0.000288184
8 *873:14 *1107:16 0
9 en_ros_o[2] *873:14 0.000144702
10 *2384:A *873:14 0.000267945
11 *331:36 *873:14 0.000828718
12 *723:10 *873:14 0
13 *724:10 *873:14 0.00108664
*RES
1 *3054:L_HI *873:8 41.1845 
2 *873:8 *873:14 33.1531 
3 *873:14 *3053:RESET_B 20 
*END

*D_NET *874 0.00120086
*CONN
*I *2949:RESET_B I *D sg13cmos5l_dfrbpq_1
*I *2950:L_HI O *D sg13cmos5l_tiehi
*CAP
1 *2949:RESET_B 0.000153691
2 *2950:L_HI 0.000120498
3 *874:10 0.000274189
4 *874:10 *2471:A 4.77866e-05
5 *20:18 *874:10 0.000288088
6 *220:45 *2949:RESET_B 0
7 *220:45 *874:10 0
8 *637:37 *2949:RESET_B 0.00024139
9 *740:99 *874:10 0
10 *750:18 *874:10 7.52158e-05
*RES
1 *2950:L_HI *874:10 41.6583 
2 *874:10 *2949:RESET_B 41.6171 
*END

*D_NET *875 0.00142645
*CONN
*I *3143:RESET_B I *D sg13cmos5l_dfrbpq_1
*I *3144:L_HI O *D sg13cmos5l_tiehi
*CAP
1 *3143:RESET_B 0
2 *3144:L_HI 0.000462618
3 *875:10 0.000462618
4 *2900:A *875:10 0
5 *483:39 *875:10 0.000501217
6 *586:8 *875:10 0
7 *587:8 *875:10 0
*RES
1 *3144:L_HI *875:10 44.5938 
2 *875:10 *3143:RESET_B 40 
*END

*D_NET *876 0.0199806
*CONN
*I *2425:A I *D sg13cmos5l_or2_1
*I *2422:A I *D sg13cmos5l_nor2_1
*I *2528:A I *D sg13cmos5l_nand2_1
*I *2642:A_N I *D sg13cmos5l_nand2b_1
*I *2638:A I *D sg13cmos5l_nor2b_1
*I *2596:B I *D sg13cmos5l_nand3_1
*I *3445:X O *D sg13cmos5l_buf_1
*CAP
1 *2425:A 0
2 *2422:A 0
3 *2528:A 9.26635e-05
4 *2642:A_N 2.9351e-05
5 *2638:A 3.42464e-05
6 *2596:B 0
7 *3445:X 0.000641615
8 *876:86 0.000291386
9 *876:71 0.00069578
10 *876:63 0.000372113
11 *876:59 0.00377464
12 *876:44 0.0042825
13 *876:28 0.000745609
14 *876:14 0.000804051
15 *876:10 0.0012047
16 *2528:A *1147:46 0
17 *876:10 *1114:16 0.00053217
18 *876:10 *1125:8 0.000532247
19 *876:28 *2795:A 0
20 *876:28 *1103:20 0
21 *876:28 *1121:67 0.000289721
22 *876:59 *1084:18 4.81895e-05
23 *876:59 *1146:66 0
24 *876:59 *1149:15 0.00194053
25 *876:59 *1149:28 0.000481001
26 *876:63 *1129:22 0.000112332
27 *876:86 *1136:70 0.000129089
28 *2596:C *876:28 0
29 *2638:B_N *876:28 0
30 *2642:B *2642:A_N 4.78028e-05
31 *2795:B *876:28 0
32 *2797:A2 *876:28 0
33 *149:14 *876:10 0
34 *183:22 *876:86 0
35 *219:12 *876:10 0
36 *219:51 *876:86 0
37 *293:25 *876:59 0
38 *357:8 *876:44 0
39 *390:16 *876:59 0.00039332
40 *499:26 *876:44 0
41 *499:26 *876:59 0
42 *664:19 *876:59 0
43 *664:19 *876:71 0
44 *664:19 *876:86 0
45 *673:18 *876:59 0.000234224
46 *710:20 *876:71 2.20966e-05
47 *710:20 *876:86 0.000129281
48 *741:18 *2528:A 0.000145056
49 *741:18 *876:71 0.000629556
50 *741:20 *876:59 0
51 *741:28 *876:59 0.00108869
52 *762:18 *876:59 0
53 *763:36 *876:63 0.000112441
54 *766:55 *876:86 0
55 *767:47 *876:86 0.000144151
*RES
1 *3445:X *876:10 47.3748 
2 *876:10 *876:14 20.3193 
3 *876:14 *876:28 46.6641 
4 *876:28 *2596:B 20 
5 *876:14 *2638:A 20.3193 
6 *876:10 *876:44 4.3775 
7 *876:44 *2642:A_N 40.3193 
8 *876:44 *876:59 36.3384 
9 *876:59 *876:63 20.7519 
10 *876:63 *876:71 43.5432 
11 *876:71 *2528:A 20.9682 
12 *876:71 *876:86 43.296 
13 *876:86 *2422:A 20 
14 *876:63 *2425:A 20 
*END

*D_NET *877 0.0155765
*CONN
*I *3459:A I *D sg13cmos5l_buf_1
*I *2359:X O *D sg13cmos5l_mux2_1
*CAP
1 *3459:A 4.63369e-05
2 *2359:X 2.41961e-05
3 *877:30 0.00196197
4 *877:24 0.00201261
5 *877:18 0.00225358
6 *877:8 0.0021808
7 *3459:A *910:22 8.02431e-05
8 *877:18 *2498:B 0
9 *877:18 *905:28 0
10 *877:18 *941:8 0
11 *877:18 *960:8 0
12 *877:18 *1134:95 0.000765375
13 *877:18 *1138:33 0
14 *877:30 *905:10 0
15 *877:30 *948:10 0.000112453
16 *877:30 *1010:16 0
17 config_o[25] *877:30 0
18 config_o[26] *877:30 0
19 *2961:CLK *877:30 0
20 *3037:CLK *877:30 0
21 *3210:A *877:30 0
22 *3304:A *877:18 0.000554162
23 *14:12 *3459:A 0
24 *20:18 *877:18 0
25 *25:14 *877:30 0.00167024
26 *282:22 *877:30 0.00040213
27 *608:16 *877:18 0
28 *616:10 *877:30 7.92311e-05
29 *635:50 *877:30 0
30 *648:8 *877:18 7.9407e-05
31 *700:6 *877:18 0.000144102
32 *700:32 *877:18 0.000606694
33 *704:23 *877:30 0
34 *704:32 *877:30 0
35 *748:38 *877:24 0.000234224
36 *764:14 *877:30 0.00193507
37 *779:27 *877:18 0.0002736
38 *779:46 *877:18 0.000160112
*RES
1 *2359:X *877:8 40.3193 
2 *877:8 *877:18 41.9493 
3 *877:18 *877:24 41.0918 
4 *877:24 *877:30 41.4426 
5 *877:30 *3459:A 40.5356 
*END

*D_NET *878 0.000661292
*CONN
*I *2947:RESET_B I *D sg13cmos5l_dfrbpq_1
*I *2948:L_HI O *D sg13cmos5l_tiehi
*CAP
1 *2947:RESET_B 0.000210063
2 *2948:L_HI 0.000210063
3 *2947:RESET_B *1128:35 0.000241165
*RES
1 *2948:L_HI *2947:RESET_B 42.1836 
*END

*D_NET *879 0.00130602
*CONN
*I *3051:RESET_B I *D sg13cmos5l_dfrbpq_1
*I *3052:L_HI O *D sg13cmos5l_tiehi
*CAP
1 *3051:RESET_B 0.000532068
2 *3052:L_HI 0.000532068
3 *2618:B *3051:RESET_B 0.000241886
4 *3226:A *3051:RESET_B 0
5 *675:8 *3051:RESET_B 0
*RES
1 *3052:L_HI *3051:RESET_B 45.0264 
*END

*D_NET *880 0.0013364
*CONN
*I *2945:RESET_B I *D sg13cmos5l_dfrbpq_1
*I *2946:L_HI O *D sg13cmos5l_tiehi
*CAP
1 *2945:RESET_B 0
2 *2946:L_HI 0.000499287
3 *880:10 0.000499287
4 *3039:D *880:10 0
5 *635:27 *880:10 0.000337825
6 *639:10 *880:10 0
7 *664:152 *880:10 0
8 *664:293 *880:10 0
9 *854:14 *880:10 0
*RES
1 *2946:L_HI *880:10 45.0882 
2 *880:10 *2945:RESET_B 40 
*END

*D_NET *881 0.00168948
*CONN
*I *3103:RESET_B I *D sg13cmos5l_dfrbpq_1
*I *3104:L_HI O *D sg13cmos5l_tiehi
*CAP
1 *3103:RESET_B 6.20796e-05
2 *3104:L_HI 0.000559189
3 *881:8 0.000621269
4 *881:8 *1125:12 0
5 *157:8 *881:8 0
6 *219:12 *881:8 0
7 *500:10 *881:8 0
8 *501:8 *881:8 0.00044694
9 *765:27 *881:8 0
*RES
1 *3104:L_HI *881:8 46.0358 
2 *881:8 *3103:RESET_B 40.5356 
*END

*D_NET *882 0.00114107
*CONN
*I *2943:RESET_B I *D sg13cmos5l_dfrbpq_1
*I *2944:L_HI O *D sg13cmos5l_tiehi
*CAP
1 *2943:RESET_B 7.84009e-05
2 *2944:L_HI 0.00029485
3 *882:10 0.000373251
4 *882:10 *2462:B 0
5 *882:10 *2943:D 0
6 *3289:A *882:10 0
7 *733:83 *882:10 0.000394566
*RES
1 *2944:L_HI *882:10 43.0179 
2 *882:10 *2943:RESET_B 40.7519 
*END

*D_NET *883 0.0009086
*CONN
*I *3049:RESET_B I *D sg13cmos5l_dfrbpq_1
*I *3050:L_HI O *D sg13cmos5l_tiehi
*CAP
1 *3049:RESET_B 0.000382222
2 *3050:L_HI 0.000382222
3 *3049:D *3049:RESET_B 0
4 *3049:CLK *3049:RESET_B 0
5 *730:41 *3049:RESET_B 0
6 *731:8 *3049:RESET_B 0
7 *768:35 *3049:RESET_B 0.000144157
8 *869:12 *3049:RESET_B 0
*RES
1 *3050:L_HI *3049:RESET_B 43.5638 
*END

*D_NET *884 0.00230599
*CONN
*I *2941:RESET_B I *D sg13cmos5l_dfrbpq_1
*I *2942:L_HI O *D sg13cmos5l_tiehi
*CAP
1 *2941:RESET_B 0.000232599
2 *2942:L_HI 0.000696807
3 *884:8 0.000929406
4 *884:8 *1097:14 0
5 *884:8 *1139:138 0
6 config_o[7] *884:8 0
7 *601:40 *884:8 0.000447182
8 *733:83 *884:8 0
9 *734:107 *2941:RESET_B 0
*RES
1 *2942:L_HI *884:8 47.2718 
2 *884:8 *2941:RESET_B 42.266 
*END

*D_NET *885 0.00107538
*CONN
*I *3129:RESET_B I *D sg13cmos5l_dfrbpq_1
*I *3130:L_HI O *D sg13cmos5l_tiehi
*CAP
1 *3129:RESET_B 0
2 *3130:L_HI 0.000287792
3 *885:10 0.000287792
4 *557:12 *885:10 0.000499799
5 *559:18 *885:10 0
*RES
1 *3130:L_HI *885:10 42.8634 
2 *885:10 *3129:RESET_B 40 
*END

*D_NET *886 0.00192901
*CONN
*I *2939:RESET_B I *D sg13cmos5l_dfrbpq_1
*I *2940:L_HI O *D sg13cmos5l_tiehi
*CAP
1 *2939:RESET_B 0.000426289
2 *2940:L_HI 0.000231914
3 *886:8 0.000658203
4 *2939:RESET_B *1128:27 0.000564862
5 *2939:RESET_B *1139:88 0
6 *886:8 *1010:22 0
7 *886:8 *1050:8 0
8 *3251:A *2939:RESET_B 4.77425e-05
9 *3403:A *2939:RESET_B 0
10 *262:10 *2939:RESET_B 0
11 *762:123 *2939:RESET_B 0
*RES
1 *2940:L_HI *886:8 42.3278 
2 *886:8 *2939:RESET_B 44.429 
*END

*D_NET *887 0.00620588
*CONN
*I *3047:RESET_B I *D sg13cmos5l_dfrbpq_1
*I *3048:L_HI O *D sg13cmos5l_tiehi
*CAP
1 *3047:RESET_B 0
2 *3048:L_HI 0.000130455
3 *887:14 0.000902105
4 *887:8 0.00103256
5 *887:14 *2983:D 0
6 *887:14 *950:10 0.00135338
7 *887:14 *1011:10 0.000820067
8 *887:14 *1043:10 0
9 *887:14 *1065:12 0
10 *887:14 *1076:16 0.000181608
11 *887:14 *1076:22 0
12 *30:12 *887:14 7.52158e-05
13 *30:20 *887:14 0
14 *225:53 *887:8 0
15 *329:14 *887:14 0.000144658
16 *696:41 *887:14 0.00156584
*RES
1 *3048:L_HI *887:8 40.9682 
2 *887:8 *887:14 33.9256 
3 *887:14 *3047:RESET_B 20 
*END

*D_NET *888 0.0104957
*CONN
*I *3460:A I *D sg13cmos5l_buf_1
*I *2362:Y O *D sg13cmos5l_o21ai_1
*CAP
1 *3460:A 0
2 *2362:Y 0.000362196
3 *888:30 0.00186726
4 *888:26 0.00327706
5 *888:10 0.001772
6 *888:26 *899:22 0
7 config_o[26] *888:30 0
8 config_o[27] *888:30 0
9 *2374:A1 *888:30 0
10 *2505:A *888:26 0
11 *2590:A0 *888:26 0.00046655
12 *3281:A *888:26 0.000240196
13 *3370:A *888:30 0
14 *90:12 *888:26 0.000144976
15 *126:14 *888:30 0
16 *277:22 *888:26 0
17 *278:14 *888:10 0.000273452
18 *280:18 *888:26 0.000563172
19 *645:28 *888:26 0.000401316
20 *670:12 *888:26 0.000255975
21 *701:22 *888:26 0
22 *748:38 *888:10 0
23 *776:73 *888:30 0
24 *776:114 *888:30 0
25 *778:51 *888:10 0
26 *850:8 *888:30 0.000871525
*RES
1 *2362:Y *888:10 43.1724 
2 *888:10 *888:26 34.4097 
3 *888:26 *888:30 38.3958 
4 *888:30 *3460:A 40 
*END

*D_NET *889 0.000896087
*CONN
*I *2937:RESET_B I *D sg13cmos5l_dfrbpq_1
*I *2938:L_HI O *D sg13cmos5l_tiehi
*CAP
1 *2937:RESET_B 0.000303609
2 *2938:L_HI 0.000303609
3 *2937:RESET_B *2478:A 0
4 *2937:RESET_B *2478:B 0
5 *2937:RESET_B *2937:D 0
6 *3019:CLK *2937:RESET_B 0.000288869
*RES
1 *2938:L_HI *2937:RESET_B 43.399 
*END

*D_NET *890 0.00367037
*CONN
*I *3101:RESET_B I *D sg13cmos5l_dfrbpq_1
*I *3102:L_HI O *D sg13cmos5l_tiehi
*CAP
1 *3101:RESET_B 0
2 *3102:L_HI 0.000646937
3 *890:12 0.000646937
4 *890:12 *911:10 0
5 *890:12 *1114:16 0
6 *890:12 *1130:46 0.000209648
7 *890:12 *1136:20 0
8 *890:12 *1145:10 0
9 *890:12 *1154:16 0.0002421
10 *2778:B1 *890:12 0.000924643
11 *156:8 *890:12 0
12 *481:31 *890:12 0.000871854
13 *497:14 *890:12 0.000128247
*RES
1 *3102:L_HI *890:12 49.1464 
2 *890:12 *3101:RESET_B 40 
*END

*D_NET *891 0.00106658
*CONN
*I *2935:RESET_B I *D sg13cmos5l_dfrbpq_1
*I *2936:L_HI O *D sg13cmos5l_tiehi
*CAP
1 *2935:RESET_B 0
2 *2936:L_HI 0.000278339
3 *891:10 0.000278339
4 *2450:C *891:10 0
5 *73:10 *891:10 0.000235141
6 *225:53 *891:10 0.000274765
7 *733:83 *891:10 0
*RES
1 *2936:L_HI *891:10 43.4196 
2 *891:10 *2935:RESET_B 40 
*END

*D_NET *892 0.00110267
*CONN
*I *3045:RESET_B I *D sg13cmos5l_dfrbpq_1
*I *3046:L_HI O *D sg13cmos5l_tiehi
*CAP
1 *3045:RESET_B 0.000324493
2 *3046:L_HI 0.000324493
3 *3045:RESET_B *2593:B 0.000208041
4 *2521:B *3045:RESET_B 0
5 *2981:RESET_B *3045:RESET_B 0
6 *3045:D *3045:RESET_B 0.000175721
7 *225:53 *3045:RESET_B 6.99179e-05
*RES
1 *3046:L_HI *3045:RESET_B 43.811 
*END

*D_NET *893 0.00060897
*CONN
*I *2933:RESET_B I *D sg13cmos5l_dfrbpq_1
*I *2934:L_HI O *D sg13cmos5l_tiehi
*CAP
1 *2933:RESET_B 0.000175927
2 *2934:L_HI 0.000175927
3 *2447:B *2933:RESET_B 4.77425e-05
4 *2450:B *2933:RESET_B 0
5 *225:53 *2933:RESET_B 0.000209374
*RES
1 *2934:L_HI *2933:RESET_B 41.8334 
*END

*D_NET *894 0.00122693
*CONN
*I *3149:RESET_B I *D sg13cmos5l_dfrbpq_1
*I *3150:L_HI O *D sg13cmos5l_tiehi
*CAP
1 *3149:RESET_B 0.000613465
2 *3150:L_HI 0.000613465
3 *3149:RESET_B *3149:D 0
4 *3149:RESET_B *896:8 0
5 *3149:RESET_B *973:16 0
6 *3149:RESET_B *1032:16 0
7 *2910:A1 *3149:RESET_B 0
8 *3147:RESET_B *3149:RESET_B 0
9 *3334:A *3149:RESET_B 0
*RES
1 *3150:L_HI *3149:RESET_B 45.5208 
*END

*D_NET *895 0.00160744
*CONN
*I *2931:RESET_B I *D sg13cmos5l_dfrbpq_1
*I *2932:L_HI O *D sg13cmos5l_tiehi
*CAP
1 *2931:RESET_B 0.000596512
2 *2932:L_HI 0.000596512
3 *2931:RESET_B *1140:32 8.01609e-05
4 *2931:RESET_B *1140:39 0
5 *3324:A *2931:RESET_B 0.00017562
6 *224:18 *2931:RESET_B 0
7 *225:18 *2931:RESET_B 0
8 *225:31 *2931:RESET_B 4.78028e-05
9 *238:14 *2931:RESET_B 0.000110829
10 *611:16 *2931:RESET_B 0
*RES
1 *2932:L_HI *2931:RESET_B 46.3036 
*END

*D_NET *896 0.0114018
*CONN
*I *3043:RESET_B I *D sg13cmos5l_dfrbpq_1
*I *3044:L_HI O *D sg13cmos5l_tiehi
*CAP
1 *3043:RESET_B 0
2 *3044:L_HI 0.000316014
3 *896:14 0.00252956
4 *896:8 0.00284557
5 *896:8 *1129:50 0
6 *3147:RESET_B *896:8 0
7 *3149:RESET_B *896:8 0
8 *3287:A *896:14 0.00014391
9 *27:10 *896:14 0
10 *277:22 *896:14 0.000111568
11 *317:12 *896:14 0.00264109
12 *773:65 *896:14 0.000341216
13 *791:18 *896:14 0.0024729
*RES
1 *3044:L_HI *896:8 42.6986 
2 *896:8 *896:14 48.2632 
3 *896:14 *3043:RESET_B 20 
*END

*D_NET *897 0.00133168
*CONN
*I *2929:RESET_B I *D sg13cmos5l_dfrbpq_1
*I *2930:L_HI O *D sg13cmos5l_tiehi
*CAP
1 *2929:RESET_B 0.000181362
2 *2930:L_HI 0.000183125
3 *897:10 0.000364487
4 *897:10 *1125:37 8.01283e-05
5 *2441:B *2929:RESET_B 0
6 *2441:B *897:10 0
7 *2453:A *2929:RESET_B 0.000272955
8 *2454:C *2929:RESET_B 1.54008e-05
9 *242:12 *897:10 0.000234224
*RES
1 *2930:L_HI *897:10 42.1218 
2 *897:10 *2929:RESET_B 41.8334 
*END

*D_NET *898 0.0016908
*CONN
*I *3099:RESET_B I *D sg13cmos5l_dfrbpq_1
*I *3100:L_HI O *D sg13cmos5l_tiehi
*CAP
1 *3099:RESET_B 0.00054788
2 *3100:L_HI 0.00054788
3 *3099:RESET_B *2783:A2 0
4 *3099:RESET_B *1121:38 0.000338246
5 *3099:RESET_B *1147:24 0
6 *3099:RESET_B *1156:31 0
7 *2784:B1 *3099:RESET_B 0
8 *155:10 *3099:RESET_B 0.000256791
9 *199:8 *3099:RESET_B 0
10 *209:29 *3099:RESET_B 0
*RES
1 *3100:L_HI *3099:RESET_B 45.9946 
*END

*D_NET *899 0.0142792
*CONN
*I *3461:A I *D sg13cmos5l_buf_1
*I *2363:X O *D sg13cmos5l_mux2_1
*CAP
1 *3461:A 0
2 *2363:X 0.000230452
3 *899:26 0.00162576
4 *899:22 0.00343791
5 *899:10 0.00204261
6 *899:10 *1134:110 0.000234224
7 *899:22 *2582:A1 4.77425e-05
8 *899:22 *916:12 0.00011159
9 *899:22 *916:22 0
10 *899:26 *1032:8 0.00352976
11 *899:26 *1038:10 0.00049947
12 config_o[28] *899:26 0
13 *2367:S *899:22 0.000112308
14 *2582:A0 *899:22 0
15 *2590:A0 *899:22 0
16 *2971:RESET_B *899:22 0
17 *3035:D *899:22 0.000274228
18 *3207:A *899:22 0
19 *3347:A *899:22 4.77863e-05
20 *3392:A *899:22 8.02379e-05
21 *251:30 *899:22 0.000531634
22 *640:51 *899:22 0.000869221
23 *670:12 *899:22 0
24 *741:145 *899:10 0.000235153
25 *753:52 *899:26 0
26 *753:58 *899:26 0.00012816
27 *764:14 *899:22 0
28 *778:35 *899:26 0
29 *778:45 *899:26 0
30 *778:51 *899:22 0
31 *782:10 *899:22 0
32 *782:16 *899:22 0.000240957
33 *888:26 *899:22 0
*RES
1 *2363:X *899:10 42.4926 
2 *899:10 *899:22 37.6645 
3 *899:22 *899:26 39.879 
4 *899:26 *3461:A 40 
*END

*D_NET *900 0.00282914
*CONN
*I *2927:RESET_B I *D sg13cmos5l_dfrbpq_1
*I *2928:L_HI O *D sg13cmos5l_tiehi
*CAP
1 *2927:RESET_B 5.61002e-05
2 *2928:L_HI 0.00035506
3 *900:8 0.00041116
4 *2927:RESET_B *902:8 8.00842e-05
5 *900:8 *1095:42 0.00124565
6 *900:8 *1114:96 0.000552831
7 *306:41 *900:8 0.000128248
8 *685:17 *900:8 0
*RES
1 *2928:L_HI *900:8 45.7886 
2 *900:8 *2927:RESET_B 40.5356 
*END

*D_NET *901 0.0194758
*CONN
*I *3041:RESET_B I *D sg13cmos5l_dfrbpq_1
*I *3042:L_HI O *D sg13cmos5l_tiehi
*CAP
1 *3041:RESET_B 0.00028491
2 *3042:L_HI 0.000284164
3 *901:26 0.000987357
4 *901:22 0.00267659
5 *901:16 0.00271797
6 *901:10 0.00102799
7 *3041:RESET_B *915:20 0
8 *901:10 *3147:D 0
9 *901:10 *1032:16 0.000128248
10 *901:16 *2909:B1 0
11 *901:22 *2579:B 0.000110829
12 *901:22 *976:22 0.00134686
13 *901:22 *976:26 0
14 *901:22 *1017:10 0
15 *901:22 *1018:10 0.000340704
16 *901:22 *1134:39 0.00156468
17 *901:22 *1155:59 0
18 *901:22 *1155:72 0
19 *901:26 *943:14 0.00289205
20 *901:26 *1019:10 0
21 config_o[25] *901:22 0
22 config_o[25] *901:26 0.00338094
23 *2907:A *901:16 0.000176586
24 *2909:A1 *901:16 0
25 *2909:A1 *901:22 0
26 *2910:A1 *901:16 0
27 *2910:B1 *901:16 0.000596992
28 *3041:CLK *3041:RESET_B 0
29 *3147:RESET_B *901:10 0
30 *23:10 *901:22 0
31 *26:10 *901:16 0
32 *29:12 *901:16 0
33 *121:12 *901:22 0
34 *285:12 *901:10 0.000339135
35 *285:12 *901:16 0
36 *290:10 *901:22 0
37 *320:12 *901:22 7.56299e-05
38 *592:10 *901:16 0
39 *596:8 *901:22 0.000234726
40 *664:414 *901:22 0
41 *667:8 *901:22 0
42 *746:71 *901:22 0
43 *756:52 *901:22 0
44 *773:42 *901:22 0.000128247
45 *780:64 *901:26 0.000181192
46 *791:8 *901:10 0
*RES
1 *3042:L_HI *901:10 43.1106 
2 *901:10 *901:16 47.2409 
3 *901:16 *901:22 42.8557 
4 *901:22 *901:26 35.6766 
5 *901:26 *3041:RESET_B 42.6986 
*END

*D_NET *902 0.00506114
*CONN
*I *2925:RESET_B I *D sg13cmos5l_dfrbpq_1
*I *2926:L_HI O *D sg13cmos5l_tiehi
*CAP
1 *2925:RESET_B 0
2 *2926:L_HI 0.00110302
3 *902:18 0.000471156
4 *902:8 0.00157418
5 *902:8 *2466:A 0.000274189
6 *902:8 *2564:B 0
7 *902:8 *924:8 0
8 *902:18 *1087:8 0
9 *2927:RESET_B *902:8 8.00842e-05
10 *3190:A *902:18 0
11 *3302:A *902:8 0.000209505
12 *3315:A *902:8 0
13 *241:37 *902:8 0.000241886
14 *246:8 *902:8 0
15 *252:10 *902:8 0
16 *306:35 *902:18 0.000662387
17 *626:14 *902:8 0.000112426
18 *664:180 *902:8 0
19 *664:188 *902:8 0
20 *677:20 *902:18 0
21 *687:12 *902:18 0
22 *758:141 *902:8 4.77425e-05
23 *770:68 *902:18 7.51285e-05
24 *770:74 *902:8 0.000209438
*RES
1 *2926:L_HI *902:8 30.3377 
2 *902:8 *902:18 45.3457 
3 *902:18 *2925:RESET_B 20 
*END

*D_NET *903 0.00158276
*CONN
*I *3127:RESET_B I *D sg13cmos5l_dfrbpq_1
*I *3128:L_HI O *D sg13cmos5l_tiehi
*CAP
1 *3127:RESET_B 4.37077e-05
2 *3128:L_HI 0.000228725
3 *903:10 0.000272433
4 *3127:RESET_B *1132:98 8.00842e-05
5 *903:10 *1117:73 4.77425e-05
6 *903:10 *1117:85 0.00012816
7 *903:10 *1117:108 0.000289479
8 *903:10 *1132:98 0.000337221
9 *358:96 *903:10 7.51285e-05
10 *745:47 *3127:RESET_B 8.00842e-05
*RES
1 *3128:L_HI *903:10 42.8634 
2 *903:10 *3127:RESET_B 40.5356 
*END

*D_NET *904 0.00180359
*CONN
*I *2923:RESET_B I *D sg13cmos5l_dfrbpq_1
*I *2924:L_HI O *D sg13cmos5l_tiehi
*CAP
1 *2923:RESET_B 0.000692732
2 *2924:L_HI 0.000692732
3 *2923:RESET_B *1129:80 0.000176994
4 *2432:C *2923:RESET_B 0.000241132
5 *236:12 *2923:RESET_B 0
6 *659:20 *2923:RESET_B 0
7 *661:18 *2923:RESET_B 0
*RES
1 *2924:L_HI *2923:RESET_B 46.8598 
*END

*D_NET *905 0.0121932
*CONN
*I *3039:RESET_B I *D sg13cmos5l_dfrbpq_1
*I *3040:L_HI O *D sg13cmos5l_tiehi
*CAP
1 *3039:RESET_B 0.000623672
2 *3040:L_HI 0.000366605
3 *905:28 0.00152353
4 *905:18 0.00167887
5 *905:10 0.00114562
6 *3039:RESET_B *912:32 0.000336988
7 *3039:RESET_B *1010:16 0
8 *905:18 *2572:S 0.000240614
9 *905:18 *1010:8 0.000554164
10 config_o[25] *905:10 0
11 *3039:D *3039:RESET_B 0
12 *3209:A *905:28 0.000529883
13 *16:26 *905:28 0
14 *18:24 *3039:RESET_B 0.000446767
15 *20:18 *3039:RESET_B 0.000448209
16 *25:14 *905:10 0.000978834
17 *269:47 *905:28 0
18 *282:22 *905:28 0.000240196
19 *603:8 *3039:RESET_B 0.000530885
20 *639:10 *3039:RESET_B 0
21 *648:8 *905:28 7.9407e-05
22 *700:6 *905:28 4.77425e-05
23 *704:23 *905:28 0.000272747
24 *704:32 *905:28 0.000272648
25 *744:60 *905:10 0.000924972
26 *750:60 *905:18 0
27 *866:16 *905:18 0.000950851
28 *877:18 *905:28 0
29 *877:30 *905:10 0
*RES
1 *3040:L_HI *905:10 46.1079 
2 *905:10 *905:18 48.9507 
3 *905:18 *905:28 48.7756 
4 *905:28 *3039:RESET_B 47.3748 
*END

*D_NET *906 0.00257213
*CONN
*I *2921:RESET_B I *D sg13cmos5l_dfrbpq_1
*I *2922:L_HI O *D sg13cmos5l_tiehi
*CAP
1 *2921:RESET_B 0.000238084
2 *2922:L_HI 0.000416994
3 *906:8 0.000655079
4 *2921:RESET_B *987:46 0
5 *906:8 *1103:41 0
6 *906:8 *1129:105 0
7 *2429:C *2921:RESET_B 0
8 *66:18 *2921:RESET_B 1.54008e-05
9 *732:37 *906:8 0
10 *734:103 *906:8 0.00124657
11 *771:58 *906:8 0
*RES
1 *2922:L_HI *906:8 45.7886 
2 *906:8 *2921:RESET_B 42.266 
*END

*D_NET *907 0.00188095
*CONN
*I *3161:RESET_B I *D sg13cmos5l_dfrbpq_1
*I *3162:L_HI O *D sg13cmos5l_tiehi
*CAP
1 *3161:RESET_B 0.000147842
2 *3162:L_HI 0.000568583
3 *907:10 0.000716424
4 *907:10 *2420:B 0
5 *907:10 *908:8 0
6 *907:10 *1118:10 0
7 *2419:B *3161:RESET_B 0
8 *65:10 *907:10 0
9 *210:10 *907:10 0.0004481
10 *215:24 *907:10 0
11 *217:8 *907:10 0
12 *788:12 *3161:RESET_B 0
*RES
1 *3162:L_HI *907:10 46.0152 
2 *907:10 *3161:RESET_B 41.4008 
*END

*D_NET *908 0.000967164
*CONN
*I *3159:RESET_B I *D sg13cmos5l_dfrbpq_1
*I *3160:L_HI O *D sg13cmos5l_tiehi
*CAP
1 *3159:RESET_B 5.31248e-05
2 *3160:L_HI 0.000430457
3 *908:8 0.000483582
4 *908:8 *968:8 0
5 *908:8 *1118:10 0
6 *2419:B *3159:RESET_B 0
7 *187:10 *908:8 0
8 *210:10 *908:8 0
9 *788:12 *3159:RESET_B 0
10 *907:10 *908:8 0
*RES
1 *3160:L_HI *908:8 44.0582 
2 *908:8 *3159:RESET_B 40.5356 
*END

*D_NET *909 0.00129504
*CONN
*I *3157:RESET_B I *D sg13cmos5l_dfrbpq_1
*I *3158:L_HI O *D sg13cmos5l_tiehi
*CAP
1 *3157:RESET_B 0.000575465
2 *3158:L_HI 0.000575465
3 *3157:RESET_B *970:8 0.000144107
4 *3157:RESET_B *1160:8 0
*RES
1 *3158:L_HI *3157:RESET_B 45.7474 
*END

*D_NET *910 0.00652254
*CONN
*I *3462:A I *D sg13cmos5l_buf_1
*I *2364:X O *D sg13cmos5l_mux2_1
*CAP
1 *3462:A 0
2 *2364:X 0.000897171
3 *910:22 0.00138147
4 *910:12 0.00227864
5 *910:22 *2585:B 0.000176681
6 *910:22 *2589:B 0
7 *910:22 *994:10 0
8 config_o[22] *910:12 0
9 *2372:A1 *910:12 0
10 *2490:A *910:22 0.000209676
11 *2511:A *910:12 0
12 *2516:A *910:22 0.0010826
13 *2516:B *910:22 0
14 *2584:A0 *910:12 0
15 *2589:A *910:22 0.00011184
16 *3282:A *910:12 0.00014391
17 *3290:A *910:12 6.47382e-05
18 *3290:A *910:22 0
19 *3459:A *910:22 8.02431e-05
20 *12:10 *910:22 0
21 *14:12 *910:22 0
22 *15:16 *910:22 0
23 *19:10 *910:12 0
24 *20:24 *910:12 0
25 *282:32 *910:12 0
26 *618:12 *910:12 4.78195e-05
27 *866:10 *910:22 4.77537e-05
*RES
1 *2364:X *910:12 47.7827 
2 *910:12 *910:22 34.3479 
3 *910:22 *3462:A 20 
*END

*D_NET *911 0.00312062
*CONN
*I *3097:RESET_B I *D sg13cmos5l_dfrbpq_1
*I *3098:L_HI O *D sg13cmos5l_tiehi
*CAP
1 *3097:RESET_B 0
2 *3098:L_HI 0.00077394
3 *911:10 0.00077394
4 *911:10 *2771:B 0
5 *911:10 *987:8 0
6 *911:10 *1113:52 0.000447269
7 *911:10 *1113:82 0.000850674
8 *911:10 *1114:16 0
9 *911:10 *1130:46 0.000274798
10 *154:10 *911:10 0
11 *890:12 *911:10 0
*RES
1 *3098:L_HI *911:10 48.858 
2 *911:10 *3097:RESET_B 40 
*END

*D_NET *912 0.00924547
*CONN
*I *3037:RESET_B I *D sg13cmos5l_dfrbpq_1
*I *3038:L_HI O *D sg13cmos5l_tiehi
*CAP
1 *3037:RESET_B 0
2 *3038:L_HI 0.000441847
3 *912:32 0.00143261
4 *912:26 0.00242293
5 *912:14 0.00143218
6 *912:14 *2510:B 0.000144358
7 *912:32 *926:28 0
8 *912:32 *927:14 0
9 *912:32 *1010:16 0
10 *2362:A2 *912:26 0.000144768
11 *3033:CLK *912:32 0
12 *3039:RESET_B *912:32 0.000336988
13 *3039:D *912:32 0
14 *3203:A *912:14 0.000690989
15 *16:20 *912:14 0.000660227
16 *186:26 *912:26 0.000714489
17 *241:37 *912:26 0
18 *263:37 *912:14 0
19 *263:43 *912:14 0
20 *281:22 *912:26 0.000288502
21 *609:8 *912:32 0
22 *635:50 *912:32 0
23 *664:130 *912:26 0
24 *664:327 *912:26 0
25 *668:12 *912:14 0.00018128
26 *700:32 *912:32 0.000274096
27 *848:12 *912:32 8.0216e-05
*RES
1 *3038:L_HI *912:14 46.8083 
2 *912:14 *912:26 49.5893 
3 *912:26 *912:32 32.9018 
4 *912:32 *3037:RESET_B 20 
*END

*D_NET *913 0.000848101
*CONN
*I *3141:RESET_B I *D sg13cmos5l_dfrbpq_1
*I *3142:L_HI O *D sg13cmos5l_tiehi
*CAP
1 *3141:RESET_B 0.000254461
2 *3142:L_HI 0.000254461
3 *3237:A *3141:RESET_B 0.000339179
4 *741:80 *3141:RESET_B 0
5 *743:33 *3141:RESET_B 0
*RES
1 *3142:L_HI *3141:RESET_B 42.6162 
*END

*D_NET *914 0.00654336
*CONN
*I *2412:A I *D sg13cmos5l_nand3_1
*I *2917:A I *D sg13cmos5l_xnor2_1
*I *2415:A I *D sg13cmos5l_nand4_1
*I *2916:A I *D sg13cmos5l_nor2_1
*I *2409:A I *D sg13cmos5l_nand2_1
*I *3279:X O *D sg13cmos5l_dlygate4sd3_1
*CAP
1 *2412:A 0.000271261
2 *2917:A 0.00031035
3 *2415:A 2.49087e-05
4 *2916:A 0.000191379
5 *2409:A 8.69607e-05
6 *3279:X 7.72806e-05
7 *914:27 0.000341682
8 *914:25 0.000583067
9 *914:12 0.000374168
10 *914:8 0.000488428
11 *2412:A *2412:B 0.000480193
12 *2412:A *970:14 0
13 *2917:A *2917:B 0
14 *914:12 *2412:B 0.000341205
15 *914:12 *969:38 0.00012816
16 *914:25 *970:14 0.000448209
17 *914:27 *970:14 0.000182313
18 *2410:B *2917:A 0.000369266
19 *2918:A *2409:A 3.96571e-05
20 *3151:D *914:8 4.71556e-05
21 *5:6 *2916:A 0
22 *62:10 *2917:A 0.000175799
23 *181:16 *2916:A 2.20966e-05
24 *181:16 *2917:A 0
25 *181:16 *914:12 7.51285e-05
26 *181:16 *914:25 0.000426112
27 *181:16 *914:27 0.000427969
28 *210:46 *2409:A 6.46834e-05
29 *210:46 *914:25 7.87737e-05
30 *787:12 *2916:A 0.000176965
31 *787:12 *2917:A 0
32 *858:16 *2412:A 0.000181608
33 *858:16 *914:12 0.000128576
*RES
1 *3279:X *914:8 40.7519 
2 *914:8 *914:12 22.0806 
3 *914:12 *2409:A 20.6978 
4 *914:12 *914:25 22.6162 
5 *914:25 *914:27 2.0806 
6 *914:27 *2916:A 42.0291 
7 *914:27 *2415:A 40.3193 
8 *914:25 *2917:A 43.3475 
9 *914:8 *2412:A 43.5123 
*END

*D_NET *915 0.00318108
*CONN
*I *2506:A I *D sg13cmos5l_nand2_1
*I *3280:X O *D sg13cmos5l_dlygate4sd3_1
*CAP
1 *2506:A 0
2 *3280:X 0.00106724
3 *915:20 0.00106724
4 *915:20 *2961:D 0
5 *915:20 *1127:72 0
6 *3025:D *915:20 0.000175655
7 *3041:RESET_B *915:20 0
8 *126:14 *915:20 8.01172e-05
9 *270:22 *915:20 0
10 *635:50 *915:20 0
11 *776:71 *915:20 0.000790835
12 *776:114 *915:20 0
*RES
1 *3280:X *915:20 30.6605 
2 *915:20 *2506:A 20 
*END

*D_NET *916 0.00191115
*CONN
*I *2971:D I *D sg13cmos5l_dfrbpq_1
*I *3281:X O *D sg13cmos5l_dlygate4sd3_1
*CAP
1 *2971:D 0
2 *3281:X 0.000156138
3 *916:22 0.000290081
4 *916:12 0.000446219
5 config_o[23] *916:22 0.00018128
6 *613:14 *916:22 0
7 *640:51 *916:12 0.00011159
8 *745:102 *916:22 0.000112634
9 *782:10 *916:22 4.75229e-05
10 *782:16 *916:22 0.000272907
11 *848:12 *916:12 0.000181192
12 *899:22 *916:12 0.00011159
13 *899:22 *916:22 0
*RES
1 *3281:X *916:12 41.9158 
2 *916:12 *916:22 43.2136 
3 *916:22 *2971:D 40 
*END

*D_NET *917 0.00661979
*CONN
*I *2503:A I *D sg13cmos5l_nand2_1
*I *3282:X O *D sg13cmos5l_dlygate4sd3_1
*CAP
1 *2503:A 0
2 *3282:X 0.000192341
3 *917:18 0.000873184
4 *917:12 0.00286878
5 *917:8 0.00218794
6 config_o[29] *917:18 0
7 config_o[30] *917:18 0
8 *3224:A *917:12 0.000209374
9 *3224:A *917:18 0
10 *268:20 *917:8 0.000288173
11 *705:12 *917:18 0
*RES
1 *3282:X *917:8 41.339 
2 *917:8 *917:12 35.8929 
3 *917:12 *917:18 47.0246 
4 *917:18 *2503:A 20 
*END

*D_NET *918 0.000368351
*CONN
*I *2969:D I *D sg13cmos5l_dfrbpq_1
*I *3283:X O *D sg13cmos5l_dlygate4sd3_1
*CAP
1 *2969:D 0.000176475
2 *3283:X 0.000176475
3 *2969:D *2465:A 1.54008e-05
4 *277:22 *2969:D 0
5 *664:327 *2969:D 0
*RES
1 *3283:X *2969:D 41.5347 
*END

*D_NET *919 0.00434131
*CONN
*I *2512:A I *D sg13cmos5l_nand2_1
*I *3284:X O *D sg13cmos5l_dlygate4sd3_1
*CAP
1 *2512:A 0
2 *3284:X 0.00114001
3 *919:14 0.00114001
4 *919:14 *2586:A1 0.00011247
5 *919:14 *1042:14 4.79124e-05
6 config_o[14] *919:14 0
7 *2373:S *919:14 0.00030533
8 *2487:A *919:14 0.000102286
9 *2513:B *919:14 0
10 *2569:A0 *919:14 0
11 *2586:A0 *919:14 0.000694471
12 *3396:A *919:14 9.00289e-05
13 *3455:A *919:14 0
14 *325:10 *919:14 0.000176718
15 *610:33 *919:14 0.000339245
16 *610:48 *919:14 0.000192827
17 *775:87 *919:14 0
*RES
1 *3284:X *919:14 32.566 
2 *919:14 *2512:A 20 
*END

*D_NET *920 0.00302145
*CONN
*I *2975:D I *D sg13cmos5l_dfrbpq_1
*I *3285:X O *D sg13cmos5l_dlygate4sd3_1
*CAP
1 *2975:D 0.000699106
2 *3285:X 0.000377438
3 *920:10 0.00107654
4 *2975:D *1012:12 0.000418489
5 *2504:A *2975:D 0.000273683
6 *18:24 *920:10 0
7 *607:50 *2975:D 0.00017619
8 *741:145 *920:10 0
*RES
1 *3285:X *920:10 43.3887 
2 *920:10 *2975:D 46.8804 
*END

*D_NET *921 0.00744489
*CONN
*I *3463:A I *D sg13cmos5l_buf_1
*I *2365:X O *D sg13cmos5l_mux2_1
*CAP
1 *3463:A 0
2 *2365:X 2.41961e-05
3 *921:12 0.0011462
4 *921:8 0.0011704
5 *921:12 *1029:8 0
6 *2489:B *921:12 0
7 *3395:A *921:12 0.000447597
8 *251:36 *921:12 0.000181192
9 *642:27 *921:12 0.000289003
10 *742:94 *921:12 0.00108407
11 *751:48 *921:12 0
12 *775:38 *921:12 0.000129077
13 *775:57 *921:12 0.000288087
14 *775:72 *921:12 0
15 *779:23 *921:12 0.00268507
*RES
1 *2365:X *921:8 40.3193 
2 *921:8 *921:12 37.1598 
3 *921:12 *3463:A 20 
*END

*D_NET *922 0.0129243
*CONN
*I *2518:A I *D sg13cmos5l_nand2_1
*I *3286:X O *D sg13cmos5l_dlygate4sd3_1
*CAP
1 *2518:A 0
2 *3286:X 0
3 *922:12 0.0012976
4 *922:6 0.0012976
5 *922:12 *935:8 0.00578657
6 *922:12 *944:12 0
7 *922:12 *1076:22 0
8 *922:12 *1129:54 0
9 config_o[31] *922:12 0
10 *225:59 *922:12 0.000234726
11 *285:32 *922:12 0.00338104
12 *289:8 *922:12 0.00092672
*RES
1 *3286:X *922:6 40 
2 *922:6 *922:12 47.1199 
3 *922:12 *2518:A 20 
*END

*D_NET *923 0.00103978
*CONN
*I *2979:D I *D sg13cmos5l_dfrbpq_1
*I *3287:X O *D sg13cmos5l_dlygate4sd3_1
*CAP
1 *2979:D 0.00039979
2 *3287:X 0.00039979
3 *3207:A *2979:D 0.000240196
4 *3287:A *2979:D 0
*RES
1 *3287:X *2979:D 43.447 
*END

*D_NET *924 0.00519309
*CONN
*I *2463:A I *D sg13cmos5l_nand2_1
*I *2437:A I *D sg13cmos5l_nand2_1
*I *3288:X O *D sg13cmos5l_dlygate4sd3_1
*CAP
1 *2463:A 0.000184777
2 *2437:A 0.000272414
3 *3288:X 0.00113107
4 *924:26 0.000362241
5 *924:8 0.00122602
6 *2437:A *1129:130 0.000714088
7 *924:8 *2556:B 0
8 *924:8 *1027:27 0
9 *924:8 *1093:8 0
10 *2435:A *924:8 0.000143932
11 *2464:A *2463:A 0
12 *3009:D *924:8 4.77425e-05
13 *246:8 *924:8 0.000305258
14 *298:10 *2437:A 0
15 *309:10 *924:8 0
16 *635:12 *924:8 0.00017669
17 *635:27 *924:8 0.000484274
18 *641:10 *2463:A 0
19 *658:36 *924:8 0.000144583
20 *734:103 *2437:A 0
21 *902:8 *924:8 0
*RES
1 *3288:X *924:8 49.1876 
2 *924:8 *2437:A 43.3166 
3 *3288:X *924:26 41.8334 
4 *924:26 *2463:A 41.6171 
*END

*D_NET *925 0.000901293
*CONN
*I *2943:D I *D sg13cmos5l_dfrbpq_1
*I *3289:X O *D sg13cmos5l_dlygate4sd3_1
*CAP
1 *2943:D 0.000169178
2 *3289:X 0.000110243
3 *925:8 0.000279421
4 *2943:D *2462:B 0
5 *925:8 *1097:14 0.00034245
6 *635:27 *2943:D 0
7 *733:83 *925:8 0
8 *882:10 *2943:D 0
*RES
1 *3289:X *925:8 41.5862 
2 *925:8 *2943:D 41.6171 
*END

*D_NET *926 0.012268
*CONN
*I *2509:A I *D sg13cmos5l_nand2_1
*I *3290:X O *D sg13cmos5l_dlygate4sd3_1
*CAP
1 *2509:A 0.000239334
2 *3290:X 0.000137378
3 *926:34 0.000857873
4 *926:28 0.00327072
5 *926:8 0.00278956
6 *926:28 *2580:S 0
7 *926:28 *927:14 0.000145018
8 *926:28 *948:18 0
9 *926:28 *1134:97 0.000112388
10 config_o[23] *926:28 0
11 config_o[24] *926:28 0
12 *2509:B *2509:A 0
13 *2580:A0 *926:28 0.000134733
14 *2580:A0 *926:34 0.000128248
15 *3033:CLK *926:28 0
16 *3039:D *926:28 0
17 *3351:A *926:8 0.000144915
18 *16:20 *2509:A 0
19 *251:30 *2509:A 0.000435369
20 *270:22 *926:28 0.000241083
21 *281:16 *2509:A 0.000403644
22 *282:22 *926:34 0
23 *609:8 *926:28 0.000497542
24 *635:44 *926:28 0
25 *650:8 *926:28 0.00060678
26 *843:8 *926:28 0.000498284
27 *865:10 *926:34 0.00162512
28 *912:32 *926:28 0
*RES
1 *3290:X *926:8 41.1845 
2 *926:8 *926:28 45.2477 
3 *926:28 *926:34 47.519 
4 *926:34 *2509:A 22.9149 
*END

*D_NET *927 0.00472844
*CONN
*I *2973:D I *D sg13cmos5l_dfrbpq_1
*I *3291:X O *D sg13cmos5l_dlygate4sd3_1
*CAP
1 *2973:D 0
2 *3291:X 0.000105201
3 *927:14 0.00133027
4 *927:8 0.00143547
5 *927:14 *1010:8 0.00156931
6 config_o[22] *927:14 0
7 *671:8 *927:14 0
8 *776:12 *927:8 0.000143171
9 *848:12 *927:14 0
10 *912:32 *927:14 0
11 *926:28 *927:14 0.000145018
*RES
1 *3291:X *927:8 40.9682 
2 *927:8 *927:14 32.1952 
3 *927:14 *2973:D 20 
*END

*D_NET *928 0.00199683
*CONN
*I *2494:A I *D sg13cmos5l_nand2_1
*I *3292:X O *D sg13cmos5l_dlygate4sd3_1
*CAP
1 *2494:A 0.000129661
2 *3292:X 0.000129857
3 *928:8 0.000259518
4 *2496:B *2494:A 0.000143577
5 *2519:A *2494:A 0.000175853
6 *2519:A *928:8 0.00012816
7 *3292:A *928:8 0.000159096
8 *613:27 *928:8 0.000265159
9 *750:52 *928:8 0.000605949
*RES
1 *3292:X *928:8 42.8222 
2 *928:8 *2494:A 41.4008 
*END

*D_NET *929 0.00196532
*CONN
*I *2963:D I *D sg13cmos5l_dfrbpq_1
*I *3293:X O *D sg13cmos5l_dlygate4sd3_1
*CAP
1 *2963:D 0.000663999
2 *3293:X 0.000663999
3 *2963:D *938:10 0.000175721
4 *2963:D *1138:97 0
5 *2578:A0 *2963:D 0.000332986
6 *2963:RESET_B *2963:D 0.000128618
*RES
1 *3293:X *2963:D 46.5714 
*END

*D_NET *930 0.00185681
*CONN
*I *2498:A I *D sg13cmos5l_nand2_1
*I *2471:A I *D sg13cmos5l_nand2_1
*I *3294:X O *D sg13cmos5l_dlygate4sd3_1
*CAP
1 *2498:A 6.84928e-05
2 *2471:A 0.000513033
3 *3294:X 9.43387e-05
4 *930:8 0.000675864
5 *2471:A *1128:55 0
6 *2473:C *2471:A 1.54008e-05
7 *2965:CLK *2471:A 0
8 *18:14 *2471:A 4.77425e-05
9 *18:24 *2471:A 0.000181695
10 *18:24 *930:8 0.000212456
11 *220:45 *2471:A 0
12 *874:10 *2471:A 4.77866e-05
*RES
1 *3294:X *930:8 41.0918 
2 *930:8 *2471:A 44.6556 
3 *930:8 *2498:A 40.5356 
*END

*D_NET *931 0.000654607
*CONN
*I *2965:D I *D sg13cmos5l_dfrbpq_1
*I *3295:X O *D sg13cmos5l_dlygate4sd3_1
*CAP
1 *2965:D 0.00020715
2 *3295:X 0.00020715
3 *257:10 *2965:D 0.000240306
*RES
1 *3295:X *2965:D 41.6171 
*END

*D_NET *932 0.0110201
*CONN
*I *3464:A I *D sg13cmos5l_buf_1
*I *2920:X O *D sg13cmos5l_mux2_1
*CAP
1 *3464:A 0
2 *2920:X 0.000456417
3 *932:16 0.00211565
4 *932:10 0.00257207
5 *932:10 *2557:A0 0
6 *932:10 *1007:8 0
7 *932:16 *1101:24 0
8 *932:16 *1114:30 0
9 *2535:A *932:16 0.000638547
10 *2547:A *932:16 0.000874843
11 *2920:A1 *932:10 0
12 *3389:A *932:10 8.03692e-05
13 *654:8 *932:16 0
14 *663:37 *932:10 0
15 *771:94 *932:16 0
16 *810:16 *932:16 0.00428217
*RES
1 *2920:X *932:10 44.1303 
2 *932:10 *932:16 46.3783 
3 *932:16 *3464:A 20 
*END

*D_NET *933 0.00057534
*CONN
*I *2468:A I *D sg13cmos5l_nand2_1
*I *3296:X O *D sg13cmos5l_dlygate4sd3_1
*CAP
1 *2468:A 0
2 *3296:X 0.00028767
3 *933:8 0.00028767
4 *933:8 *1144:55 0
5 *83:12 *933:8 0
6 *736:80 *933:8 0
*RES
1 *3296:X *933:8 42.575 
2 *933:8 *2468:A 40 
*END

*D_NET *934 0.000324488
*CONN
*I *2947:D I *D sg13cmos5l_dfrbpq_1
*I *3297:X O *D sg13cmos5l_dlygate4sd3_1
*CAP
1 *2947:D 0.000162244
2 *3297:X 0.000162244
3 *253:10 *2947:D 0
*RES
1 *3297:X *2947:D 41.5347 
*END

*D_NET *935 0.0137719
*CONN
*I *2515:A I *D sg13cmos5l_nand2_1
*I *3298:X O *D sg13cmos5l_dlygate4sd3_1
*CAP
1 *2515:A 5.40197e-05
2 *3298:X 0
3 *935:8 0.00376824
4 *935:6 0.00371422
5 *2515:A *2515:B 0
6 *935:8 *2515:B 0
7 *935:8 *1129:54 0
8 config_o[31] *935:8 0
9 *285:32 *935:8 0
10 *287:14 *935:8 0
11 *290:30 *935:8 0.000448842
12 *621:24 *935:8 0
13 *922:12 *935:8 0.00578657
*RES
1 *3298:X *935:6 40 
2 *935:6 *935:8 44.599 
3 *935:8 *2515:A 40.5356 
*END

*D_NET *936 0.00265096
*CONN
*I *2977:D I *D sg13cmos5l_dfrbpq_1
*I *3299:X O *D sg13cmos5l_dlygate4sd3_1
*CAP
1 *2977:D 0.000647836
2 *3299:X 0.000160231
3 *936:8 0.000808067
4 *2977:D *2492:B 4.74263e-05
5 *2977:D *1127:87 0.000144229
6 *936:8 *1138:116 7.51285e-05
7 config_o[31] *936:8 0.000287256
8 *3025:D *2977:D 0.000240459
9 *269:66 *936:8 0
10 *270:10 *2977:D 0.000240328
11 *270:22 *2977:D 0
12 *776:114 *2977:D 0
*RES
1 *3299:X *936:8 41.8334 
2 *936:8 *2977:D 46.3139 
*END

*D_NET *937 0.00340202
*CONN
*I *2501:A I *D sg13cmos5l_nand2_1
*I *2474:A I *D sg13cmos5l_nand2_1
*I *3300:X O *D sg13cmos5l_dlygate4sd3_1
*CAP
1 *2501:A 9.73112e-05
2 *2474:A 0.000298927
3 *3300:X 8.47051e-05
4 *937:10 0.000480943
5 *2474:A *988:14 0.000875249
6 *2501:A *2575:B 0.000111568
7 *937:10 *2575:B 0
8 *937:10 *988:14 0.000182121
9 *2496:A *2474:A 0.000128355
10 *2496:A *937:10 0.000160758
11 *2502:A *2501:A 0
12 *2578:A0 *937:10 7.92311e-05
13 *257:10 *2474:A 0.000111568
14 *773:107 *2474:A 0.000609161
15 *773:118 *2474:A 0.000182121
*RES
1 *3300:X *937:10 41.3802 
2 *937:10 *2474:A 45.0264 
3 *937:10 *2501:A 40.9682 
*END

*D_NET *938 0.00206384
*CONN
*I *2967:D I *D sg13cmos5l_dfrbpq_1
*I *3301:X O *D sg13cmos5l_dlygate4sd3_1
*CAP
1 *2967:D 0
2 *3301:X 0.000405824
3 *938:10 0.000405824
4 config_o[23] *938:10 0.000554163
5 *2578:A0 *938:10 0
6 *2963:D *938:10 0.000175721
7 *2967:CLK *938:10 0.000181608
8 *19:10 *938:10 0
9 *21:18 *938:10 0.000340704
*RES
1 *3301:X *938:10 45.2427 
2 *938:10 *2967:D 40 
*END

*D_NET *939 0.00156155
*CONN
*I *2478:A I *D sg13cmos5l_nand2_1
*I *2452:A I *D sg13cmos5l_nand2_1
*I *3302:X O *D sg13cmos5l_dlygate4sd3_1
*CAP
1 *2478:A 0.000412335
2 *2452:A 8.88166e-05
3 *3302:X 0.000255751
4 *939:12 0.000501152
5 *939:10 0.000255751
6 *2478:A *2452:B 0
7 *2478:A *2478:B 0
8 *2937:RESET_B *2478:A 0
9 *630:12 *2478:A 0
10 *630:12 *939:10 0
11 *662:43 *939:10 4.77425e-05
*RES
1 *3302:X *939:10 42.1527 
2 *939:10 *939:12 20 
3 *939:12 *2452:A 20.7519 
4 *939:12 *2478:A 23.3475 
*END

*D_NET *940 0.000400226
*CONN
*I *2937:D I *D sg13cmos5l_dfrbpq_1
*I *3303:X O *D sg13cmos5l_dlygate4sd3_1
*CAP
1 *2937:D 0.000200113
2 *3303:X 0.000200113
3 *2441:B *2937:D 0
4 *2937:RESET_B *2937:D 0
5 *3251:A *2937:D 0
*RES
1 *3303:X *2937:D 42.0291 
*END

*D_NET *941 0.00258678
*CONN
*I *2480:A I *D sg13cmos5l_nand2_1
*I *3304:X O *D sg13cmos5l_dlygate4sd3_1
*CAP
1 *2480:A 0.000374917
2 *3304:X 0.000422748
3 *941:8 0.000797665
4 *2480:A *2510:B 0.000597296
5 *2480:A *2955:D 0
6 *2955:RESET_B *2480:A 0
7 *3296:A *2480:A 0
8 *3304:A *941:8 0
9 *608:16 *941:8 0.000394151
10 *664:126 *941:8 0
11 *877:18 *941:8 0
*RES
1 *3304:X *941:8 44.0582 
2 *941:8 *2480:A 43.9964 
*END

*D_NET *942 0.000689143
*CONN
*I *2955:D I *D sg13cmos5l_dfrbpq_1
*I *3305:X O *D sg13cmos5l_dlygate4sd3_1
*CAP
1 *2955:D 0.000344571
2 *3305:X 0.000344571
3 *2480:A *2955:D 0
4 *2495:A *2955:D 0
5 *3296:A *2955:D 0
*RES
1 *3305:X *2955:D 43.4711 
*END

*D_NET *943 0.0163202
*CONN
*I *3465:A I *D sg13cmos5l_buf_1
*I *2366:X O *D sg13cmos5l_mux2_1
*CAP
1 *3465:A 0.000410501
2 *2366:X 8.56866e-05
3 *943:18 0.00122237
4 *943:14 0.00274422
5 *943:8 0.00201804
6 *3465:A *965:10 0.000209639
7 *943:14 *1019:10 0.000128576
8 config_o[25] *943:14 0.000659727
9 *2369:S *943:14 0.000241088
10 *3206:A *943:14 0
11 *3207:A *943:14 0
12 *3293:A *943:14 0.000434941
13 *3351:A *943:8 0.000112426
14 *18:14 *3465:A 0
15 *19:10 *943:18 0.00204845
16 *21:18 *943:18 0.000394441
17 *25:14 *943:14 0
18 *279:22 *943:14 0.000287672
19 *614:26 *943:18 0.000343073
20 *635:50 *943:14 0.000820482
21 *647:14 *943:14 0
22 *649:10 *943:14 0.000182023
23 *744:60 *943:14 0.00108481
24 *750:52 *943:18 0
25 *773:20 *3465:A 0
26 *780:45 *943:14 0
27 *789:14 *943:14 0
28 *901:26 *943:14 0.00289205
*RES
1 *2366:X *943:8 40.7519 
2 *943:8 *943:14 45.7912 
3 *943:14 *943:18 30.7326 
4 *943:18 *3465:A 43.4814 
*END

*D_NET *944 0.00838813
*CONN
*I *2524:A I *D sg13cmos5l_nand2_1
*I *3306:X O *D sg13cmos5l_dlygate4sd3_1
*CAP
1 *2524:A 0
2 *3306:X 0
3 *944:12 0.00108853
4 *944:6 0.00108853
5 *944:12 *2518:B 0
6 *944:12 *945:8 0.000659396
7 *944:12 *1076:16 0
8 *944:12 *1076:22 0.00215135
9 *944:12 *1129:50 0
10 config_o[31] *944:12 0.00311132
11 *2377:A1 *944:12 0
12 *225:53 *944:12 0
13 *287:26 *944:12 0.000289003
14 *289:8 *944:12 0
15 *837:10 *944:12 0
16 *841:8 *944:12 0
17 *922:12 *944:12 0
*RES
1 *3306:X *944:6 40 
2 *944:6 *944:12 38.9314 
3 *944:12 *2524:A 20 
*END

*D_NET *945 0.00253762
*CONN
*I *2983:D I *D sg13cmos5l_dfrbpq_1
*I *3307:X O *D sg13cmos5l_dlygate4sd3_1
*CAP
1 *2983:D 0.000370835
2 *3307:X 0.00012686
3 *945:8 0.000497695
4 *2983:D *1011:10 7.91362e-05
5 *945:8 *1076:16 0.000660529
6 *329:14 *2983:D 0.000143171
7 *887:14 *2983:D 0
8 *944:12 *945:8 0.000659396
*RES
1 *3307:X *945:8 43.0694 
2 *945:8 *2983:D 43.4814 
*END

*D_NET *946 0.000528035
*CONN
*I *2455:A I *D sg13cmos5l_nand2_1
*I *3308:X O *D sg13cmos5l_dlygate4sd3_1
*CAP
1 *2455:A 0.000191672
2 *3308:X 0.000191672
3 *2455:A *1128:23 0.000144691
4 *2455:A *1139:75 0
5 *2453:B *2455:A 0
*RES
1 *3308:X *2455:A 41.9673 
*END

*D_NET *947 0.00184256
*CONN
*I *2939:D I *D sg13cmos5l_dfrbpq_1
*I *3309:X O *D sg13cmos5l_dlygate4sd3_1
*CAP
1 *2939:D 0
2 *3309:X 0.000387039
3 *947:10 0.000387039
4 *3261:A *947:10 0.000177224
5 *3308:A *947:10 0
6 *663:37 *947:10 0.000177164
7 *697:12 *947:10 0.000607196
8 *697:26 *947:10 0.000106894
*RES
1 *3309:X *947:10 44.9955 
2 *947:10 *2939:D 40 
*END

*D_NET *948 0.0120886
*CONN
*I *2492:A I *D sg13cmos5l_nand2_1
*I *2465:A I *D sg13cmos5l_nand2_1
*I *3310:X O *D sg13cmos5l_dlygate4sd3_1
*CAP
1 *2492:A 0
2 *2465:A 0.000207349
3 *3310:X 0.000742134
4 *948:51 0.00218479
5 *948:18 0.00282289
6 *948:10 0.00117289
7 *2465:A *988:14 0.000394442
8 *948:10 *1010:16 0
9 *948:18 *988:14 0.000266822
10 *948:51 *2492:B 0
11 *948:51 *989:10 0.000175524
12 *2371:A0 *948:51 0.000725587
13 *2371:S *948:51 0
14 *2375:A1 *948:51 0
15 *2375:S *948:51 7.53965e-05
16 *2465:B *2465:A 8.0216e-05
17 *2969:RESET_B *948:51 0.000304879
18 *2969:D *2465:A 1.54008e-05
19 *3175:A *948:51 0
20 *3176:A *948:51 0
21 *3346:A *948:51 1.54556e-05
22 *241:56 *948:18 0
23 *269:35 *948:51 0
24 *269:66 *948:51 0
25 *270:22 *948:51 0
26 *279:22 *948:51 0.000531365
27 *282:22 *948:10 0.000273392
28 *609:16 *948:10 0.000288502
29 *609:39 *948:10 0.00050063
30 *617:8 *948:51 0.0001232
31 *621:24 *948:51 0.000531458
32 *635:44 *948:18 0.000305088
33 *664:331 *948:51 0
34 *664:335 *948:51 0
35 *664:344 *948:51 0
36 *753:52 *948:51 8.00842e-05
37 *776:42 *948:18 0.000110936
38 *776:67 *948:51 0
39 *779:35 *948:10 4.77425e-05
40 *877:30 *948:10 0.000112453
41 *926:28 *948:18 0
*RES
1 *3310:X *948:10 47.3439 
2 *948:10 *948:18 44.4702 
3 *948:18 *2465:A 42.369 
4 *948:18 *948:51 40.5316 
5 *948:51 *2492:A 20 
*END

*D_NET *949 0.000403432
*CONN
*I *2961:D I *D sg13cmos5l_dfrbpq_1
*I *3311:X O *D sg13cmos5l_dlygate4sd3_1
*CAP
1 *2961:D 0.000201716
2 *3311:X 0.000201716
3 *635:50 *2961:D 0
4 *861:18 *2961:D 0
5 *915:20 *2961:D 0
*RES
1 *3311:X *2961:D 41.8849 
*END

*D_NET *950 0.00322434
*CONN
*I *2521:A I *D sg13cmos5l_nand2_1
*I *3312:X O *D sg13cmos5l_dlygate4sd3_1
*CAP
1 *2521:A 0.000139411
2 *3312:X 0.0004932
3 *950:10 0.000632611
4 *950:10 *1076:22 0
5 *3307:A *950:10 7.91347e-05
6 *30:20 *950:10 0.000447474
7 *225:53 *2521:A 0
8 *756:72 *2521:A 0
9 *784:10 *950:10 7.91347e-05
10 *887:14 *950:10 0.00135338
*RES
1 *3312:X *950:10 46.8186 
2 *950:10 *2521:A 41.1845 
*END

*D_NET *951 0.00243822
*CONN
*I *2981:D I *D sg13cmos5l_dfrbpq_1
*I *3313:X O *D sg13cmos5l_dlygate4sd3_1
*CAP
1 *2981:D 0.000834024
2 *3313:X 0.000834024
3 *2981:RESET_B *2981:D 0
4 *3029:RESET_B *2981:D 0
5 *225:53 *2981:D 4.79124e-05
6 *756:72 *2981:D 0.00072226
7 *773:57 *2981:D 0
*RES
1 *3313:X *2981:D 48.446 
*END

*D_NET *952 0.00516678
*CONN
*I *2472:A I *D sg13cmos5l_nand2_1
*I *2446:A I *D sg13cmos5l_nand2_1
*I *3314:X O *D sg13cmos5l_dlygate4sd3_1
*CAP
1 *2472:A 0.000262984
2 *2446:A 0
3 *3314:X 0.000380527
4 *952:22 0.0010694
5 *952:10 0.00171291
6 *2472:A *2472:B 0
7 *2472:A *1010:22 0
8 *952:10 *1010:22 0
9 *952:22 *2449:A 0
10 *952:22 *2472:B 0
11 *952:22 *2560:B 0.000208835
12 *2449:B *952:10 0.000208912
13 *2450:B *952:22 0
14 *2450:C *952:22 0
15 *2933:CLK *952:22 0.000598077
16 *3013:D *952:10 8.01933e-05
17 *3314:A *952:22 0
18 *73:10 *952:22 0.000177295
19 *112:8 *952:10 0
20 *224:18 *952:22 3.16073e-05
21 *224:29 *952:22 6.46834e-05
22 *225:31 *952:22 0
23 *225:53 *952:10 0
24 *238:14 *952:22 0
25 *311:10 *952:22 0
26 *767:66 *952:22 0.000371346
27 *774:40 *2472:A 0
*RES
1 *3314:X *952:10 43.8522 
2 *952:10 *952:22 31.6081 
3 *952:22 *2446:A 20 
4 *952:10 *2472:A 42.4926 
*END

*D_NET *953 0.0057602
*CONN
*I *2466:A I *D sg13cmos5l_nand2_1
*I *2440:A I *D sg13cmos5l_nand2_1
*I *3315:X O *D sg13cmos5l_dlygate4sd3_1
*CAP
1 *2466:A 0.000413204
2 *2440:A 0.000469743
3 *3315:X 0
4 *953:16 0.0012294
5 *953:6 0.00117286
6 *2440:A *1094:20 0
7 *2440:A *1140:87 6.64682e-05
8 *953:16 *2436:B 0
9 *953:16 *1125:37 0.000789223
10 *2435:B *2440:A 0
11 *2435:A *2440:A 0
12 *2438:C *2440:A 0.000355819
13 *2929:CLK *953:16 0.000338322
14 *222:12 *953:16 0
15 *242:12 *953:16 0.000181608
16 *246:8 *2466:A 0
17 *600:29 *2440:A 0
18 *600:29 *953:16 0
19 *662:27 *2440:A 0.000341204
20 *664:188 *2440:A 0
21 *664:190 *2440:A 0
22 *664:230 *2440:A 0
23 *677:20 *2440:A 0.00012816
24 *902:8 *2466:A 0.000274189
*RES
1 *3315:X *953:6 40 
2 *953:6 *953:16 48.3739 
3 *953:16 *2440:A 45.2994 
4 *953:6 *2466:A 44.4084 
*END

*D_NET *954 0.00657513
*CONN
*I *3466:A I *D sg13cmos5l_buf_1
*I *2367:X O *D sg13cmos5l_mux2_2
*CAP
1 *3466:A 0
2 *2367:X 5.60315e-05
3 *954:14 0.000678098
4 *954:8 0.00073413
5 *269:10 *954:14 0.00119138
6 *269:25 *954:8 4.77425e-05
7 *269:25 *954:14 0.0010322
8 *294:52 *954:14 0
9 *294:59 *954:14 0
10 *750:52 *954:14 0.00278765
11 *773:20 *954:14 4.79124e-05
12 *848:12 *954:14 0
*RES
1 *2367:X *954:8 40.5356 
2 *954:8 *954:14 33.2767 
3 *954:14 *3466:A 20 
*END

*D_NET *955 0.00430458
*CONN
*I *2475:A I *D sg13cmos5l_nand2_1
*I *2449:A I *D sg13cmos5l_nand2_1
*I *3316:X O *D sg13cmos5l_dlygate4sd3_1
*CAP
1 *2475:A 0.000695765
2 *2449:A 0.000707126
3 *3316:X 0
4 *955:6 0.00140289
5 *2449:A *1145:112 0
6 *2475:A *1096:10 0.000177109
7 *2475:A *1139:16 0.000112558
8 *2475:A *1145:112 0
9 *2351:A1 *2475:A 0
10 *2449:B *2449:A 0
11 *2450:C *2449:A 0.000338317
12 *3316:A *2475:A 0.000144921
13 *258:14 *2475:A 0.000725894
14 *733:83 *2449:A 0
15 *733:83 *2475:A 0
16 *952:22 *2449:A 0
*RES
1 *3316:X *955:6 40 
2 *955:6 *2449:A 46.2933 
3 *955:6 *2475:A 47.0967 
*END

*D_NET *956 0.00379137
*CONN
*I *2443:A I *D sg13cmos5l_nand2_1
*I *3317:X O *D sg13cmos5l_dlygate4sd3_1
*CAP
1 *2443:A 0.000429421
2 *3317:X 0.000394184
3 *956:16 0.000823605
4 *236:12 *2443:A 0.000531591
5 *611:29 *956:16 0.00012816
6 *627:12 *2443:A 0
7 *627:12 *956:16 0
8 *627:29 *956:16 0.000605447
9 *636:34 *956:16 7.92265e-05
10 *659:20 *2443:A 0.000724602
11 *659:20 *956:16 7.51285e-05
*RES
1 *3317:X *956:16 44.5938 
2 *956:16 *2443:A 44.8616 
*END

*D_NET *957 0.0012178
*CONN
*I *2434:A I *D sg13cmos5l_nand2_1
*I *2460:A I *D sg13cmos5l_nand2_1
*I *3318:X O *D sg13cmos5l_dlygate4sd3_1
*CAP
1 *2434:A 0
2 *2460:A 0.000193021
3 *3318:X 0.000112042
4 *957:8 0.000305063
5 *2460:A *2434:B 0
6 *2460:A *1139:138 0.000274638
7 *957:8 *2434:B 0
8 *957:8 *1139:138 0.000155766
9 *2354:A1 *957:8 0
10 *116:12 *957:8 0
11 *230:10 *2460:A 0.000177273
12 *248:12 *2460:A 0
13 *770:97 *957:8 0
*RES
1 *3318:X *957:8 21.6274 
2 *957:8 *2460:A 22.1836 
3 *957:8 *2434:A 20 
*END

*D_NET *958 0.00152214
*CONN
*I *2941:D I *D sg13cmos5l_dfrbpq_1
*I *3319:X O *D sg13cmos5l_dlygate4sd3_1
*CAP
1 *2941:D 0.000213642
2 *3319:X 0.000243623
3 *958:8 0.000457266
4 *2567:A1 *958:8 0
5 *641:10 *958:8 0
6 *734:107 *2941:D 0
7 *795:10 *958:8 0.00060761
*RES
1 *3319:X *958:8 42.8222 
2 *958:8 *2941:D 41.6171 
*END

*D_NET *959 0.00262338
*CONN
*I *2428:A I *D sg13cmos5l_nand2_1
*I *3320:X O *D sg13cmos5l_dlygate4sd3_1
*CAP
1 *2428:A 0.000611201
2 *3320:X 0.000105929
3 *959:8 0.00071713
4 *2429:C *2428:A 0
5 *2550:A *2428:A 0.000143182
6 *2919:S *2428:A 0
7 *3011:RESET_B *2428:A 0
8 *3011:D *2428:A 7.99779e-05
9 *3355:A *2428:A 0
10 *222:12 *959:8 0.000503292
11 *306:8 *2428:A 1.54008e-05
12 *306:35 *959:8 0.00044727
13 *600:21 *2428:A 0
14 *684:6 *2428:A 0
*RES
1 *3320:X *959:8 42.3278 
2 *959:8 *2428:A 45.6444 
*END

*D_NET *960 0.000711605
*CONN
*I *2477:A I *D sg13cmos5l_nand2_1
*I *3321:X O *D sg13cmos5l_dlygate4sd3_1
*CAP
1 *2477:A 0
2 *3321:X 0.000355803
3 *960:8 0.000355803
4 *2356:S *960:8 0
5 *186:26 *960:8 0
6 *877:18 *960:8 0
*RES
1 *3321:X *960:8 43.0694 
2 *960:8 *2477:A 40 
*END

*D_NET *961 0.00547433
*CONN
*I *2488:A I *D sg13cmos5l_nand2_1
*I *3322:X O *D sg13cmos5l_dlygate4sd3_1
*CAP
1 *2488:A 0
2 *3322:X 0
3 *961:10 0.000424975
4 *961:6 0.000424975
5 *961:10 *1096:20 0.0023126
6 *247:34 *961:10 0.00231177
*RES
1 *3322:X *961:6 40 
2 *961:6 *961:10 30.7326 
3 *961:10 *2488:A 20 
*END

*D_NET *962 0.0015889
*CONN
*I *2959:D I *D sg13cmos5l_dfrbpq_1
*I *3323:X O *D sg13cmos5l_dlygate4sd3_1
*CAP
1 *2959:D 0.000123532
2 *3323:X 0.00026745
3 *962:8 0.000390982
4 *2959:D *1010:16 0
5 *962:8 *1029:8 0.00018211
6 *642:10 *2959:D 0.000175815
7 *642:27 *962:8 0.000449015
8 *751:48 *962:8 0
*RES
1 *3323:X *962:8 43.0694 
2 *962:8 *2959:D 41.1845 
*END

*D_NET *963 0.00425593
*CONN
*I *2431:A I *D sg13cmos5l_nand2_1
*I *3324:X O *D sg13cmos5l_dlygate4sd3_1
*CAP
1 *2431:A 0.000270265
2 *3324:X 0.000686738
3 *963:8 0.000957003
4 *2431:A *2431:B 0
5 *963:8 *1095:42 0
6 *2349:S *963:8 0.000181192
7 *3258:A *2431:A 4.77425e-05
8 *3258:A *963:8 7.51285e-05
9 *111:10 *2431:A 0
10 *220:33 *963:8 0.000234224
11 *225:8 *963:8 0
12 *228:8 *2431:A 0.000272801
13 *627:29 *963:8 0.00119046
14 *660:39 *963:8 0.000340374
15 *758:131 *963:8 0
*RES
1 *3324:X *963:8 49.4966 
2 *963:8 *2431:A 42.4823 
*END

*D_NET *964 0.00074779
*CONN
*I *2485:A I *D sg13cmos5l_nand2_1
*I *3325:X O *D sg13cmos5l_dlygate4sd3_1
*CAP
1 *2485:A 0.000261502
2 *3325:X 0.000261502
3 *2485:A *2487:B 0
4 *2485:A *1098:14 0.000112426
5 config_o[9] *2485:A 0
6 *2485:B *2485:A 0
7 *3454:A *2485:A 0
8 *266:12 *2485:A 0.00011236
*RES
1 *3325:X *2485:A 42.8016 
*END

*D_NET *965 0.0016382
*CONN
*I *3467:A I *D sg13cmos5l_buf_1
*I *2368:X O *D sg13cmos5l_mux2_1
*CAP
1 *3467:A 0
2 *2368:X 0.000479556
3 *965:10 0.000479556
4 *2497:A *965:10 0
5 *3465:A *965:10 0.000209639
6 *220:45 *965:10 0
7 *614:26 *965:10 0
8 *745:90 *965:10 0.000182109
9 *750:52 *965:10 0
10 *773:20 *965:10 0
11 *848:12 *965:10 0.000287342
*RES
1 *2368:X *965:10 45.3045 
2 *965:10 *3467:A 40 
*END

*D_NET *966 0.00177405
*CONN
*I *2957:D I *D sg13cmos5l_dfrbpq_1
*I *3326:X O *D sg13cmos5l_dlygate4sd3_1
*CAP
1 *2957:D 0.000166078
2 *3326:X 0.000113587
3 *966:8 0.000279664
4 *2370:S *2957:D 0
5 *282:32 *966:8 0.00060761
6 *776:25 *966:8 0.000607109
*RES
1 *3326:X *966:8 42.8222 
2 *966:8 *2957:D 41.1845 
*END

*D_NET *967 0.00188582
*CONN
*I *2419:A I *D sg13cmos5l_xnor2_1
*I *3327:X O *D sg13cmos5l_dlygate4sd3_1
*CAP
1 *2419:A 0.000168075
2 *3327:X 0.000130447
3 *967:8 0.000298522
4 *967:8 *3272:A 0.000393736
5 *2419:B *2419:A 0
6 *3242:A *967:8 0.000234727
7 *3328:A *2419:A 0
8 *187:10 *967:8 0.000660315
9 *788:12 *2419:A 0
*RES
1 *3327:X *967:8 43.0694 
2 *967:8 *2419:A 41.4008 
*END

*D_NET *968 0.00126232
*CONN
*I *2420:B I *D sg13cmos5l_nor2_1
*I *3328:X O *D sg13cmos5l_dlygate4sd3_1
*CAP
1 *2420:B 0.000159053
2 *3328:X 0.000472107
3 *968:8 0.000631159
4 *2420:A *968:8 0
5 *187:10 *968:8 0
6 *210:10 *968:8 0
7 *777:10 *968:8 0
8 *907:10 *2420:B 0
9 *908:8 *968:8 0
*RES
1 *3328:X *968:8 45.047 
2 *968:8 *2420:B 41.6171 
*END

*D_NET *969 0.00554784
*CONN
*I *2412:B I *D sg13cmos5l_nand3_1
*I *2409:B I *D sg13cmos5l_nand2_1
*I *2917:B I *D sg13cmos5l_xnor2_1
*I *2415:B I *D sg13cmos5l_nand4_1
*I *3329:X O *D sg13cmos5l_dlygate4sd3_1
*CAP
1 *2412:B 0.000463585
2 *2409:B 7.41202e-05
3 *2917:B 0.000296414
4 *2415:B 0.000181624
5 *3329:X 3.02499e-05
6 *969:38 0.000725159
7 *969:21 0.000615414
8 *969:8 0.000343421
9 *2412:B *970:14 0
10 *2412:B *1160:14 0.000177032
11 *2415:B *970:14 0
12 *2917:B *1159:12 0.000305346
13 *2410:B *2917:B 0.000305088
14 *2412:A *2412:B 0.000480193
15 *2917:A *2917:B 0
16 *2918:A *2409:B 4.77425e-05
17 *3155:D *2412:B 0
18 *5:6 *2412:B 0
19 *62:10 *2415:B 0
20 *181:16 *2415:B 0.000228809
21 *181:16 *969:8 0
22 *181:16 *969:21 0.000340704
23 *181:16 *969:38 0.000287672
24 *210:46 *2409:B 4.77425e-05
25 *210:65 *2415:B 0
26 *210:65 *969:21 0
27 *210:65 *969:38 0.00012816
28 *787:12 *2415:B 0
29 *914:12 *2412:B 0.000341205
30 *914:12 *969:38 0.00012816
*RES
1 *3329:X *969:8 40.3193 
2 *969:8 *2415:B 41.8128 
3 *969:8 *969:21 1.5862 
4 *969:21 *2917:B 43.2651 
5 *969:21 *969:38 2.5029 
6 *969:38 *2409:B 40.5356 
7 *969:38 *2412:B 45.7062 
*END

*D_NET *970 0.00434289
*CONN
*I *2413:A I *D sg13cmos5l_xor2_1
*I *2415:D I *D sg13cmos5l_nand4_1
*I *3330:X O *D sg13cmos5l_dlygate4sd3_1
*CAP
1 *2413:A 0
2 *2415:D 6.47374e-05
3 *3330:X 9.4334e-05
4 *970:14 0.00142803
5 *970:8 0.00145763
6 *970:14 *1160:14 0
7 *970:14 *1160:38 0.000182313
8 *2412:B *970:14 0
9 *2412:A *970:14 0
10 *2415:B *970:14 0
11 *3157:RESET_B *970:8 0.000144107
12 *181:16 *970:14 0.000341216
13 *858:16 *970:14 0
14 *914:25 *970:14 0.000448209
15 *914:27 *970:14 0.000182313
*RES
1 *3330:X *970:8 40.9682 
2 *970:8 *970:14 32.0098 
3 *970:14 *2415:D 20.5974 
4 *970:14 *2413:A 20 
*END

*D_NET *971 0.00199525
*CONN
*I *2414:B I *D sg13cmos5l_nor2_1
*I *3331:X O *D sg13cmos5l_dlygate4sd3_1
*CAP
1 *2414:B 0.000167294
2 *3331:X 0.000561303
3 *971:10 0.000728597
4 *3331:A *971:10 0
5 *63:10 *2414:B 0.00014474
6 *63:10 *971:10 0.00039332
*RES
1 *3331:X *971:10 44.3157 
2 *971:10 *2414:B 41.1845 
*END

*D_NET *972 0.00340157
*CONN
*I *2410:A I *D sg13cmos5l_xor2_1
*I *2415:C I *D sg13cmos5l_nand4_1
*I *3332:X O *D sg13cmos5l_dlygate4sd3_1
*CAP
1 *2410:A 2.64554e-05
2 *2415:C 0.000345932
3 *3332:X 0.000784911
4 *972:10 0.0011573
5 *972:10 *3279:A 0
6 *3151:CLK *972:10 0
7 *3331:A *972:10 0
8 *62:10 *2410:A 0
9 *62:10 *2415:C 0
10 *213:10 *972:10 0
11 *214:12 *972:10 0.00108697
12 *215:10 *2415:C 0
13 *823:14 *2415:C 0
14 *823:14 *972:10 0
*RES
1 *3332:X *972:10 48.4563 
2 *972:10 *2415:C 43.3269 
3 *972:10 *2410:A 40.3193 
*END

*D_NET *973 0.00307479
*CONN
*I *2908:A I *D sg13cmos5l_xnor2_1
*I *3333:X O *D sg13cmos5l_dlygate4sd3_1
*CAP
1 *2908:A 9.42575e-05
2 *3333:X 0.000789275
3 *973:16 0.000883532
4 *973:16 *3149:D 0
5 *973:16 *995:39 0.000555321
6 *973:16 *1032:16 1.54008e-05
7 *973:16 *1129:50 0
8 *2910:A1 *2908:A 0
9 *2910:A2 *2908:A 2.21754e-05
10 *3149:RESET_B *973:16 0
11 *470:37 *973:16 0
12 *749:56 *973:16 0.000714833
*RES
1 *3333:X *973:16 48.612 
2 *973:16 *2908:A 40.8858 
*END

*D_NET *974 0.000271733
*CONN
*I *3147:D I *D sg13cmos5l_dfrbpq_1
*I *3334:X O *D sg13cmos5l_dlygate4sd3_1
*CAP
1 *3147:D 0.000135866
2 *3334:X 0.000135866
3 *3147:RESET_B *3147:D 0
4 *791:8 *3147:D 0
5 *901:10 *3147:D 0
*RES
1 *3334:X *3147:D 41.1845 
*END

*D_NET *975 0.00144612
*CONN
*I *2402:A I *D sg13cmos5l_inv_1
*I *3335:X O *D sg13cmos5l_dlygate4sd3_1
*CAP
1 *2402:A 0.000374782
2 *3335:X 0.000374782
3 *2399:A *2402:A 0
4 *2401:B1 *2402:A 0.000240196
5 *204:12 *2402:A 0.000295781
6 *204:27 *2402:A 0.000160578
*RES
1 *3335:X *2402:A 44.0479 
*END

*D_NET *976 0.00776475
*CONN
*I *3468:A I *D sg13cmos5l_buf_1
*I *2369:X O *D sg13cmos5l_mux2_1
*CAP
1 *3468:A 0
2 *2369:X 0.000621085
3 *976:26 0.000821732
4 *976:22 0.00144282
5 *976:22 *2579:B 0
6 *976:22 *999:16 0
7 *976:22 *1134:31 0.000394981
8 *976:26 *999:16 0.000660142
9 *976:26 *1017:10 0
10 config_o[25] *976:22 0.00012816
11 *2963:RESET_B *976:22 0
12 *3200:A *976:26 0.000479364
13 *121:12 *976:22 0
14 *220:83 *976:22 4.81157e-05
15 *220:83 *976:26 2.20966e-05
16 *292:8 *976:22 0.000660642
17 *667:8 *976:26 0.00113876
18 *901:22 *976:22 0.00134686
19 *901:22 *976:26 0
*RES
1 *2369:X *976:22 49.8777 
2 *976:22 *976:26 30.2382 
3 *976:26 *3468:A 20 
*END

*D_NET *977 0.0010992
*CONN
*I *2880:A I *D sg13cmos5l_xnor2_1
*I *3336:X O *D sg13cmos5l_dlygate4sd3_1
*CAP
1 *2880:A 3.38015e-05
2 *3336:X 0.000369187
3 *977:8 0.000402988
4 *977:8 *978:8 0
5 *977:8 *1120:14 0.000233622
6 *2880:B *2880:A 1.05462e-05
7 *2882:B1 *2880:A 0
8 *173:10 *2880:A 0
9 *746:42 *2880:A 4.90516e-05
*RES
1 *3336:X *977:8 44.0531 
2 *977:8 *2880:A 40.3991 
*END

*D_NET *978 0.000201478
*CONN
*I *3135:D I *D sg13cmos5l_dfrbpq_1
*I *3337:X O *D sg13cmos5l_dlygate4sd3_1
*CAP
1 *3135:D 0
2 *3337:X 0.000100739
3 *978:8 0.000100739
4 *977:8 *978:8 0
*RES
1 *3337:X *978:8 40.5974 
2 *978:8 *3135:D 40 
*END

*D_NET *979 0.000456534
*CONN
*I *2631:A1 I *D sg13cmos5l_mux2_1
*I *3338:X O *D sg13cmos5l_dlygate4sd3_1
*CAP
1 *2631:A1 0.000155741
2 *3338:X 0.000155741
3 *2631:A1 *2632:A 0
4 *2631:A1 *2632:B 0
5 *2631:A0 *2631:A1 0.000145052
6 *3338:A *2631:A1 0
7 *3339:A *2631:A1 0
*RES
1 *3338:X *2631:A1 41.6171 
*END

*D_NET *980 0.000709387
*CONN
*I *2632:B I *D sg13cmos5l_and2_1
*I *3339:X O *D sg13cmos5l_dlygate4sd3_1
*CAP
1 *2632:B 0.000265905
2 *3339:X 0.000265905
3 *2632:B *2632:A 0.000177576
4 *2631:A1 *2632:B 0
*RES
1 *3339:X *2632:B 43.2033 
*END

*D_NET *981 0.000683752
*CONN
*I *2580:A1 I *D sg13cmos5l_mux2_1
*I *3340:X O *D sg13cmos5l_dlygate4sd3_1
*CAP
1 *2580:A1 0
2 *3340:X 5.36165e-05
3 *981:8 5.36165e-05
4 *981:8 *1138:74 0.00028826
5 *278:14 *981:8 0.00028826
*RES
1 *3340:X *981:8 41.339 
2 *981:8 *2580:A1 40 
*END

*D_NET *982 0.000133739
*CONN
*I *2581:B I *D sg13cmos5l_and2_1
*I *3341:X O *D sg13cmos5l_dlygate4sd3_1
*CAP
1 *2581:B 6.68694e-05
2 *3341:X 6.68694e-05
3 *90:12 *2581:B 0
*RES
1 *3341:X *2581:B 40.8446 
*END

*D_NET *983 0.00272669
*CONN
*I *2582:A1 I *D sg13cmos5l_mux2_1
*I *3342:X O *D sg13cmos5l_dlygate4sd3_1
*CAP
1 *2582:A1 3.33387e-05
2 *3342:X 0.000523556
3 *983:10 0.000556895
4 *983:10 *1134:53 0.000765462
5 *2508:B *983:10 0.000208615
6 *2971:RESET_B *2582:A1 0
7 *2979:CLK *983:10 0.000144729
8 *269:66 *983:10 0
9 *323:12 *983:10 0.000446352
10 *899:22 *2582:A1 4.77425e-05
*RES
1 *3342:X *983:10 46.4787 
2 *983:10 *2582:A1 40.3193 
*END

*D_NET *984 0.000133739
*CONN
*I *2583:B I *D sg13cmos5l_and2_1
*I *3343:X O *D sg13cmos5l_dlygate4sd3_1
*CAP
1 *2583:B 6.68694e-05
2 *3343:X 6.68694e-05
3 *3347:A *2583:B 0
*RES
1 *3343:X *2583:B 40.8446 
*END

*D_NET *985 0.0027501
*CONN
*I *2625:A1 I *D sg13cmos5l_mux2_1
*I *3344:X O *D sg13cmos5l_dlygate4sd3_1
*CAP
1 *2625:A1 0.0003923
2 *3344:X 0.000399701
3 *985:8 0.000792001
4 *2625:A1 *1152:37 0
5 *985:8 *1152:37 0
6 *2393:A *985:8 0.00103693
7 *3075:RESET_B *2625:A1 0
8 *3075:CLK *2625:A1 0
9 *3344:A *985:8 0.000129163
10 *703:8 *2625:A1 0
11 *730:12 *985:8 0
*RES
1 *3344:X *985:8 45.2942 
2 *985:8 *2625:A1 43.1312 
*END

*D_NET *986 0.00121953
*CONN
*I *2626:B I *D sg13cmos5l_and2_1
*I *3345:X O *D sg13cmos5l_dlygate4sd3_1
*CAP
1 *2626:B 0.000327892
2 *3345:X 0.000327892
3 *2626:B *2626:A 8.02267e-05
4 *3075:RESET_B *2626:B 0
5 *331:30 *2626:B 0.000338593
6 *346:10 *2626:B 0.000144921
*RES
1 *3345:X *2626:B 43.3475 
*END

*D_NET *987 0.033956
*CONN
*I *2647:A1 I *D sg13cmos5l_a22oi_1
*I *2424:A I *D sg13cmos5l_nand2_1
*I *2530:A0 I *D sg13cmos5l_mux2_1
*I *2599:A0 I *D sg13cmos5l_mux2_1
*I *3446:X O *D sg13cmos5l_buf_1
*CAP
1 *2647:A1 0
2 *2424:A 0.000656107
3 *2530:A0 0
4 *2599:A0 0.00108491
5 *3446:X 0.000274385
6 *987:46 0.00214217
7 *987:42 0.0042552
8 *987:36 0.00543704
9 *987:20 0.00337998
10 *987:14 0.000808067
11 *987:8 0.000597664
12 *2424:A *1103:41 0
13 *2424:A *1125:27 0.00117003
14 *2424:A *1125:58 0.000294341
15 *2424:A *1135:33 0
16 *2599:A0 *2599:A1 1.54008e-05
17 *2599:A0 *1059:10 0.000143932
18 *987:14 *2750:B 0
19 *987:14 *1130:46 0
20 *987:14 *1136:32 0.00040272
21 *987:20 *1118:40 0
22 *987:20 *1136:42 0
23 *987:20 *1150:32 0.000235055
24 *987:20 *1151:114 0.000924886
25 *987:36 *1074:10 0.000235153
26 *987:36 *1125:27 0
27 *987:36 *1148:28 0
28 *987:36 *1150:40 0
29 *987:42 *1125:27 0.001403
30 *987:46 *2530:A1 0.000823035
31 *987:46 *1129:115 0
32 *2647:B1 *987:20 1.54008e-05
33 *2921:RESET_B *987:46 0
34 *2985:RESET_B *987:46 0
35 *2985:CLK *2599:A0 0
36 *2985:CLK *987:46 0
37 *3003:RESET_B *2599:A0 0
38 *3003:CLK *2599:A0 4.78192e-05
39 *3051:CLK *2599:A0 0
40 *3087:CLK *987:36 0.000144583
41 *3103:CLK *987:36 0
42 *3258:A *987:46 4.72443e-05
43 *3355:A *987:46 0
44 *3389:A *987:46 0
45 *183:22 *987:42 0
46 *219:12 *987:36 0
47 *219:24 *987:42 0.00210427
48 *222:12 *2424:A 0.000144785
49 *228:8 *987:46 0.000176743
50 *293:29 *987:36 0
51 *293:29 *987:42 0.00295409
52 *294:10 *987:42 0
53 *294:27 *987:42 0
54 *296:10 *2599:A0 1.54556e-05
55 *296:10 *987:46 0
56 *360:12 *987:20 4.78521e-05
57 *360:12 *987:36 0.00020814
58 *361:8 *987:20 7.51285e-05
59 *362:10 *987:20 0.00023464
60 *363:10 *987:20 0.000818493
61 *478:12 *987:36 0.0026383
62 *500:10 *987:36 0
63 *663:37 *987:46 0
64 *675:30 *2599:A0 0
65 *768:14 *2599:A0 0
66 *911:10 *987:8 0
*RES
1 *3446:X *987:8 42.575 
2 *987:8 *987:14 43.3475 
3 *987:14 *987:20 27.8383 
4 *987:20 *987:36 49.6434 
5 *987:36 *987:42 30.9 
6 *987:42 *987:46 30.4854 
7 *987:46 *2599:A0 29.785 
8 *987:46 *2530:A0 20 
9 *987:42 *2424:A 47.4984 
10 *987:20 *2647:A1 20 
*END

*D_NET *988 0.0112314
*CONN
*I *3469:A I *D sg13cmos5l_buf_1
*I *2370:X O *D sg13cmos5l_mux2_1
*CAP
1 *3469:A 0
2 *2370:X 0.000310705
3 *988:14 0.0024733
4 *988:8 0.002784
5 *988:14 *1040:10 0
6 *2465:A *988:14 0.000394442
7 *2474:A *988:14 0.000875249
8 *2496:C *988:14 0
9 *2496:A *988:14 0
10 *2505:A *988:14 0
11 *3209:A *988:8 0.000175721
12 *22:8 *988:14 0.00113782
13 *220:45 *988:14 0.000144673
14 *241:56 *988:14 0.00044728
15 *268:20 *988:14 0.000980384
16 *269:47 *988:8 0
17 *280:10 *988:14 0
18 *613:8 *988:14 0.000184171
19 *616:10 *988:14 0.000340288
20 *704:10 *988:8 8.00842e-05
21 *750:52 *988:14 0.000145023
22 *773:10 *988:14 0.00012816
23 *773:20 *988:14 0.000181192
24 *773:107 *988:14 0
25 *776:25 *988:14 0
26 *937:10 *988:14 0.000182121
27 *948:18 *988:14 0.000266822
*RES
1 *2370:X *988:8 42.6986 
2 *988:8 *988:14 49.0048 
3 *988:14 *3469:A 20 
*END

*D_NET *989 0.0034412
*CONN
*I *2590:A1 I *D sg13cmos5l_mux2_1
*I *3346:X O *D sg13cmos5l_dlygate4sd3_1
*CAP
1 *2590:A1 7.59437e-05
2 *3346:X 0.000619472
3 *989:10 0.000695416
4 *989:10 *1032:8 0.000712758
5 config_o[28] *989:10 0.000712343
6 *2375:A1 *989:10 0.000434301
7 *2590:A0 *2590:A1 1.54446e-05
8 *3207:A *2590:A1 0
9 *3347:A *2590:A1 0
10 *269:66 *989:10 0
11 *948:51 *989:10 0.000175524
*RES
1 *3346:X *989:10 48.1782 
2 *989:10 *2590:A1 40.7519 
*END

*D_NET *990 0.000544711
*CONN
*I *2591:B I *D sg13cmos5l_and2_1
*I *3347:X O *D sg13cmos5l_dlygate4sd3_1
*CAP
1 *2591:B 0.000168319
2 *3347:X 0.000168319
3 *2591:B *1134:14 0.000208074
4 *2591:B *1138:116 0
5 *2520:A *2591:B 0
6 *288:12 *2591:B 0
*RES
1 *3347:X *2591:B 41.751 
*END

*D_NET *991 0.000442966
*CONN
*I *2623:A1 I *D sg13cmos5l_mux2_1
*I *3348:X O *D sg13cmos5l_dlygate4sd3_1
*CAP
1 *2623:A1 0.000213782
2 *3348:X 0.000213782
3 *2623:A1 *3496:A 0
4 *2623:A1 *3497:A 0
5 *2623:A1 *1057:29 0
6 *187:20 *2623:A1 1.54008e-05
*RES
1 *3348:X *2623:A1 42.2763 
*END

*D_NET *992 0.00134601
*CONN
*I *2624:B I *D sg13cmos5l_and2_1
*I *3349:X O *D sg13cmos5l_dlygate4sd3_1
*CAP
1 *2624:B 0.000144661
2 *3349:X 0.000400325
3 *992:8 0.000544986
4 *992:8 *1105:14 0
5 *2624:A *2624:B 8.0216e-05
6 *3073:D *2624:B 0.000175826
7 *47:10 *992:8 0
8 *345:10 *992:8 0
9 *683:6 *2624:B 0
*RES
1 *3349:X *992:8 43.3166 
2 *992:8 *2624:B 41.4008 
*END

*D_NET *993 0.000821359
*CONN
*I *2584:A1 I *D sg13cmos5l_mux2_1
*I *3350:X O *D sg13cmos5l_dlygate4sd3_1
*CAP
1 *2584:A1 0.000185138
2 *3350:X 8.45143e-05
3 *993:8 0.000269652
4 *2584:A1 *1134:72 0
5 *993:8 *994:10 0
6 config_o[24] *993:8 0.000234311
7 *2372:A1 *2584:A1 4.77425e-05
8 *3290:A *2584:A1 0
*RES
1 *3350:X *993:8 41.0918 
2 *993:8 *2584:A1 41.6171 
*END

*D_NET *994 0.00222319
*CONN
*I *2585:B I *D sg13cmos5l_and2_1
*I *3351:X O *D sg13cmos5l_dlygate4sd3_1
*CAP
1 *2585:B 0.000125671
2 *3351:X 0.000535427
3 *994:10 0.000661098
4 config_o[24] *994:10 0
5 config_o[27] *994:10 0
6 *2366:S *994:10 0.000176405
7 *2490:A *2585:B 0
8 *3290:A *994:10 0.000177053
9 *3350:A *994:10 0
10 *324:8 *994:10 0
11 *861:12 *994:10 0.000370856
12 *910:22 *2585:B 0.000176681
13 *910:22 *994:10 0
14 *993:8 *994:10 0
*RES
1 *3351:X *994:10 45.5208 
2 *994:10 *2585:B 41.1845 
*END

*D_NET *995 0.00967947
*CONN
*I *2914:A1 I *D sg13cmos5l_o21ai_1
*I *2874:B1 I *D sg13cmos5l_o21ai_1
*I *3352:X O *D sg13cmos5l_dlygate4sd3_1
*CAP
1 *2914:A1 0
2 *2874:B1 0
3 *3352:X 0.000257788
4 *995:39 0.00100401
5 *995:28 0.00150105
6 *995:20 0.00266958
7 *995:14 0.000422306
8 *995:20 *1144:66 0
9 *995:28 *1142:96 0
10 *2729:A *995:14 0.000241226
11 *2733:B1 *995:14 0
12 *2873:B *995:28 0
13 *2874:A2 *995:28 4.77425e-05
14 *2875:A *995:28 0
15 *2910:A1 *995:39 0.00012816
16 *2913:B *995:39 0
17 *2914:A2 *995:39 1.54008e-05
18 *2915:B1 *995:39 0
19 *3137:CLK *995:28 0
20 *29:16 *995:39 0
21 *381:45 *995:20 0.000240465
22 *381:60 *995:14 4.77425e-05
23 *395:25 *995:28 0
24 *397:48 *995:28 0
25 *408:8 *995:28 2.20966e-05
26 *408:8 *995:39 0
27 *411:41 *995:28 0
28 *411:47 *995:28 0
29 *413:8 *995:28 0
30 *448:12 *995:14 0
31 *470:14 *995:39 0
32 *470:37 *995:39 0.000395396
33 *591:10 *995:39 0
34 *592:10 *995:39 0.000287256
35 *694:49 *995:14 0.00012816
36 *733:64 *995:28 0.000660141
37 *740:114 *995:39 0.000554907
38 *747:12 *995:28 0.000500717
39 *749:56 *995:39 0
40 *973:16 *995:39 0.000555321
*RES
1 *3352:X *995:14 42.884 
2 *995:14 *995:20 41.6171 
3 *995:20 *995:28 35.7899 
4 *995:28 *2874:B1 20 
5 *995:20 *995:39 31.7317 
6 *995:39 *2914:A1 20 
*END

*D_NET *996 0.000509259
*CONN
*I *3149:D I *D sg13cmos5l_dfrbpq_1
*I *3353:X O *D sg13cmos5l_dlygate4sd3_1
*CAP
1 *3149:D 0.00025463
2 *3353:X 0.00025463
3 *2910:A1 *3149:D 0
4 *3149:RESET_B *3149:D 0
5 *973:16 *3149:D 0
*RES
1 *3353:X *3149:D 42.0721 
*END

*D_NET *997 0.00392309
*CONN
*I *2546:A0 I *D sg13cmos5l_mux2_1
*I *2530:A1 I *D sg13cmos5l_mux2_1
*I *3354:X O *D sg13cmos5l_dlygate4sd3_1
*CAP
1 *2546:A0 0
2 *2530:A1 0.000738775
3 *3354:X 0.000101375
4 *997:8 0.00084015
5 *2530:A1 *2547:B 0
6 *2530:A1 *1101:24 0
7 *2546:A1 *2530:A1 7.56299e-05
8 *2546:A1 *997:8 0.000106064
9 *2547:A *2530:A1 0
10 *2985:CLK *2530:A1 0
11 *49:8 *2530:A1 0
12 *49:14 *2530:A1 0
13 *295:19 *2530:A1 0.000822556
14 *295:19 *997:8 0.000181279
15 *662:10 *997:8 0.000234224
16 *987:46 *2530:A1 0.000823035
*RES
1 *3354:X *997:8 41.5862 
2 *997:8 *2530:A1 49.3215 
3 *997:8 *2546:A0 40 
*END

*D_NET *998 0.000530988
*CONN
*I *2547:B I *D sg13cmos5l_and2_1
*I *3355:X O *D sg13cmos5l_dlygate4sd3_1
*CAP
1 *2547:B 0.000225386
2 *3355:X 0.000225386
3 *2530:A1 *2547:B 0
4 *2547:A *2547:B 8.0216e-05
5 *3001:RESET_B *2547:B 0
6 *632:8 *2547:B 0
*RES
1 *3355:X *2547:B 42.4926 
*END

*D_NET *999 0.0107541
*CONN
*I *3470:A I *D sg13cmos5l_buf_1
*I *2371:X O *D sg13cmos5l_mux2_1
*CAP
1 *3470:A 0
2 *2371:X 0
3 *999:16 0.00246437
4 *999:6 0.00246437
5 *999:16 *1021:34 8.01938e-05
6 config_o[24] *999:16 0
7 *2367:A1 *999:16 0.000500312
8 *2590:A0 *999:16 0.000181192
9 *220:83 *999:16 7.52158e-05
10 *225:53 *999:16 0.000371636
11 *269:35 *999:16 0.00119013
12 *292:8 *999:16 0
13 *615:14 *999:16 0
14 *744:42 *999:16 0.00221331
15 *744:54 *999:16 0
16 *746:71 *999:16 0.000553247
17 *976:22 *999:16 0
18 *976:26 *999:16 0.000660142
*RES
1 *2371:X *999:6 40 
2 *999:6 *999:16 48.4692 
3 *999:16 *3470:A 20 
*END

*D_NET *1000 0.00107299
*CONN
*I *2621:A1 I *D sg13cmos5l_mux2_1
*I *3356:X O *D sg13cmos5l_dlygate4sd3_1
*CAP
1 *2621:A1 9.7687e-05
2 *3356:X 8.68667e-05
3 *1000:10 0.000184554
4 *2621:A1 *1105:12 0.000176605
5 *1000:10 *1101:12 1.54008e-05
6 *1000:10 *1105:12 7.89542e-05
7 *1000:10 *1108:24 0.00012816
8 en_load_o[1] *1000:10 0.00012816
9 *2621:A0 *2621:A1 0.000176605
*RES
1 *3356:X *1000:10 41.133 
2 *1000:10 *2621:A1 41.1845 
*END

*D_NET *1001 0.00383112
*CONN
*I *2622:B I *D sg13cmos5l_and2_1
*I *3357:X O *D sg13cmos5l_dlygate4sd3_1
*CAP
1 *2622:B 0.000257591
2 *3357:X 0.000989368
3 *1001:10 0.00124696
4 *1001:10 *3493:A 0.000112548
5 *1001:10 *1101:12 0.000759755
6 *1001:10 *1105:12 0
7 *1001:10 *1109:20 0
8 en_load_o[1] *1001:10 0
9 *2622:A *2622:B 8.00842e-05
10 *2624:A *2622:B 0.000144308
11 *3071:RESET_B *2622:B 0
12 *344:10 *1001:10 0.000240503
13 *715:35 *1001:10 0
*RES
1 *3357:X *1001:10 48.9198 
2 *1001:10 *2622:B 42.266 
*END

*D_NET *1002 0.00287403
*CONN
*I *2592:A1 I *D sg13cmos5l_mux2_1
*I *3358:X O *D sg13cmos5l_dlygate4sd3_1
*CAP
1 *2592:A1 0.000548805
2 *3358:X 0.000166073
3 *1002:10 0.000714878
4 *1002:10 *1003:10 0
5 config_o[28] *1002:10 0.000449332
6 *3029:CLK *2592:A1 0.000434006
7 *328:12 *2592:A1 0
8 *623:8 *1002:10 0.000111801
9 *667:16 *2592:A1 0
10 *753:46 *2592:A1 0
11 *773:78 *2592:A1 0
12 *844:14 *1002:10 0.000449137
*RES
1 *3358:X *1002:10 42.8325 
2 *1002:10 *2592:A1 45.4281 
*END

*D_NET *1003 0.00469747
*CONN
*I *2593:B I *D sg13cmos5l_and2_1
*I *3359:X O *D sg13cmos5l_dlygate4sd3_1
*CAP
1 *2593:B 0.000140979
2 *3359:X 0.000467546
3 *1003:10 0.000608525
4 *3045:RESET_B *2593:B 0.000208041
5 *3307:A *1003:10 0.000305181
6 *623:8 *1003:10 0
7 *773:65 *2593:B 4.75166e-05
8 *784:10 *1003:10 0.000112426
9 *791:18 *1003:10 0.00140342
10 *841:14 *1003:10 0.00140383
11 *1002:10 *1003:10 0
*RES
1 *3359:X *1003:10 48.5799 
2 *1003:10 *2593:B 41.4008 
*END

*D_NET *1004 0.0021503
*CONN
*I *2891:A I *D sg13cmos5l_xnor2_1
*I *3360:X O *D sg13cmos5l_dlygate4sd3_1
*CAP
1 *2891:A 0
2 *3360:X 0.000585733
3 *1004:10 0.000585733
4 *1004:10 *1144:47 0
5 *185:28 *1004:10 0
6 *225:53 *1004:10 0
7 *740:95 *1004:10 0.000978835
*RES
1 *3360:X *1004:10 45.9534 
2 *1004:10 *2891:A 40 
*END

*D_NET *1005 0.000866488
*CONN
*I *2893:A2 I *D sg13cmos5l_a21oi_1
*I *3361:X O *D sg13cmos5l_dlygate4sd3_1
*CAP
1 *2893:A2 0.000120244
2 *3361:X 0.000120132
3 *1005:10 0.000240376
4 *2893:A2 *1120:20 0.000193973
5 *2893:A2 *1120:32 1.54446e-05
6 *1005:10 *2892:B1 0
7 *2663:A *1005:10 0
8 *2893:B1 *1005:10 0
9 *595:14 *2893:A2 0.000176317
10 *734:75 *2893:A2 0
*RES
1 *3361:X *1005:10 41.1948 
2 *1005:10 *2893:A2 41.4008 
*END

*D_NET *1006 0.000518193
*CONN
*I *3139:D I *D sg13cmos5l_dfrbpq_1
*I *3362:X O *D sg13cmos5l_dlygate4sd3_1
*CAP
1 *3139:D 0.000171214
2 *3362:X 0.000171214
3 *359:43 *3139:D 0
4 *756:26 *3139:D 0.000175765
*RES
1 *3362:X *3139:D 41.7819 
*END

*D_NET *1007 0.00493971
*CONN
*I *2557:A0 I *D sg13cmos5l_mux2_1
*I *2540:A1 I *D sg13cmos5l_mux2_1
*I *3363:X O *D sg13cmos5l_dlygate4sd3_1
*CAP
1 *2557:A0 0.000422712
2 *2540:A1 0
3 *3363:X 0.000571742
4 *1007:12 0.000701792
5 *1007:8 0.000850822
6 *2557:A0 *1135:6 0
7 *1007:12 *1114:30 0
8 *2920:A1 *2557:A0 0.000242209
9 *2920:A1 *1007:8 0
10 *2920:S *2557:A0 0
11 *2995:CLK *1007:12 0
12 *295:19 *1007:12 0
13 *663:37 *2557:A0 0
14 *743:51 *1007:12 0.00215043
15 *932:10 *2557:A0 0
16 *932:10 *1007:8 0
*RES
1 *3363:X *1007:8 41.1845 
2 *1007:8 *1007:12 30.7326 
3 *1007:12 *2540:A1 20 
4 *3363:X *2557:A0 44.1165 
*END

*D_NET *1008 0.0016266
*CONN
*I *2558:B I *D sg13cmos5l_and2_1
*I *3364:X O *D sg13cmos5l_dlygate4sd3_1
*CAP
1 *2558:B 0.000130635
2 *3364:X 0.000177081
3 *1008:12 0.000307717
4 *1008:12 *2431:B 0.000340288
5 *2456:A *1008:12 0.00010131
6 *245:14 *1008:12 0
7 *663:37 *2558:B 0.000176161
8 *758:131 *1008:12 0.000393406
*RES
1 *3364:X *1008:12 42.7192 
2 *1008:12 *2558:B 41.1845 
*END

*D_NET *1009 0.00303429
*CONN
*I *2594:A1 I *D sg13cmos5l_mux2_1
*I *3365:X O *D sg13cmos5l_dlygate4sd3_1
*CAP
1 *2594:A1 0.000383268
2 *3365:X 0.000387787
3 *1009:10 0.000771055
4 *2369:A0 *2594:A1 0
5 *3031:RESET_B *2594:A1 0.000240476
6 *3031:CLK *2594:A1 0
7 *329:14 *2594:A1 4.78524e-05
8 *841:14 *1009:10 0
9 *844:14 *1009:10 0.00120385
*RES
1 *3365:X *1009:10 45.8607 
2 *1009:10 *2594:A1 43.8316 
*END

*D_NET *1010 0.026127
*CONN
*I *3471:A I *D sg13cmos5l_buf_1
*I *2372:X O *D sg13cmos5l_mux2_1
*CAP
1 *3471:A 0.000652291
2 *2372:X 0.000484904
3 *1010:36 0.00312963
4 *1010:22 0.00485732
5 *1010:16 0.00445587
6 *1010:8 0.00256079
7 *3471:A *1129:50 0.000177279
8 *1010:16 *1013:16 0.00017565
9 *1010:22 *2563:S 0
10 *1010:22 *1050:8 0
11 *1010:22 *1051:8 0
12 *1010:22 *1098:14 0
13 *1010:22 *1135:88 0
14 *1010:22 *1135:108 0
15 *1010:36 *1129:50 0.00122761
16 *2472:A *1010:22 0
17 *2871:A *1010:36 0
18 *2959:RESET_B *1010:16 0
19 *2959:D *1010:16 0
20 *2959:CLK *1010:16 0
21 *3039:RESET_B *1010:16 0
22 *3131:D *1010:36 0.000177257
23 *3135:RESET_B *1010:36 0
24 *3139:RESET_B *1010:36 0.000337671
25 *3174:A *1010:16 0
26 *3204:A *1010:16 0
27 *3321:A *1010:16 0.000273474
28 *3383:A *1010:16 0
29 *114:8 *1010:22 0
30 *252:10 *1010:22 0
31 *263:49 *1010:22 0.00225783
32 *267:12 *1010:22 0
33 *282:22 *1010:16 0
34 *603:8 *1010:16 0.000723712
35 *616:10 *1010:16 0
36 *618:8 *1010:8 0
37 *635:50 *1010:16 0.0004652
38 *639:10 *1010:16 0
39 *642:10 *1010:16 0
40 *663:52 *1010:22 0
41 *671:8 *1010:8 0
42 *742:82 *1010:22 0
43 *742:82 *1010:36 0.000920636
44 *750:60 *1010:8 0
45 *751:33 *1010:36 0.000819324
46 *756:20 *3471:A 0.000307106
47 *756:26 *3471:A 0
48 *756:26 *1010:36 0
49 *756:36 *1010:36 0
50 *780:8 *1010:36 0
51 *780:23 *1010:36 0
52 *797:10 *1010:22 0
53 *877:30 *1010:16 0
54 *886:8 *1010:22 0
55 *905:18 *1010:8 0.000554164
56 *912:32 *1010:16 0
57 *927:14 *1010:8 0.00156931
58 *948:10 *1010:16 0
59 *952:10 *1010:22 0
*RES
1 *2372:X *1010:8 47.2718 
2 *1010:8 *1010:16 38.5133 
3 *1010:16 *1010:22 48.0469 
4 *1010:22 *1010:36 46.5122 
5 *1010:36 *3471:A 25.7268 
*END

*D_NET *1011 0.00460465
*CONN
*I *2595:B I *D sg13cmos5l_and2_1
*I *3366:X O *D sg13cmos5l_dlygate4sd3_1
*CAP
1 *2595:B 0.00116385
2 *3366:X 0.000253444
3 *1011:10 0.00141729
4 *1011:10 *1076:16 0.000661457
5 *1011:10 *1076:22 0
6 *2526:A *2595:B 0.000209413
7 *2983:D *1011:10 7.91362e-05
8 *3307:A *2595:B 0
9 *129:14 *2595:B 0
10 *292:16 *2595:B 0
11 *317:8 *2595:B 0
12 *887:14 *1011:10 0.000820067
*RES
1 *3366:X *1011:10 44.3466 
2 *1011:10 *2595:B 49.5687 
*END

*D_NET *1012 0.00343148
*CONN
*I *2586:A1 I *D sg13cmos5l_mux2_1
*I *3367:X O *D sg13cmos5l_dlygate4sd3_1
*CAP
1 *2586:A1 6.09634e-05
2 *3367:X 0.000407406
3 *1012:12 0.00046837
4 *2586:A0 *2586:A1 0.00011247
5 *2975:D *1012:12 0.000418489
6 *846:8 *1012:12 0.000924885
7 *865:10 *1012:12 0.000926424
8 *919:14 *2586:A1 0.00011247
*RES
1 *3367:X *1012:12 46.7053 
2 *1012:12 *2586:A1 40.7519 
*END

*D_NET *1013 0.0053296
*CONN
*I *2587:B I *D sg13cmos5l_and2_1
*I *3368:X O *D sg13cmos5l_dlygate4sd3_1
*CAP
1 *2587:B 0
2 *3368:X 0.000280715
3 *1013:16 0.00091422
4 *1013:10 0.00119493
5 *2370:A1 *1013:16 0.000287256
6 *2486:B *1013:10 0
7 *2486:A *1013:10 0.000177032
8 *3285:A *1013:10 0
9 *3340:A *1013:16 0.000340288
10 *20:24 *1013:10 0
11 *283:22 *1013:10 0.000242352
12 *609:51 *1013:10 0
13 *609:51 *1013:16 0
14 *741:145 *1013:16 0
15 *775:87 *1013:10 0
16 *779:35 *1013:16 4.77425e-05
17 *779:46 *1013:16 0.00166941
18 *1010:16 *1013:16 0.00017565
*RES
1 *3368:X *1013:10 43.0488 
2 *1013:10 *1013:16 30.9283 
3 *1013:16 *2587:B 20 
*END

*D_NET *1014 0.00530847
*CONN
*I *2619:A0 I *D sg13cmos5l_mux2_1
*I *2603:A1 I *D sg13cmos5l_mux2_1
*I *3369:X O *D sg13cmos5l_dlygate4sd3_1
*CAP
1 *2619:A0 0.000127902
2 *2603:A1 0.00127144
3 *3369:X 0.000528466
4 *1014:14 0.00192781
5 *2603:A1 *2603:A0 0.000199156
6 *1014:14 *1099:8 0.000287672
7 *3187:A *2603:A1 0
8 *48:22 *2619:A0 0.000176521
9 *343:10 *1014:14 0.000767328
10 *725:8 *2603:A1 0
11 *725:8 *1014:14 2.21839e-05
12 *727:64 *2603:A1 0
13 *727:64 *1014:14 0
14 *728:36 *2603:A1 0
*RES
1 *3369:X *1014:14 45.974 
2 *1014:14 *2603:A1 47.8177 
3 *1014:14 *2619:A0 41.1845 
*END

*D_NET *1015 0.00175901
*CONN
*I *2588:A1 I *D sg13cmos5l_mux2_1
*I *3370:X O *D sg13cmos5l_dlygate4sd3_1
*CAP
1 *2588:A1 0.000404907
2 *3370:X 0.000450728
3 *1015:8 0.000855636
4 config_o[31] *1015:8 0
5 *2366:A1 *2588:A1 0
6 *3298:A *2588:A1 4.77425e-05
7 *269:66 *1015:8 0
8 *317:35 *2588:A1 0
*RES
1 *3370:X *1015:8 43.811 
2 *1015:8 *2588:A1 43.5844 
*END

*D_NET *1016 0.000703252
*CONN
*I *2589:B I *D sg13cmos5l_and2_1
*I *3371:X O *D sg13cmos5l_dlygate4sd3_1
*CAP
1 *2589:B 0.000263337
2 *3371:X 0.000263337
3 *2516:B *2589:B 0.000176577
4 *3371:A *2589:B 0
5 *15:16 *2589:B 0
6 *910:22 *2589:B 0
*RES
1 *3371:X *2589:B 42.9561 
*END

*D_NET *1017 0.00131709
*CONN
*I *2576:A1 I *D sg13cmos5l_mux2_1
*I *3372:X O *D sg13cmos5l_dlygate4sd3_1
*CAP
1 *2576:A1 0
2 *3372:X 0.000347154
3 *1017:10 0.000347154
4 *2368:A1 *1017:10 0.000175513
5 *3200:A *1017:10 0.000447271
6 *901:22 *1017:10 0
7 *976:26 *1017:10 0
*RES
1 *3372:X *1017:10 43.5123 
2 *1017:10 *2576:A1 40 
*END

*D_NET *1018 0.00110412
*CONN
*I *2577:B I *D sg13cmos5l_and2_1
*I *3373:X O *D sg13cmos5l_dlygate4sd3_1
*CAP
1 *2577:B 5.10268e-05
2 *3373:X 0.00023446
3 *1018:10 0.000285487
4 *3029:D *1018:10 0
5 *225:53 *1018:10 0
6 *290:10 *1018:10 0.00011236
7 *667:8 *1018:10 0
8 *695:38 *2577:B 8.00842e-05
9 *901:22 *1018:10 0.000340704
*RES
1 *3373:X *1018:10 42.5544 
2 *1018:10 *2577:B 40.5356 
*END

*D_NET *1019 0.00218567
*CONN
*I *2578:A1 I *D sg13cmos5l_mux2_1
*I *3374:X O *D sg13cmos5l_dlygate4sd3_1
*CAP
1 *2578:A1 0
2 *3374:X 0.000382643
3 *1019:10 0.000382643
4 *2369:A0 *1019:10 0
5 *2594:A0 *1019:10 0.000446352
6 *647:14 *1019:10 0.000372055
7 *780:64 *1019:10 0.00039332
8 *789:14 *1019:10 8.00842e-05
9 *901:26 *1019:10 0
10 *943:14 *1019:10 0.000128576
*RES
1 *3374:X *1019:10 45.4281 
2 *1019:10 *2578:A1 40 
*END

*D_NET *1020 0.00101381
*CONN
*I *2579:B I *D sg13cmos5l_and2_1
*I *3375:X O *D sg13cmos5l_dlygate4sd3_1
*CAP
1 *2579:B 0.000403748
2 *3375:X 0.000403748
3 *2369:A0 *2579:B 0
4 *2579:A *2579:B 8.00842e-05
5 *2963:RESET_B *2579:B 0
6 *121:12 *2579:B 0
7 *321:10 *2579:B 0
8 *780:64 *2579:B 1.54008e-05
9 *901:22 *2579:B 0.000110829
10 *976:22 *2579:B 0
*RES
1 *3375:X *2579:B 43.8007 
*END

*D_NET *1021 0.0206246
*CONN
*I *3472:A I *D sg13cmos5l_buf_1
*I *2373:X O *D sg13cmos5l_mux2_1
*CAP
1 *3472:A 0
2 *2373:X 0
3 *1021:34 0.000729645
4 *1021:20 0.00241718
5 *1021:8 0.00410141
6 *1021:6 0.00241387
7 *1021:8 *2480:B 0.000235055
8 *1021:8 *1128:35 0.000979162
9 *1021:8 *1128:55 0
10 *1021:8 *1144:55 0
11 *1021:34 *1129:50 0
12 *1021:34 *1144:47 0.000111668
13 *2358:A1 *1021:8 0.000181608
14 *2373:A1 *1021:8 0.000584597
15 *2522:A *1021:20 0.000144768
16 *2522:B *1021:34 0.00023464
17 *2949:D *1021:20 0
18 *3135:CLK *1021:34 0
19 *3139:CLK *1021:20 0
20 *3145:RESET_B *1021:34 0
21 *3203:A *1021:8 0
22 *3336:A *1021:20 0
23 *3360:A *1021:20 0.000112683
24 *3367:A *1021:8 0.000395067
25 *16:26 *1021:8 0
26 *20:12 *1021:20 0
27 *21:18 *1021:34 0
28 *225:53 *1021:20 0
29 *225:53 *1021:34 0
30 *259:10 *1021:8 0.000287672
31 *261:8 *1021:8 0.000822141
32 *282:22 *1021:8 0.00241518
33 *614:12 *1021:20 0
34 *614:18 *1021:20 0.000306925
35 *637:37 *1021:8 0.000872683
36 *637:37 *1021:20 0
37 *639:44 *1021:8 0
38 *668:12 *1021:8 0
39 *680:14 *1021:20 0.00014514
40 *689:6 *1021:20 0
41 *689:35 *1021:20 0.000176378
42 *690:44 *1021:8 0
43 *695:38 *1021:20 8.00842e-05
44 *737:10 *1021:8 0
45 *746:8 *1021:8 0.000501962
46 *748:8 *1021:20 0
47 *750:18 *1021:20 0.000230836
48 *753:18 *1021:34 2.20966e-05
49 *756:14 *1021:34 0
50 *843:12 *1021:8 0.00204196
51 *865:10 *1021:8 0
52 *999:16 *1021:34 8.01938e-05
*RES
1 *2373:X *1021:6 40 
2 *1021:6 *1021:8 35.2054 
3 *1021:8 *1021:20 36.583 
4 *1021:20 *1021:34 47.1585 
5 *1021:34 *3472:A 20 
*END

*D_NET *1022 0.00649786
*CONN
*I *2567:A0 I *D sg13cmos5l_mux2_1
*I *2551:A1 I *D sg13cmos5l_mux2_1
*I *3376:X O *D sg13cmos5l_dlygate4sd3_1
*CAP
1 *2567:A0 0.00061608
2 *2551:A1 0.000770676
3 *3376:X 0.000139269
4 *1022:8 0.00152602
5 *2551:A1 *2551:S 0
6 *2551:A1 *1095:42 0.00076662
7 *2567:A0 *1093:18 0
8 *2567:A0 *1095:42 0.000234224
9 *2354:A1 *2567:A0 0
10 *2461:C *2551:A1 0.000177233
11 *2567:A1 *2567:A0 0.000176742
12 *306:41 *2551:A1 0.000767035
13 *306:41 *2567:A0 5.30319e-05
14 *306:43 *1022:8 0.000176274
15 *307:12 *2551:A1 0
16 *634:31 *2567:A0 0.000853566
17 *734:107 *2551:A1 0
18 *770:97 *2567:A0 0.000241089
*RES
1 *3376:X *1022:8 41.1845 
2 *1022:8 *2551:A1 49.5069 
3 *1022:8 *2567:A0 46.8186 
*END

*D_NET *1023 0.00124843
*CONN
*I *2568:B I *D sg13cmos5l_and2_1
*I *3377:X O *D sg13cmos5l_dlygate4sd3_1
*CAP
1 *2568:B 0.00038292
2 *3377:X 0.00038292
3 *2568:B *1097:14 0
4 *2568:B *1139:138 0.000402505
5 config_o[6] *2568:B 0
6 *771:110 *2568:B 8.00842e-05
7 *795:10 *2568:B 0
*RES
1 *3377:X *2568:B 44.4599 
*END

*D_NET *1024 0.00247283
*CONN
*I *2605:A1 I *D sg13cmos5l_mux2_1
*I *3378:X O *D sg13cmos5l_dlygate4sd3_1
*CAP
1 *2605:A1 0
2 *3378:X 0.000364889
3 *1024:10 0.000364889
4 *1024:10 *1100:12 0.000871524
5 *3378:A *1024:10 0
6 *728:36 *1024:10 0.000871524
7 *828:8 *1024:10 0
*RES
1 *3378:X *1024:10 45.6753 
2 *1024:10 *2605:A1 40 
*END

*D_NET *1025 0.000288194
*CONN
*I *2629:A1 I *D sg13cmos5l_mux2_1
*I *3379:X O *D sg13cmos5l_dlygate4sd3_1
*CAP
1 *2629:A1 0.000144097
2 *3379:X 0.000144097
*RES
1 *3379:X *2629:A1 41.339 
*END

*D_NET *1026 0.000190196
*CONN
*I *2630:B I *D sg13cmos5l_and2_1
*I *3380:X O *D sg13cmos5l_dlygate4sd3_1
*CAP
1 *2630:B 9.50981e-05
2 *3380:X 9.50981e-05
3 *3380:A *2630:B 0
4 *145:12 *2630:B 0
*RES
1 *3380:X *2630:B 41.0918 
*END

*D_NET *1027 0.00397011
*CONN
*I *2555:A0 I *D sg13cmos5l_mux2_1
*I *2538:A1 I *D sg13cmos5l_mux2_1
*I *3381:X O *D sg13cmos5l_dlygate4sd3_1
*CAP
1 *2555:A0 0
2 *2538:A1 0.000600161
3 *3381:X 2.77263e-05
4 *1027:27 0.000859115
5 *1027:6 0.001487
6 *2538:A1 *2607:A0 0
7 *2538:A1 *1114:38 0.000401447
8 *2538:A1 *1125:58 0
9 *1027:27 *1114:86 0
10 *1027:27 *1125:58 0
11 *2535:A *2538:A1 0
12 *2535:A *1027:27 0
13 *3009:RESET_B *1027:27 0.000209808
14 *100:12 *1027:27 0
15 *230:16 *1027:27 1.54008e-05
16 *298:10 *1027:27 0
17 *635:12 *1027:27 0.000176537
18 *635:27 *1027:27 4.77699e-05
19 *658:28 *2538:A1 0
20 *658:28 *1027:27 0.00014514
21 *734:103 *1027:27 0
22 *771:42 *2538:A1 0
23 *924:8 *1027:27 0
*RES
1 *3381:X *1027:6 20.3502 
2 *1027:6 *2538:A1 25.7783 
3 *1027:6 *1027:27 48.5902 
4 *1027:27 *2555:A0 20 
*END

*D_NET *1028 0.00110193
*CONN
*I *2556:B I *D sg13cmos5l_and2_1
*I *3382:X O *D sg13cmos5l_dlygate4sd3_1
*CAP
1 *2556:B 0.000391704
2 *3382:X 0.000391704
3 *2435:B *2556:B 4.72029e-05
4 *2435:A *2556:B 0
5 *3009:D *2556:B 0
6 *68:12 *2556:B 0.000110829
7 *309:10 *2556:B 0.000143932
8 *664:230 *2556:B 0
9 *771:58 *2556:B 1.65559e-05
10 *924:8 *2556:B 0
*RES
1 *3382:X *2556:B 43.7761 
*END

*D_NET *1029 0.00205786
*CONN
*I *2563:A1 I *D sg13cmos5l_mux2_1
*I *3383:X O *D sg13cmos5l_dlygate4sd3_1
*CAP
1 *2563:A1 0.000170761
2 *3383:X 0.000436585
3 *1029:8 0.000607346
4 *3017:D *2563:A1 0
5 *3395:A *1029:8 0.000447597
6 *241:37 *2563:A1 0
7 *640:30 *2563:A1 0
8 *642:27 *1029:8 0.00021346
9 *751:48 *1029:8 0
10 *921:12 *1029:8 0
11 *962:8 *1029:8 0.00018211
*RES
1 *3383:X *1029:8 45.047 
2 *1029:8 *2563:A1 41.4008 
*END

*D_NET *1030 0.000184308
*CONN
*I *2564:B I *D sg13cmos5l_and2_1
*I *3384:X O *D sg13cmos5l_dlygate4sd3_1
*CAP
1 *2564:B 9.21538e-05
2 *3384:X 9.21538e-05
3 *902:8 *2564:B 0
*RES
1 *3384:X *2564:B 41.0918 
*END

*D_NET *1031 0.0197772
*CONN
*I *2619:A1 I *D sg13cmos5l_mux2_1
*I *2635:A0 I *D sg13cmos5l_mux2_1
*I *3385:X O *D sg13cmos5l_dlygate4sd3_1
*CAP
1 *2619:A1 8.56051e-05
2 *2635:A0 0
3 *3385:X 0.000231259
4 *1031:36 0.000989394
5 *1031:30 0.0030398
6 *1031:20 0.00300049
7 *1031:10 0.00126695
8 *1031:10 *1107:16 0.000849341
9 *1031:20 *2619:S 0.000628523
10 *1031:20 *1107:16 0.000288588
11 *1031:30 *1105:14 0
12 *1031:36 *1105:14 0
13 *1031:36 *1141:81 0.000181192
14 *1031:36 *1141:94 0.00204603
15 *1031:36 *1157:18 0
16 *1031:36 *1157:61 0
17 *2620:B *1031:10 7.94055e-05
18 *3055:CLK *1031:20 0
19 *3071:RESET_B *2619:A1 0.000111416
20 *3085:CLK *1031:36 0
21 *3188:A *1031:20 0.000433045
22 *3191:A *1031:20 0
23 *3211:A *1031:36 0
24 *3378:A *1031:20 0
25 *47:10 *1031:30 0
26 *48:22 *2619:A1 0
27 *52:8 *1031:30 6.37107e-05
28 *52:20 *1031:30 0.00435111
29 *99:8 *1031:30 0.00060678
30 *104:8 *1031:36 0
31 *302:10 *1031:36 0
32 *675:30 *1031:30 0
33 *727:50 *1031:30 4.82798e-05
34 *727:50 *1031:36 0.000235556
35 *769:20 *1031:20 8.00842e-05
36 *873:14 *1031:10 0.000872464
37 *873:14 *1031:20 0.000288184
*RES
1 *3385:X *1031:10 44.5938 
2 *1031:10 *1031:20 30.1146 
3 *1031:20 *1031:30 46.1826 
4 *1031:30 *1031:36 32.257 
5 *1031:36 *2635:A0 20 
6 *1031:10 *2619:A1 40.7519 
*END

*D_NET *1032 0.0172474
*CONN
*I *3473:A I *D sg13cmos5l_buf_1
*I *2374:X O *D sg13cmos5l_mux2_1
*CAP
1 *3473:A 0
2 *2374:X 0
3 *1032:16 0.000633598
4 *1032:8 0.00408281
5 *1032:6 0.00344922
6 config_o[28] *1032:8 0
7 *3149:RESET_B *1032:16 0
8 *27:10 *1032:16 0
9 *118:8 *1032:8 0.00012816
10 *285:22 *1032:16 0
11 *747:44 *1032:8 0.00411976
12 *753:52 *1032:8 0
13 *755:16 *1032:16 0
14 *756:66 *1032:8 0.000447684
15 *791:18 *1032:16 0
16 *899:26 *1032:8 0.00352976
17 *901:10 *1032:16 0.000128248
18 *973:16 *1032:16 1.54008e-05
19 *989:10 *1032:8 0.000712758
*RES
1 *2374:X *1032:6 40 
2 *1032:6 *1032:8 41.3854 
3 *1032:8 *1032:16 45.6753 
4 *1032:16 *3473:A 40 
*END

*D_NET *1033 0.0101727
*CONN
*I *2559:A0 I *D sg13cmos5l_mux2_1
*I *2542:A1 I *D sg13cmos5l_mux2_1
*I *3386:X O *D sg13cmos5l_dlygate4sd3_1
*CAP
1 *2559:A0 0
2 *2542:A1 0
3 *3386:X 0.00261237
4 *1033:30 0.00122478
5 *1033:18 0.000649478
6 *1033:10 0.00203707
7 *1033:10 *2601:A0 0
8 *1033:10 *1092:60 0
9 *1033:18 *1137:54 0
10 *1033:18 *1147:65 0.000259204
11 *1033:18 *1147:75 1.54556e-05
12 *1033:30 *1095:10 0.00020955
13 *1033:30 *1139:38 0.000403533
14 *2350:A0 *1033:30 0
15 *2350:A1 *1033:30 0
16 *2432:A *1033:10 0.000112558
17 *2613:A0 *1033:18 0.000274769
18 *2999:CLK *1033:18 0
19 *220:33 *1033:30 0.000663018
20 *294:27 *1033:10 0
21 *294:52 *1033:10 0
22 *660:20 *1033:10 0.000595865
23 *661:18 *1033:10 0
24 *690:16 *1033:30 0
25 *706:32 *1033:18 0
26 *767:27 *1033:10 0.00111502
*RES
1 *3386:X *1033:10 33.3156 
2 *1033:10 *1033:18 46.6332 
3 *1033:18 *2542:A1 20 
4 *3386:X *1033:30 31.1343 
5 *1033:30 *2559:A0 20 
*END

*D_NET *1034 0.000636962
*CONN
*I *2560:B I *D sg13cmos5l_and2_1
*I *3387:X O *D sg13cmos5l_dlygate4sd3_1
*CAP
1 *2560:B 0.000190187
2 *3387:X 0.000190187
3 *2560:A *2560:B 4.77534e-05
4 *3314:A *2560:B 0
5 *311:10 *2560:B 0
6 *952:22 *2560:B 0.000208835
*RES
1 *3387:X *2560:B 41.9982 
*END

*D_NET *1035 0.0034364
*CONN
*I *2548:A0 I *D sg13cmos5l_mux2_1
*I *2532:A1 I *D sg13cmos5l_mux2_1
*I *3388:X O *D sg13cmos5l_dlygate4sd3_1
*CAP
1 *2548:A0 3.7009e-05
2 *2532:A1 0.000308367
3 *3388:X 0.000366126
4 *1035:8 0.000711502
5 *2532:A1 *2601:A0 4.78356e-05
6 *2532:A1 *1092:60 1.54008e-05
7 *2532:A1 *1137:63 0.000978748
8 *2532:A1 *1157:76 0
9 *1035:8 *1137:63 0.000182023
10 *1035:8 *1137:74 0.000213045
11 *187:18 *1035:8 0
12 *296:10 *1035:8 0.000128248
13 *305:8 *2532:A1 0.000234813
14 *305:8 *1035:8 0.000213286
15 *815:10 *1035:8 0
*RES
1 *3388:X *1035:8 44.0582 
2 *1035:8 *2532:A1 44.8719 
3 *1035:8 *2548:A0 40.3193 
*END

*D_NET *1036 0.00218853
*CONN
*I *2549:B I *D sg13cmos5l_and2_1
*I *3389:X O *D sg13cmos5l_dlygate4sd3_1
*CAP
1 *2549:B 0.000722584
2 *3389:X 0.000722584
3 *2549:A *2549:B 8.03692e-05
4 *2920:A1 *2549:B 0
5 *2987:RESET_B *2549:B 0.00066299
6 *3003:RESET_B *2549:B 0
7 *3389:A *2549:B 0
*RES
1 *3389:X *2549:B 47.2409 
*END

*D_NET *1037 0.00367252
*CONN
*I *2572:A1 I *D sg13cmos5l_mux2_1
*I *3390:X O *D sg13cmos5l_dlygate4sd3_1
*CAP
1 *2572:A1 0.000631212
2 *3390:X 0.000654868
3 *1037:10 0.00128608
4 config_o[28] *1037:10 0.000875444
5 *2366:A1 *1037:10 0
6 *2572:A0 *2572:A1 1.54008e-05
7 *3210:A *2572:A1 0
8 *3370:A *2572:A1 0
9 *317:35 *1037:10 0.000209516
10 *318:10 *2572:A1 0
11 *866:10 *1037:10 0
12 *866:16 *2572:A1 0
*RES
1 *3390:X *1037:10 46.5405 
2 *1037:10 *2572:A1 45.0779 
*END

*D_NET *1038 0.00239257
*CONN
*I *2573:B I *D sg13cmos5l_and2_1
*I *3391:X O *D sg13cmos5l_dlygate4sd3_1
*CAP
1 *2573:B 0
2 *3391:X 0.000431111
3 *1038:10 0.000431111
4 *2977:RESET_B *1038:10 0.000208063
5 *3391:A *1038:10 0
6 *286:18 *1038:10 0.000177268
7 *776:114 *1038:10 0.000144833
8 *778:35 *1038:10 0.000500717
9 *899:26 *1038:10 0.00049947
*RES
1 *3391:X *1038:10 45.8916 
2 *1038:10 *2573:B 40 
*END

*D_NET *1039 0.000879726
*CONN
*I *2574:A1 I *D sg13cmos5l_mux2_1
*I *3392:X O *D sg13cmos5l_dlygate4sd3_1
*CAP
1 *2574:A1 0
2 *3392:X 0.000402005
3 *1039:8 0.000402005
4 *1039:8 *1134:110 0
5 *636:48 *1039:8 7.57164e-05
6 *748:38 *1039:8 0
*RES
1 *3392:X *1039:8 43.3166 
2 *1039:8 *2574:A1 40 
*END

*D_NET *1040 0.00237457
*CONN
*I *2575:B I *D sg13cmos5l_and2_1
*I *3393:X O *D sg13cmos5l_dlygate4sd3_1
*CAP
1 *2575:B 0.00015675
2 *3393:X 0.000694623
3 *1040:10 0.000851374
4 *2501:A *2575:B 0.000111568
5 *2502:A *2575:B 0
6 *2575:A *2575:B 4.75212e-05
7 *2578:A0 *2575:B 0
8 *2963:RESET_B *1040:10 0.000240196
9 *780:45 *1040:10 0.000272538
10 *937:10 *2575:B 0
11 *988:14 *1040:10 0
*RES
1 *3393:X *1040:10 44.6556 
2 *1040:10 *2575:B 41.5203 
*END

*D_NET *1041 0.00185473
*CONN
*I *2607:A1 I *D sg13cmos5l_mux2_1
*I *3394:X O *D sg13cmos5l_dlygate4sd3_1
*CAP
1 *2607:A1 0
2 *3394:X 0.000464255
3 *1041:10 0.000464255
4 *1041:10 *1109:20 0.000926217
5 *2537:A *1041:10 0
*RES
1 *3394:X *1041:10 45.4899 
2 *1041:10 *2607:A1 40 
*END

*D_NET *1042 0.00319767
*CONN
*I *2569:A1 I *D sg13cmos5l_mux2_1
*I *3395:X O *D sg13cmos5l_dlygate4sd3_1
*CAP
1 *2569:A1 0
2 *3395:X 0
3 *1042:14 0.00108417
4 *1042:6 0.00108417
5 *2373:A0 *1042:14 0
6 *2569:A0 *1042:14 0
7 *263:49 *1042:14 0
8 *742:88 *1042:14 0.000981411
9 *751:48 *1042:14 0
10 *793:12 *1042:14 0
11 *919:14 *1042:14 4.79124e-05
*RES
1 *3395:X *1042:6 40 
2 *1042:6 *1042:14 31.1549 
3 *1042:14 *2569:A1 20 
*END

*D_NET *1043 0.0147174
*CONN
*I *3474:A I *D sg13cmos5l_buf_1
*I *2375:X O *D sg13cmos5l_mux2_1
*CAP
1 *3474:A 0
2 *2375:X 0.00033944
3 *1043:10 0.0023243
4 *1043:8 0.00266374
5 *1043:10 *1065:12 0.0028967
6 config_o[30] *1043:10 0.00161804
7 *2590:S *1043:8 0
8 *2979:CLK *1043:8 0
9 *3043:CLK *1043:10 0.00103344
10 *3047:D *1043:10 0
11 *27:10 *1043:10 0
12 *269:66 *1043:8 0.000531721
13 *623:14 *1043:10 0.000553748
14 *696:41 *1043:10 0
15 *702:12 *1043:10 0.0011395
16 *755:31 *1043:10 0.00161679
17 *837:10 *1043:10 0
18 *887:14 *1043:10 0
*RES
1 *2375:X *1043:8 43.5638 
2 *1043:8 *1043:10 33.7222 
3 *1043:10 *3474:A 40 
*END

*D_NET *1044 0.000604638
*CONN
*I *2570:B I *D sg13cmos5l_and2_1
*I *3396:X O *D sg13cmos5l_dlygate4sd3_1
*CAP
1 *2570:B 0
2 *3396:X 0.000302319
3 *1044:8 0.000302319
4 *269:47 *1044:8 0
5 *854:14 *1044:8 0
*RES
1 *3396:X *1044:8 43.3166 
2 *1044:8 *2570:B 40 
*END

*D_NET *1045 0.00424166
*CONN
*I *2615:A0 I *D sg13cmos5l_mux2_1
*I *2599:A1 I *D sg13cmos5l_mux2_1
*I *3397:X O *D sg13cmos5l_dlygate4sd3_1
*CAP
1 *2615:A0 8.32127e-05
2 *2599:A1 0.000392591
3 *3397:X 0.000763724
4 *1045:10 0.00123953
5 *1045:10 *1100:20 0.000660247
6 *2599:A0 *2599:A1 1.54008e-05
7 *2615:A1 *2615:A0 0.000144768
8 *3049:CLK *1045:10 0
9 *3051:CLK *2599:A1 0
10 *332:25 *2599:A1 0
11 *728:36 *1045:10 0
12 *730:41 *1045:10 0.00012816
13 *731:8 *2615:A0 8.00842e-05
14 *731:16 *1045:10 0
15 *731:39 *2615:A0 8.00842e-05
16 *768:14 *2599:A1 0.000144768
17 *771:27 *1045:10 7.52149e-05
18 *847:14 *1045:10 0
19 *869:12 *1045:10 0.000433882
*RES
1 *3397:X *1045:10 47.7147 
2 *1045:10 *2599:A1 43.296 
3 *1045:10 *2615:A0 40.9682 
*END

*D_NET *1046 0.000653797
*CONN
*I *2616:B I *D sg13cmos5l_and2_1
*I *3398:X O *D sg13cmos5l_dlygate4sd3_1
*CAP
1 *2616:B 0.000219246
2 *3398:X 0.000219246
3 *2616:B *1100:12 7.12678e-05
4 *2616:A *2616:B 7.41973e-05
5 *332:42 *2616:B 2.20968e-05
6 *731:26 *2616:B 0
7 *847:14 *2616:B 4.77425e-05
*RES
1 *3398:X *2616:B 42.3407 
*END

*D_NET *1047 0.00520565
*CONN
*I *2551:A0 I *D sg13cmos5l_mux2_1
*I *2534:A1 I *D sg13cmos5l_mux2_1
*I *3399:X O *D sg13cmos5l_dlygate4sd3_1
*CAP
1 *2551:A0 0.000227718
2 *2534:A1 0
3 *3399:X 0.000279192
4 *1047:18 0.000744963
5 *1047:10 0.000972681
6 *1047:8 0.000279192
7 *2551:A0 *2551:S 0
8 *1047:8 *1087:12 0.000873186
9 *1047:18 *1101:24 0.0014587
10 *3007:RESET_B *2551:A0 0.000274535
11 *3007:RESET_B *1047:18 1.54008e-05
12 *3192:A *2551:A0 0
13 *49:14 *1047:18 8.00842e-05
14 *307:12 *2551:A0 0
15 *734:107 *2551:A0 0
16 *771:94 *1047:8 0
*RES
1 *3399:X *1047:8 44.0582 
2 *1047:8 *1047:10 20 
3 *1047:10 *1047:18 48.3945 
4 *1047:18 *2534:A1 20 
5 *1047:10 *2551:A0 22.6162 
*END

*D_NET *1048 0.0010423
*CONN
*I *2633:A1 I *D sg13cmos5l_mux2_1
*I *3400:X O *D sg13cmos5l_dlygate4sd3_1
*CAP
1 *2633:A1 0.000344315
2 *3400:X 0.000344315
3 *2633:A1 *1141:53 0
4 *672:16 *2633:A1 0.000241116
5 *731:49 *2633:A1 0.000112558
*RES
1 *3400:X *2633:A1 43.6977 
*END

*D_NET *1049 0.00060745
*CONN
*I *2634:B I *D sg13cmos5l_and2_1
*I *3401:X O *D sg13cmos5l_dlygate4sd3_1
*CAP
1 *2634:B 0.000263683
2 *3401:X 0.000263683
3 *2634:B *1152:14 8.00842e-05
4 *3083:RESET_B *2634:B 0
5 *350:10 *2634:B 0
*RES
1 *3401:X *2634:B 42.3175 
*END

*D_NET *1050 0.000803367
*CONN
*I *2565:A1 I *D sg13cmos5l_mux2_1
*I *3402:X O *D sg13cmos5l_dlygate4sd3_1
*CAP
1 *2565:A1 0
2 *3402:X 0.000364119
3 *1050:8 0.000364119
4 *1050:8 *1098:14 0
5 *663:52 *1050:8 7.51285e-05
6 *886:8 *1050:8 0
7 *1010:22 *1050:8 0
*RES
1 *3402:X *1050:8 43.3166 
2 *1050:8 *2565:A1 40 
*END

*D_NET *1051 0.000867615
*CONN
*I *2566:B I *D sg13cmos5l_and2_1
*I *3403:X O *D sg13cmos5l_dlygate4sd3_1
*CAP
1 *2566:B 0.000169976
2 *3403:X 0.000126616
3 *1051:8 0.000296592
4 *262:10 *2566:B 0
5 *663:52 *1051:8 0
6 *762:123 *2566:B 0.00027443
7 *1010:22 *1051:8 0
*RES
1 *3403:X *1051:8 41.339 
2 *1051:8 *2566:B 41.8334 
*END

*D_NET *1052 0.0145094
*CONN
*I *2561:A0 I *D sg13cmos5l_mux2_1
*I *2544:A1 I *D sg13cmos5l_mux2_1
*I *3404:X O *D sg13cmos5l_dlygate4sd3_1
*CAP
1 *2561:A0 0.00130114
2 *2544:A1 0
3 *3404:X 0
4 *1052:40 0.00104103
5 *1052:12 0.0023544
6 *1052:4 0.00261452
7 *2561:A0 *1095:28 0.000337303
8 *2561:A0 *1135:80 0.000111567
9 *2561:A0 *1135:95 0.00027443
10 *1052:12 *1095:28 0
11 *1052:12 *1135:80 0
12 *1052:12 *1140:32 0.000181694
13 *1052:40 *1136:70 0.000241786
14 *1052:40 *1137:16 0
15 *1052:40 *1137:24 0
16 *1052:40 *1157:41 1.65559e-05
17 *2353:S *2561:A0 0
18 *2444:C *1052:12 0.000287343
19 *2444:A *1052:40 3.24516e-05
20 *2457:C *2561:A0 8.00842e-05
21 *2544:A0 *1052:40 1.54008e-05
22 *2561:A1 *2561:A0 0
23 *2931:CLK *1052:12 0.00172261
24 *2995:D *1052:40 0
25 *235:10 *1052:12 0.00023464
26 *236:12 *1052:12 0
27 *241:14 *2561:A0 0
28 *263:6 *2561:A0 0
29 *294:31 *1052:12 0.0013508
30 *611:16 *1052:12 0
31 *611:29 *1052:12 0
32 *627:29 *1052:12 8.0194e-05
33 *627:44 *1052:12 0.000289857
34 *636:34 *2561:A0 0
35 *636:34 *1052:12 0
36 *766:63 *1052:40 0.00128078
37 *767:37 *1052:40 0.0006608
38 *767:47 *1052:12 0
*RES
1 *3404:X *1052:4 20 
2 *1052:4 *1052:12 37.0568 
3 *1052:12 *1052:40 32.2879 
4 *1052:40 *2544:A1 20 
5 *1052:4 *2561:A0 32.6175 
*END

*D_NET *1053 0.000845862
*CONN
*I *2562:B I *D sg13cmos5l_and2_1
*I *3405:X O *D sg13cmos5l_dlygate4sd3_1
*CAP
1 *2562:B 5.20469e-05
2 *3405:X 0.00032307
3 *1053:8 0.000375117
4 *1053:8 *1135:88 0
5 *2562:A *2562:B 8.02267e-05
6 *224:72 *1053:8 0
7 *312:10 *1053:8 0
8 *774:49 *2562:B 1.54008e-05
*RES
1 *3405:X *1053:8 43.3166 
2 *1053:8 *2562:B 40.5356 
*END

*D_NET *1054 0.00403378
*CONN
*I *3475:A I *D sg13cmos5l_buf_1
*I *2346:Y O *D sg13cmos5l_o21ai_1
*CAP
1 *3475:A 0.000264528
2 *2346:Y 0.000726161
3 *1054:10 0.000990689
4 *1054:10 *1057:29 0.00053341
5 *1054:10 *1087:12 0.000552918
6 config_o[0] *3475:A 0
7 config_o[1] *3475:A 0.000112552
8 sel_load_src_o[4] *3475:A 0.000209905
9 *2346:B1 *1054:10 0.000370324
10 *634:12 *1054:10 0
11 *634:29 *1054:10 0.000273299
*RES
1 *2346:Y *1054:10 48.3018 
2 *1054:10 *3475:A 42.9355 
*END

*D_NET *1055 0.00170315
*CONN
*I *2627:A1 I *D sg13cmos5l_mux2_1
*I *3406:X O *D sg13cmos5l_dlygate4sd3_1
*CAP
1 *2627:A1 9.79022e-05
2 *3406:X 0.00037975
3 *1055:10 0.000477652
4 *2627:A0 *2627:A1 0.000176521
5 *3077:CLK *2627:A1 0.000177082
6 *728:18 *1055:10 0.000394248
*RES
1 *3406:X *1055:10 42.6162 
2 *1055:10 *2627:A1 41.1845 
*END

*D_NET *1056 0.00099706
*CONN
*I *2628:B I *D sg13cmos5l_and2_1
*I *3407:X O *D sg13cmos5l_dlygate4sd3_1
*CAP
1 *2628:B 0.000124262
2 *3407:X 0.000278026
3 *1056:10 0.000402288
4 *2628:B *1152:31 0.000177082
5 *672:16 *2628:B 1.54008e-05
*RES
1 *3407:X *1056:10 41.6274 
2 *1056:10 *2628:B 41.1845 
*END

*D_NET *1057 0.00694169
*CONN
*I *2553:A0 I *D sg13cmos5l_mux2_1
*I *2536:A1 I *D sg13cmos5l_mux2_1
*I *3408:X O *D sg13cmos5l_dlygate4sd3_1
*CAP
1 *2553:A0 0
2 *2536:A1 0.000280888
3 *3408:X 0.000154885
4 *1057:29 0.0017665
5 *1057:8 0.00220227
6 *2536:A1 *2536:A0 1.54008e-05
7 *2536:A1 *2603:A0 4.77425e-05
8 *2536:A1 *1105:14 0
9 *2536:A1 *1137:101 0.000128248
10 *1057:29 *2553:A1 0
11 *1057:29 *3497:A 0
12 *1057:29 *1105:14 0
13 sel_load_src_o[4] *1057:29 0
14 *2623:A1 *1057:29 0
15 *3168:A *1057:29 0.000306963
16 *3191:A *1057:8 0
17 *187:18 *2536:A1 0
18 *187:18 *1057:29 0
19 *187:20 *1057:29 8.0216e-05
20 *654:12 *1057:29 0
21 *654:24 *1057:29 0
22 *686:10 *1057:29 0.000342364
23 *716:12 *1057:29 0.000209714
24 *828:8 *1057:8 0
25 *829:8 *1057:29 0.000873099
26 *830:10 *2536:A1 0
27 *1054:10 *1057:29 0.00053341
*RES
1 *3408:X *1057:8 41.4008 
2 *1057:8 *2536:A1 42.8943 
3 *1057:8 *1057:29 38.7975 
4 *1057:29 *2553:A0 20 
*END

*D_NET *1058 0.00058599
*CONN
*I *2553:A1 I *D sg13cmos5l_mux2_1
*I *3409:X O *D sg13cmos5l_dlygate4sd3_1
*CAP
1 *2553:A1 0.000148228
2 *3409:X 0.000148228
3 *654:24 *2553:A1 0.000112425
4 *813:14 *2553:A1 0.000177109
5 *1057:29 *2553:A1 0
*RES
1 *3409:X *2553:A1 41.7819 
*END

*D_NET *1059 0.00416628
*CONN
*I *2617:A0 I *D sg13cmos5l_mux2_1
*I *2601:A1 I *D sg13cmos5l_mux2_1
*I *3410:X O *D sg13cmos5l_dlygate4sd3_1
*CAP
1 *2617:A0 6.28783e-05
2 *2601:A1 0.000429153
3 *3410:X 0.000459557
4 *1059:10 0.000951588
5 *2601:A1 *2601:A0 4.78524e-05
6 *2601:A1 *1133:37 0.000979163
7 *1059:10 *1133:37 0.000159511
8 *1059:10 *1133:48 0.000554077
9 *1059:10 *1133:65 0.00023464
10 *2599:A0 *1059:10 0.000143932
11 *768:14 *1059:10 0.000143932
*RES
1 *3410:X *1059:10 45.2736 
2 *1059:10 *2601:A1 44.8719 
3 *1059:10 *2617:A0 40.5356 
*END

*D_NET *1060 0.00422084
*CONN
*I *2617:A1 I *D sg13cmos5l_mux2_1
*I *3411:X O *D sg13cmos5l_dlygate4sd3_1
*CAP
1 *2617:A1 0
2 *3411:X 0.000332787
3 *1060:8 0.000332787
4 *1060:8 *1133:37 0.00023464
5 *1060:8 *1133:48 0.00053198
6 *1060:8 *1133:65 0.00100977
7 *728:36 *1060:8 0.00177888
*RES
1 *3411:X *1060:8 48.2606 
2 *1060:8 *2617:A1 40 
*END

*D_NET *1061 0.00489316
*CONN
*I *2801:A1 I *D sg13cmos5l_o21ai_1
*I *2755:A I *D sg13cmos5l_xnor2_1
*I *2780:A I *D sg13cmos5l_xnor2_1
*I *3412:X O *D sg13cmos5l_dlygate4sd3_1
*CAP
1 *2801:A1 0
2 *2755:A 0
3 *2780:A 0.000862966
4 *3412:X 0.000252936
5 *1061:10 0.00103233
6 *1061:8 0.000422296
7 *2780:A *1124:68 0.000394652
8 *2780:A *1124:74 0.0010322
9 *2780:A *1147:30 0
10 *2780:A *1148:126 0
11 *1061:8 *1114:30 0
12 *1061:8 *1121:8 0
13 *1061:8 *1124:62 0.00044893
14 *1061:8 *1147:30 0
15 *1061:10 *1121:8 0
16 *1061:10 *1124:62 7.52158e-05
17 *1061:10 *1124:68 0.000371639
18 *397:33 *2780:A 0
19 *466:8 *2780:A 0
20 *466:8 *1061:10 0
*RES
1 *3412:X *1061:8 43.3166 
2 *1061:8 *1061:10 2.0806 
3 *1061:10 *2780:A 49.7438 
4 *1061:10 *2755:A 40 
5 *1061:8 *2801:A1 40 
*END

*D_NET *1062 9.45957e-05
*CONN
*I *3105:D I *D sg13cmos5l_dfrbpq_1
*I *3413:X O *D sg13cmos5l_dlygate4sd3_1
*CAP
1 *3105:D 4.72978e-05
2 *3413:X 4.72978e-05
3 *2843:B1 *3105:D 0
4 *3245:A *3105:D 0
*RES
1 *3413:X *3105:D 40.5974 
*END

*D_NET *1063 0.000936784
*CONN
*I *2635:A1 I *D sg13cmos5l_mux2_1
*I *3414:X O *D sg13cmos5l_dlygate4sd3_1
*CAP
1 *2635:A1 0
2 *3414:X 0.000100049
3 *1063:8 0.000100049
4 *1063:8 *1141:81 0.000234224
5 *1063:8 *1141:94 0.00021346
6 *729:20 *1063:8 0
7 *788:32 *1063:8 0.000289003
*RES
1 *3414:X *1063:8 42.0806 
2 *1063:8 *2635:A1 40 
*END

*D_NET *1064 0.00168772
*CONN
*I *2611:A1 I *D sg13cmos5l_mux2_1
*I *3415:X O *D sg13cmos5l_dlygate4sd3_1
*CAP
1 *2611:A1 0
2 *3415:X 0.000128274
3 *1064:8 0.000128274
4 *1064:8 *1133:26 0.00071575
5 *3256:A *1064:8 0.000715421
*RES
1 *3415:X *1064:8 43.3166 
2 *1064:8 *2611:A1 40 
*END

*D_NET *1065 0.00562771
*CONN
*I *3476:A I *D sg13cmos5l_buf_1
*I *2376:X O *D sg13cmos5l_mux2_1
*CAP
1 *3476:A 0
2 *2376:X 0
3 *1065:12 0.00119428
4 *1065:6 0.00119428
5 *1065:12 *1076:22 0
6 *29:12 *1065:12 0
7 *30:12 *1065:12 0
8 *696:41 *1065:12 0.00034245
9 *887:14 *1065:12 0
10 *1043:10 *1065:12 0.0028967
*RES
1 *2376:X *1065:6 40 
2 *1065:6 *1065:12 35.8105 
3 *1065:12 *3476:A 20 
*END

*D_NET *1066 0.00185579
*CONN
*I *2609:A1 I *D sg13cmos5l_mux2_1
*I *3416:X O *D sg13cmos5l_dlygate4sd3_1
*CAP
1 *2609:A1 0.000422445
2 *3416:X 0.000387421
3 *1066:8 0.000809866
4 *1066:8 *1102:10 0
5 en_ros_o[1] *1066:8 0
6 *2612:B *2609:A1 0
7 *3061:D *2609:A1 0
8 *5:18 *2609:A1 0
9 *50:10 *1066:8 0
10 *51:8 *2609:A1 0
11 *730:12 *1066:8 0
12 *860:8 *1066:8 0.000236057
*RES
1 *3416:X *1066:8 44.5526 
2 *1066:8 *2609:A1 44.5114 
*END

*D_NET *1067 0.00255511
*CONN
*I *2844:A I *D sg13cmos5l_xnor2_1
*I *3417:X O *D sg13cmos5l_dlygate4sd3_1
*CAP
1 *2844:A 0.000201548
2 *3417:X 0.00107601
3 *1067:10 0.00127755
4 *1067:10 *1136:42 0
5 *1067:10 *1149:41 0
6 *2844:B *2844:A 0
7 *397:44 *2844:A 0
8 *406:12 *1067:10 0
9 *407:32 *1067:10 0
*RES
1 *3417:X *1067:10 49.1052 
2 *1067:10 *2844:A 41.6171 
*END

*D_NET *1068 0.00192079
*CONN
*I *2613:A1 I *D sg13cmos5l_mux2_1
*I *3418:X O *D sg13cmos5l_dlygate4sd3_1
*CAP
1 *2613:A1 0
2 *3418:X 0.000170176
3 *1068:8 0.000170176
4 *1068:8 *1141:94 0.000821399
5 *3278:A *1068:8 0
6 *772:10 *1068:8 0.000235141
7 *772:19 *1068:8 0.000235228
8 *788:32 *1068:8 0.000288675
*RES
1 *3418:X *1068:8 43.811 
2 *1068:8 *2613:A1 40 
*END

*D_NET *1069 0.00176973
*CONN
*I *2842:A1 I *D sg13cmos5l_o21ai_1
*I *3419:X O *D sg13cmos5l_dlygate4sd3_1
*CAP
1 *2842:A1 0
2 *3419:X 0.000330789
3 *1069:10 0.000330789
4 *1069:10 *1153:93 0.000447597
5 *3237:A *1069:10 0
6 *732:37 *1069:10 0.000660556
7 *734:101 *1069:10 0
*RES
1 *3419:X *1069:10 44.4702 
2 *1069:10 *2842:A1 40 
*END

*D_NET *1070 0.000891934
*CONN
*I *3121:D I *D sg13cmos5l_dfrbpq_1
*I *3420:X O *D sg13cmos5l_dlygate4sd3_1
*CAP
1 *3121:D 0.000119868
2 *3420:X 9.69795e-05
3 *1070:8 0.000216847
4 *3121:D *1120:46 0.000176274
5 *3121:D *1124:52 0
6 *183:18 *3121:D 4.77425e-05
7 *740:14 *1070:8 0.000234224
*RES
1 *3420:X *1070:8 41.0918 
2 *1070:8 *3121:D 41.1845 
*END

*D_NET *1071 0.00414847
*CONN
*I *2870:A0 I *D sg13cmos5l_mux2_1
*I *2825:A1 I *D sg13cmos5l_mux2_1
*I *3421:X O *D sg13cmos5l_dlygate4sd3_1
*CAP
1 *2870:A0 0.00017457
2 *2825:A1 0.000904475
3 *3421:X 0.000561201
4 *1071:8 0.00164025
5 *2825:A1 *1119:97 0
6 *2825:A1 *1126:113 0.000181279
7 *2825:A1 *1131:10 0.000112826
8 *2825:A1 *1131:20 0
9 *2870:A0 *1126:113 4.75151e-05
10 *1071:8 *1126:113 7.51285e-05
11 *2824:A *2825:A1 0
12 *2870:A1 *2870:A0 1.54008e-05
13 *3254:A *2825:A1 0
14 *3254:A *2870:A0 0
15 *359:33 *2825:A1 0
16 *359:43 *2870:A0 0
17 *405:16 *2870:A0 0
18 *563:10 *2870:A0 0
19 *563:10 *1071:8 0
20 *688:54 *1071:8 0
21 *737:18 *2825:A1 0.000435829
22 *737:18 *1071:8 0
23 *737:26 *2825:A1 0
24 *756:36 *1071:8 0
*RES
1 *3421:X *1071:8 45.2942 
2 *1071:8 *2825:A1 48.6314 
3 *1071:8 *2870:A0 41.4008 
*END

*D_NET *1072 0.0150244
*CONN
*I *2826:A0 I *D sg13cmos5l_mux2_1
*I *2782:A I *D sg13cmos5l_xnor2_1
*I *3422:X O *D sg13cmos5l_dlygate4sd3_1
*CAP
1 *2826:A0 0.000303929
2 *2782:A 0.000225298
3 *3422:X 0
4 *1072:31 0.00125312
5 *1072:27 0.00268065
6 *1072:23 0.00324675
7 *1072:4 0.00174059
8 *2782:A *1119:46 8.02598e-05
9 *1072:23 *2759:A 0
10 *1072:23 *2781:A 0
11 *1072:23 *1103:39 0.00268948
12 *1072:23 *1119:46 0
13 *1072:31 *2658:C 0.000340791
14 *1072:31 *2798:A 0.000159839
15 *1072:31 *1119:76 0.000609162
16 *1072:31 *1145:112 0
17 *2661:A *2826:A0 0.000209098
18 *2781:B *1072:23 0
19 *2782:B *2782:A 9.58138e-05
20 *2826:A1 *2826:A0 1.54556e-05
21 *3212:A *1072:23 0
22 *3237:A *2826:A0 0
23 *293:25 *1072:27 0.000209411
24 *400:30 *1072:27 8.00842e-05
25 *707:8 *1072:23 0
26 *732:37 *1072:23 0
27 *733:26 *1072:27 7.93636e-05
28 *733:83 *1072:31 0
29 *742:48 *1072:31 0.000341216
30 *742:63 *1072:31 0.000664051
31 *743:33 *2826:A0 0
32 *760:21 *2782:A 0
33 *760:29 *2782:A 0
34 *760:29 *1072:23 0
*RES
1 *3422:X *1072:4 20 
2 *1072:4 *2782:A 22.9458 
3 *1072:4 *1072:23 36.3941 
4 *1072:23 *1072:27 34.1625 
5 *1072:27 *1072:31 31.4742 
6 *1072:31 *2826:A0 42.6986 
*END

*D_NET *1073 0.0128555
*CONN
*I *2897:A I *D sg13cmos5l_nand2_1
*I *2855:A I *D sg13cmos5l_and2_1
*I *2858:A I *D sg13cmos5l_nor4_1
*I *3423:X O *D sg13cmos5l_dlygate4sd3_1
*CAP
1 *2897:A 0.000486897
2 *2855:A 0
3 *2858:A 0.000196307
4 *3423:X 3.01104e-05
5 *1073:56 0.00152483
6 *1073:41 0.000139773
7 *1073:33 0.000669737
8 *1073:14 0.00151847
9 *1073:6 0.00186025
10 *2858:A *1117:66 1.54556e-05
11 *2858:A *1117:73 0.000240789
12 *2858:A *1117:108 0.000112426
13 *2858:A *1122:53 0.000337814
14 *1073:14 *1117:108 0.00103041
15 *1073:14 *1122:53 0.000530015
16 *1073:14 *1122:72 9.7025e-05
17 *1073:41 *1117:85 0.000181694
18 *1073:56 *3119:D 4.77425e-05
19 *1073:56 *1113:122 0
20 *1073:56 *1122:72 0
21 *1073:56 *1123:66 0
22 *1073:56 *1123:81 0
23 *1073:56 *1154:111 0.000661265
24 *1073:56 *1154:128 0.000159096
25 *1073:56 *1155:49 0
26 *2694:A *1073:56 0
27 *2710:B1 *2897:A 0
28 *2816:C *1073:56 0.000401486
29 *2838:D *1073:6 0
30 *2838:D *1073:56 0
31 *2865:C *1073:41 0.000112409
32 *358:84 *1073:33 4.77425e-05
33 *358:84 *1073:41 0.000315176
34 *410:33 *1073:56 0.000767328
35 *423:10 *1073:56 0.000129089
36 *423:22 *1073:56 0
37 *425:10 *2897:A 0
38 *427:24 *1073:14 0
39 *441:43 *1073:33 0.000340288
40 *441:43 *1073:41 0
41 *487:52 *1073:33 0.000148205
42 *487:52 *1073:41 0
43 *515:10 *1073:14 0
44 *516:12 *1073:56 1.9636e-05
45 *739:10 *1073:14 0.000265575
46 *739:12 *1073:14 0.000181192
47 *745:56 *1073:33 0.000287256
*RES
1 *3423:X *1073:6 20.3502 
2 *1073:6 *1073:14 49.1052 
3 *1073:14 *2858:A 22.266 
4 *1073:14 *1073:33 45.4487 
5 *1073:33 *1073:41 42.0909 
6 *1073:41 *2855:A 20 
7 *1073:6 *1073:56 32.2467 
8 *1073:56 *2897:A 43.2651 
*END

*D_NET *1074 0.00531097
*CONN
*I *2847:A1 I *D sg13cmos5l_o21ai_1
*I *2805:A I *D sg13cmos5l_xnor2_1
*I *3424:X O *D sg13cmos5l_dlygate4sd3_1
*CAP
1 *2847:A1 0.000160292
2 *2805:A 0.00010082
3 *3424:X 3.47228e-05
4 *1074:10 0.000967969
5 *1074:6 0.00106216
6 *2805:A *1092:32 0
7 *1074:10 *1125:27 0.00225359
8 *2805:B *2805:A 0.000144401
9 *219:18 *2847:A1 0.000111658
10 *397:16 *2847:A1 0.000192952
11 *397:16 *1074:6 4.72443e-05
12 *987:36 *1074:10 0.000235153
*RES
1 *3424:X *1074:6 20.3193 
2 *1074:6 *1074:10 30.4854 
3 *1074:10 *2805:A 40.9682 
4 *1074:6 *2847:A1 21.751 
*END

*D_NET *1075 0.00127093
*CONN
*I *3123:D I *D sg13cmos5l_dfrbpq_1
*I *3425:X O *D sg13cmos5l_dlygate4sd3_1
*CAP
1 *3123:D 0
2 *3425:X 0.000256842
3 *1075:10 0.000256842
4 *1075:10 *1153:93 0.000208063
5 *674:8 *1075:10 0.000341119
6 *743:18 *1075:10 0.000208063
*RES
1 *3425:X *1075:10 42.987 
2 *1075:10 *3123:D 40 
*END

*D_NET *1076 0.00893899
*CONN
*I *3477:A I *D sg13cmos5l_buf_1
*I *2377:X O *D sg13cmos5l_mux2_1
*CAP
1 *3477:A 0
2 *2377:X 0.000475167
3 *1076:22 0.00169151
4 *1076:16 0.00216668
5 *1076:22 *2515:B 0
6 *1076:22 *1129:54 0
7 *2377:A1 *1076:16 0
8 *29:12 *1076:22 0
9 *30:12 *1076:22 0
10 *30:20 *1076:22 0.000608233
11 *225:59 *1076:22 0
12 *329:14 *1076:16 0
13 *791:8 *1076:22 0
14 *837:10 *1076:16 0.00034245
15 *887:14 *1076:16 0.000181608
16 *887:14 *1076:22 0
17 *922:12 *1076:22 0
18 *944:12 *1076:16 0
19 *944:12 *1076:22 0.00215135
20 *945:8 *1076:16 0.000660529
21 *950:10 *1076:22 0
22 *1011:10 *1076:16 0.000661457
23 *1011:10 *1076:22 0
24 *1065:12 *1076:22 0
*RES
1 *2377:X *1076:16 47.313 
2 *1076:16 *1076:22 37.9426 
3 *1076:22 *3477:A 20 
*END

*D_NET *1077 0.00807586
*CONN
*I *2856:B I *D sg13cmos5l_xor2_1
*I *3270:A I *D sg13cmos5l_buf_1
*I *3426:X O *D sg13cmos5l_dlygate4sd3_1
*CAP
1 *2856:B 0.00224155
2 *3270:A 0
3 *3426:X 7.81883e-05
4 *1077:12 0.00244475
5 *1077:8 0.00028139
6 *2856:B *1118:93 0
7 *2856:B *1118:116 0
8 *2856:B *1146:30 0
9 *2856:B *1148:47 0
10 *2856:B *1156:31 0
11 *1077:12 *2760:A 0
12 *1077:12 *1146:30 0
13 *1077:12 *1146:36 0
14 *1077:12 *1156:31 0
15 *3095:RESET_B *2856:B 0
16 *3095:RESET_B *1077:12 0
17 *3125:D *2856:B 0.000177093
18 *209:33 *2856:B 0
19 *219:12 *1077:8 0.000128662
20 *293:25 *1077:8 0.000394151
21 *472:10 *1077:8 0.00023464
22 *688:32 *2856:B 0.00140273
23 *757:72 *2856:B 0
24 *757:80 *2856:B 0.000692707
*RES
1 *3426:X *1077:8 41.8334 
2 *1077:8 *1077:12 21.6171 
3 *1077:12 *3270:A 20 
4 *1077:12 *2856:B 41.5167 
*END

*D_NET *1078 0.00243729
*CONN
*I *2867:A1 I *D sg13cmos5l_a22oi_1
*I *3427:X O *D sg13cmos5l_dlygate4sd3_1
*CAP
1 *2867:A1 7.46583e-05
2 *3427:X 0.000468169
3 *1078:12 0.000542828
4 *1078:12 *2867:A2 0.000340288
5 *1078:12 *1123:31 0.000637214
6 *1078:12 *1148:51 8.00995e-05
7 *1078:12 *1154:71 0.000181608
8 *2819:A0 *1078:12 0
9 *556:10 *1078:12 0
10 *560:8 *1078:12 0
11 *762:59 *2867:A1 0.000112426
*RES
1 *3427:X *1078:12 46.3963 
2 *1078:12 *2867:A1 40.7519 
*END

*D_NET *1079 0.010594
*CONN
*I *2883:A I *D sg13cmos5l_nand2_1
*I *3428:X O *D sg13cmos5l_dlygate4sd3_1
*CAP
1 *2883:A 0.000350516
2 *3428:X 0.000590879
3 *1079:22 0.00143105
4 *1079:12 0.00241252
5 *1079:8 0.00192287
6 *1079:8 *1150:126 0
7 *2672:B *1079:12 0
8 *2723:D *1079:12 0.000885118
9 *2748:A *2883:A 0.000530564
10 *2748:A *1079:22 0
11 *3137:CLK *2883:A 0
12 *3137:CLK *1079:22 0
13 *358:100 *1079:12 0
14 *359:10 *1079:8 0
15 *369:24 *1079:8 0
16 *378:22 *1079:12 0.00121304
17 *407:32 *1079:12 0
18 *427:24 *1079:22 0
19 *438:8 *1079:22 0
20 *461:12 *1079:22 0
21 *688:8 *1079:8 0
22 *733:52 *1079:22 0
23 *739:10 *1079:22 8.00842e-05
24 *744:12 *1079:22 0
25 *761:37 *1079:12 0.00117733
*RES
1 *3428:X *1079:8 46.0358 
2 *1079:8 *1079:12 34.3788 
3 *1079:12 *1079:22 49.27 
4 *1079:22 *2883:A 23.5638 
*END

*D_NET *1080 0.000542677
*CONN
*I *3137:D I *D sg13cmos5l_dfrbpq_1
*I *3429:X O *D sg13cmos5l_dlygate4sd3_1
*CAP
1 *3137:D 9.40157e-05
2 *3429:X 9.40157e-05
3 *2876:A1 *3137:D 0.000177323
4 *463:22 *3137:D 4.77153e-05
5 *463:29 *3137:D 0.000129607
*RES
1 *3429:X *3137:D 41.1845 
*END

*D_NET *1081 0.00757806
*CONN
*I *2895:A0 I *D sg13cmos5l_mux2_1
*I *2851:A I *D sg13cmos5l_nor4_1
*I *3430:X O *D sg13cmos5l_dlygate4sd3_1
*CAP
1 *2895:A0 0.000598178
2 *2851:A 0
3 *3430:X 0
4 *1081:20 0.00213668
5 *1081:6 0.00273486
6 *1081:20 *1086:10 0.000182109
7 *1081:20 *1115:26 1.54008e-05
8 *1081:20 *1119:57 0
9 *2851:D *1081:20 2.20736e-05
10 *2854:C *1081:20 0.000176731
11 *369:36 *1081:20 0
12 *370:10 *1081:20 0
13 *431:8 *1081:20 0.00018128
14 *494:10 *1081:20 0
15 *733:20 *1081:20 0
16 *733:83 *2895:A0 0
17 *733:83 *1081:20 0
18 *742:10 *1081:20 0
19 *742:48 *1081:20 0
20 *751:8 *2895:A0 0.000499799
21 *758:87 *1081:20 0
22 *758:102 *2895:A0 0
23 *758:102 *1081:20 0
24 *759:27 *1081:20 0.00103095
*RES
1 *3430:X *1081:6 40 
2 *1081:6 *1081:20 40.8884 
3 *1081:20 *2851:A 20 
4 *1081:6 *2895:A0 46.077 
*END

*D_NET *1082 0.00134346
*CONN
*I *2768:A I *D sg13cmos5l_xnor2_1
*I *3431:X O *D sg13cmos5l_dlygate4sd3_1
*CAP
1 *2768:A 0.000119936
2 *3431:X 5.64796e-05
3 *1082:8 0.000176415
4 *208:25 *2768:A 0.000207964
5 *293:25 *1082:8 0.000287256
6 *472:10 *1082:8 0.000287256
7 *478:12 *2768:A 0.000208151
*RES
1 *3431:X *1082:8 41.339 
2 *1082:8 *2768:A 41.4008 
*END

*D_NET *1083 0.00498618
*CONN
*I *2904:A0 I *D sg13cmos5l_mux2_2
*I *3432:X O *D sg13cmos5l_dlygate4sd3_1
*CAP
1 *2904:A0 0
2 *3432:X 0.000327581
3 *1083:14 0.000946667
4 *1083:8 0.00127425
5 *1083:14 *2756:A 0.000980408
6 *1083:14 *1126:87 0.00145728
7 *1083:14 *1144:39 0
8 *414:10 *1083:8 0
9 *589:10 *1083:14 0
10 *595:30 *1083:14 0
11 *666:10 *1083:14 0
12 *744:42 *1083:14 0
13 *746:42 *1083:14 0
14 *753:18 *1083:14 0
*RES
1 *3432:X *1083:8 42.6986 
2 *1083:8 *1083:14 33.184 
3 *1083:14 *2904:A0 20 
*END

*D_NET *1084 0.00244262
*CONN
*I *2795:A I *D sg13cmos5l_xnor2_1
*I *3433:X O *D sg13cmos5l_dlygate4sd3_1
*CAP
1 *2795:A 0.000129755
2 *3433:X 0.000579772
3 *1084:18 0.000709528
4 *2638:B_N *2795:A 9.16541e-05
5 *2795:B *2795:A 1.54556e-05
6 *293:6 *2795:A 0
7 *293:10 *1084:18 7.51285e-05
8 *293:25 *1084:18 0
9 *357:8 *1084:18 0.000793139
10 *876:28 *2795:A 0
11 *876:59 *1084:18 4.81895e-05
*RES
1 *3433:X *1084:18 46.4581 
2 *1084:18 *2795:A 41.1845 
*END

*D_NET *1085 0.00601644
*CONN
*I *2853:A1 I *D sg13cmos5l_a22oi_1
*I *3434:X O *D sg13cmos5l_dlygate4sd3_1
*CAP
1 *2853:A1 0
2 *3434:X 0.000903636
3 *1085:16 0.000968734
4 *1085:8 0.00187237
5 *1085:8 *1150:106 0.00023464
6 *2853:B1 *1085:16 4.78853e-05
7 *393:18 *1085:8 0
8 *394:8 *1085:8 0
9 *395:49 *1085:16 0.00111252
10 *401:14 *1085:8 0
11 *549:12 *1085:16 2.21754e-05
12 *740:37 *1085:8 0
13 *757:39 *1085:8 0
14 *758:29 *1085:16 0
15 *760:29 *1085:16 0.000854488
16 *760:46 *1085:16 0
*RES
1 *3434:X *1085:8 48.0134 
2 *1085:8 *1085:16 30.3206 
3 *1085:16 *2853:A1 20 
*END

*D_NET *1086 0.0017248
*CONN
*I *2854:D I *D sg13cmos5l_nand4_1
*I *3435:X O *D sg13cmos5l_dlygate4sd3_1
*CAP
1 *2854:D 0.000228585
2 *3435:X 0.000261107
3 *1086:10 0.000489692
4 *2851:D *1086:10 4.78521e-05
5 *2854:C *2854:D 0.000339015
6 *2854:C *1086:10 0
7 *708:55 *1086:10 0.000176443
8 *759:27 *1086:10 0
9 *783:10 *2854:D 0
10 *1081:20 *1086:10 0.000182109
*RES
1 *3435:X *1086:10 42.7707 
2 *1086:10 *2854:D 42.266 
*END

*D_NET *1087 0.0080825
*CONN
*I *3478:A I *D sg13cmos5l_buf_1
*I *2347:X O *D sg13cmos5l_mux2_1
*CAP
1 *3478:A 0
2 *2347:X 0.000974723
3 *1087:12 0.000623249
4 *1087:8 0.00159797
5 sel_load_src_o[5] *1087:12 0
6 *3007:CLK *1087:8 0
7 *3190:A *1087:8 0
8 *3192:A *1087:12 0.000394566
9 *109:10 *1087:12 0
10 *306:35 *1087:8 0
11 *633:10 *1087:8 0.000692462
12 *634:8 *1087:12 0.00183274
13 *657:26 *1087:8 0.000144872
14 *678:8 *1087:12 0.000395811
15 *687:12 *1087:8 0
16 *687:14 *1087:8 0
17 *771:94 *1087:12 0
18 *902:18 *1087:8 0
19 *1047:8 *1087:12 0.000873186
20 *1054:10 *1087:12 0.000552918
*RES
1 *2347:X *1087:8 30.0322 
2 *1087:8 *1087:12 31.9686 
3 *1087:12 *3478:A 40 
*END

*D_NET *1088 0.00548413
*CONN
*I *2837:A1 I *D sg13cmos5l_a22oi_1
*I *3436:X O *D sg13cmos5l_dlygate4sd3_1
*CAP
1 *2837:A1 0
2 *3436:X 0.00156537
3 *1088:10 0.00156537
4 *1088:10 *1090:10 0
5 *1088:10 *1115:16 0.0012767
6 *1088:10 *1122:53 0
7 *2837:B1 *1088:10 0.00014391
8 *3127:CLK *1088:10 0.000530092
9 *209:62 *1088:10 0.000402695
10 *758:50 *1088:10 0
*RES
1 *3436:X *1088:10 35.7281 
2 *1088:10 *2837:A1 20 
*END

*D_NET *1089 0.000408891
*CONN
*I *3119:D I *D sg13cmos5l_dfrbpq_1
*I *3437:X O *D sg13cmos5l_dlygate4sd3_1
*CAP
1 *3119:D 0.000180574
2 *3437:X 0.000180574
3 *3119:D *1123:66 0
4 *2835:A *3119:D 0
5 *2838:D *3119:D 0
6 *1073:56 *3119:D 4.77425e-05
*RES
1 *3437:X *3119:D 41.5347 
*END

*D_NET *1090 0.00638242
*CONN
*I *2815:A1 I *D sg13cmos5l_a22oi_1
*I *3438:X O *D sg13cmos5l_dlygate4sd3_1
*CAP
1 *2815:A1 0
2 *3438:X 0.00196831
3 *1090:18 0.000485624
4 *1090:10 0.00245394
5 *1090:10 *2812:A 0
6 *1090:10 *1115:72 0.000917763
7 *1090:10 *1143:33 0
8 *1090:18 *1117:108 0.000235961
9 *1090:18 *1122:72 0
10 *1090:18 *1143:31 0
11 *2815:B1 *1090:18 4.77425e-05
12 *3127:CLK *1090:10 0
13 *185:49 *1090:10 0.000273087
14 *693:23 *1090:10 0
15 *738:25 *1090:10 0
16 *744:14 *1090:18 0
17 *758:50 *1090:10 0
18 *758:63 *1090:10 0
19 *1088:10 *1090:10 0
*RES
1 *3438:X *1090:10 39.0653 
2 *1090:10 *1090:18 44.1921 
3 *1090:18 *2815:A1 20 
*END

*D_NET *1091 0.00176702
*CONN
*I *2865:A I *D sg13cmos5l_nor4_1
*I *3439:X O *D sg13cmos5l_dlygate4sd3_1
*CAP
1 *2865:A 0.000336936
2 *3439:X 9.98209e-05
3 *1091:8 0.000436756
4 *2865:A *1117:85 1.50692e-05
5 *1091:8 *1123:31 0.000181192
6 *1091:8 *1148:59 0.000446439
7 *2865:C *2865:A 8.50058e-06
8 *2865:D *2865:A 0
9 *487:52 *2865:A 6.10305e-05
10 *559:10 *2865:A 0
11 *745:35 *1091:8 0.00018128
*RES
1 *3439:X *1091:8 42.0806 
2 *1091:8 *2865:A 42.9767 
*END

*D_NET *1092 0.0286372
*CONN
*I *2532:A0 I *D sg13cmos5l_mux2_1
*I *2601:A0 I *D sg13cmos5l_mux2_1
*I *2430:A I *D sg13cmos5l_nand2_1
*I *2757:A1 I *D sg13cmos5l_o21ai_1
*I *3447:X O *D sg13cmos5l_buf_1
*CAP
1 *2532:A0 0
2 *2601:A0 0.00079119
3 *2430:A 0.000631402
4 *2757:A1 4.27252e-05
5 *3447:X 9.37467e-05
6 *1092:60 0.00128874
7 *1092:45 0.00258464
8 *1092:34 0.0023221
9 *1092:32 0.00352778
10 *1092:16 0.00490945
11 *1092:8 0.0022991
12 *2430:A *2540:S 0
13 *2430:A *1136:78 0
14 *2430:A *1140:32 0
15 *2601:A0 *2533:A 0.000144899
16 *2601:A0 *1107:14 0.000499118
17 *2601:A0 *1157:61 0
18 *2757:A1 *2757:A2 8.01938e-05
19 *2757:A1 *1153:60 8.01938e-05
20 *1092:8 *1114:16 0.000177306
21 *1092:8 *1125:8 0.000177399
22 *1092:16 *2785:A 0.000287672
23 *1092:16 *1115:37 0
24 *1092:16 *1123:120 0
25 *1092:16 *1145:45 0
26 *1092:16 *1146:118 0
27 *1092:16 *1155:10 0
28 *1092:16 *1155:16 0
29 *1092:32 *2804:A 0
30 *1092:32 *1150:94 0.000531707
31 *1092:32 *1150:96 0
32 *1092:32 *1150:126 0.000548016
33 *1092:34 *1114:30 0
34 *1092:34 *1124:89 0
35 *1092:45 *1114:30 0
36 *1092:45 *1120:52 0
37 *1092:45 *1137:16 0
38 *1092:60 *1114:30 0
39 *2529:A *2430:A 0
40 *2532:A1 *2601:A0 4.78356e-05
41 *2532:A1 *1092:60 1.54008e-05
42 *2533:B *2601:A0 0
43 *2601:A1 *2601:A0 4.78524e-05
44 *2679:A1 *1092:32 0.000208702
45 *2679:A2 *1092:32 0
46 *2679:B1 *1092:32 0
47 *2681:B *1092:32 0.000274077
48 *2683:B *1092:32 0
49 *2684:C *1092:32 0
50 *2714:B *1092:32 0
51 *2714:A *1092:32 0
52 *2738:A *1092:16 0
53 *2803:B *1092:32 0
54 *2804:B *1092:32 7.92265e-05
55 *2805:A *1092:32 0
56 *2805:B *1092:32 0
57 *2808:B *1092:34 0.000181192
58 *2995:RESET_B *2430:A 0
59 *2999:RESET_B *2430:A 0
60 *3418:A *2601:A0 0
61 *105:10 *1092:45 0
62 *183:42 *1092:32 0
63 *183:46 *1092:32 0.0003379
64 *183:54 *1092:16 0
65 *183:54 *1092:32 0
66 *187:14 *1092:45 0
67 *187:14 *1092:60 0
68 *208:31 *1092:16 0
69 *225:18 *2430:A 0
70 *358:43 *1092:16 0
71 *376:16 *1092:16 0
72 *392:16 *1092:16 7.51285e-05
73 *392:16 *1092:32 4.78192e-05
74 *395:49 *1092:32 0
75 *395:57 *1092:32 0.00107933
76 *395:61 *1092:32 0.000338124
77 *396:8 *1092:34 0.000448513
78 *398:10 *1092:32 0
79 *399:10 *1092:34 0.000234311
80 *429:25 *1092:32 0.00043333
81 *450:31 *1092:16 0
82 *452:8 *1092:16 0
83 *487:28 *1092:16 0
84 *496:8 *1092:16 0
85 *499:20 *1092:16 0
86 *522:10 *1092:16 0
87 *660:20 *2430:A 0
88 *727:50 *2601:A0 0
89 *729:12 *2601:A0 0
90 *766:39 *1092:16 0
91 *767:27 *2601:A0 0
92 *788:22 *1092:34 7.56308e-05
93 *788:26 *1092:34 0.00177672
94 *788:26 *1092:45 0.0019187
95 *1033:10 *2601:A0 0
96 *1033:10 *1092:60 0
*RES
1 *3447:X *1092:8 41.1845 
2 *1092:8 *1092:16 43.2677 
3 *1092:16 *1092:32 47.9748 
4 *1092:32 *1092:34 11.9686 
5 *1092:34 *2757:A1 40.5356 
6 *1092:34 *1092:45 17.6542 
7 *1092:45 *2430:A 45.7268 
8 *1092:45 *1092:60 25.3354 
9 *1092:60 *2601:A0 27.5202 
10 *1092:60 *2532:A0 20 
*END

*D_NET *1093 0.00662439
*CONN
*I *3479:A I *D sg13cmos5l_buf_1
*I *2348:X O *D sg13cmos5l_mux2_1
*CAP
1 *3479:A 0
2 *2348:X 0.00019476
3 *1093:18 0.00137425
4 *1093:8 0.00156901
5 *1093:18 *1095:42 0
6 *1093:18 *1139:138 0.000112516
7 *2345:B *1093:18 0
8 *2567:A0 *1093:18 0
9 *2929:CLK *1093:18 0.000181608
10 *3220:A *1093:18 0.000553748
11 *31:10 *1093:18 0.000177512
12 *230:16 *1093:18 0
13 *246:8 *1093:8 1.54008e-05
14 *248:12 *1093:18 0
15 *306:35 *1093:18 0.000820154
16 *306:41 *1093:18 0
17 *635:27 *1093:8 0.000273299
18 *685:17 *1093:18 0.000904449
19 *687:12 *1093:18 0.000447685
20 *924:8 *1093:8 0
*RES
1 *2348:X *1093:8 41.8334 
2 *1093:8 *1093:18 36.2328 
3 *1093:18 *3479:A 20 
*END

*D_NET *1094 0.0142266
*CONN
*I *3480:A I *D sg13cmos5l_buf_1
*I *2349:X O *D sg13cmos5l_mux2_1
*CAP
1 *3480:A 4.19883e-05
2 *2349:X 0.000476465
3 *1094:32 0.00164396
4 *1094:20 0.00246281
5 *1094:14 0.0013373
6 *1094:32 *2553:S 0
7 *1094:32 *1135:33 0.000112895
8 *1094:32 *1135:41 0
9 config_o[1] *3480:A 8.0276e-05
10 config_o[1] *1094:32 7.51285e-05
11 *2345:B *1094:32 0
12 *2349:A1 *1094:14 0
13 *2427:A *1094:14 0.000144043
14 *2435:A *1094:20 0.000144
15 *2440:A *1094:20 0
16 *2931:CLK *1094:20 0.00124432
17 *3005:RESET_B *1094:32 0
18 *31:10 *3480:A 8.0276e-05
19 *108:10 *1094:32 0.00103311
20 *183:22 *1094:20 0.003371
21 *183:22 *1094:32 0
22 *184:8 *1094:32 0
23 *224:37 *1094:14 7.91362e-05
24 *229:18 *1094:32 0
25 *230:22 *1094:32 0
26 *600:29 *1094:20 0
27 *634:29 *1094:32 0.000234224
28 *659:20 *1094:14 0.000207854
29 *662:27 *1094:20 0.000660228
30 *664:230 *1094:32 0
31 *677:20 *1094:20 0
32 *684:32 *1094:20 0.000797556
*RES
1 *2349:X *1094:14 44.3672 
2 *1094:14 *1094:20 36.6448 
3 *1094:20 *1094:32 37.2628 
4 *1094:32 *3480:A 40.5356 
*END

*D_NET *1095 0.0156252
*CONN
*I *3481:A I *D sg13cmos5l_buf_1
*I *2350:X O *D sg13cmos5l_mux2_1
*CAP
1 *3481:A 0
2 *2350:X 0.000754197
3 *1095:42 0.00216801
4 *1095:28 0.00290807
5 *1095:10 0.00149425
6 *1095:10 *1096:10 0.000181192
7 *1095:42 *1114:96 0.000181192
8 *1095:42 *1139:138 0
9 config_o[4] *1095:42 0
10 *2429:A *1095:42 0
11 *2457:C *1095:28 1.54008e-05
12 *2551:A1 *1095:42 0.00076662
13 *2561:A0 *1095:28 0.000337303
14 *2567:A0 *1095:42 0.000234224
15 *3309:A *1095:28 0.000265892
16 *31:10 *1095:42 4.79124e-05
17 *66:10 *1095:42 0.000234726
18 *220:33 *1095:10 0.000208981
19 *306:41 *1095:42 0
20 *629:8 *1095:10 0
21 *631:10 *1095:10 0.000234224
22 *633:16 *1095:42 0
23 *636:34 *1095:28 0
24 *658:36 *1095:42 0
25 *733:83 *1095:10 0
26 *758:131 *1095:42 0.00246581
27 *770:18 *1095:42 0
28 *770:74 *1095:42 0.000340375
29 *770:89 *1095:42 0.00133161
30 *900:8 *1095:42 0.00124565
31 *963:8 *1095:42 0
32 *1033:30 *1095:10 0.00020955
33 *1052:12 *1095:28 0
34 *1093:18 *1095:42 0
*RES
1 *2350:X *1095:10 47.931 
2 *1095:10 *1095:28 47.2461 
3 *1095:28 *1095:42 49.664 
4 *1095:42 *3481:A 20 
*END

*D_NET *1096 0.0157082
*CONN
*I *3482:A I *D sg13cmos5l_buf_1
*I *2351:X O *D sg13cmos5l_mux2_1
*CAP
1 *3482:A 0.000462971
2 *2351:X 0.000228158
3 *1096:20 0.00291197
4 *1096:18 0.00270841
5 *1096:10 0.000487567
6 *3482:A *2487:B 0
7 *3482:A *1097:14 0
8 *3482:A *1139:138 0.000171634
9 *1096:18 *2351:A0 0.000435764
10 *1096:20 *1097:14 0.00337399
11 *1096:20 *1098:14 0
12 config_o[7] *3482:A 1.54556e-05
13 *2354:A1 *3482:A 0
14 *2475:A *1096:10 0.000177109
15 *2487:A *3482:A 2.88393e-05
16 *247:19 *1096:20 0
17 *247:34 *1096:20 0
18 *258:14 *1096:18 0.000435627
19 *266:12 *3482:A 0
20 *601:40 *3482:A 0.000209676
21 *634:31 *3482:A 0
22 *733:83 *1096:20 0
23 *762:123 *1096:20 0.00156725
24 *763:105 *1096:20 0
25 *961:10 *1096:20 0.0023126
26 *1095:10 *1096:10 0.000181192
*RES
1 *2351:X *1096:10 42.0291 
2 *1096:10 *1096:18 43.2342 
3 *1096:18 *1096:20 31.7446 
4 *1096:20 *3482:A 44.8693 
*END

*D_NET *1097 0.00766686
*CONN
*I *3483:A I *D sg13cmos5l_buf_1
*I *2352:X O *D sg13cmos5l_mux2_1
*CAP
1 *3483:A 0
2 *2352:X 0
3 *1097:14 0.00154966
4 *1097:6 0.00154966
5 *1097:14 *2487:B 0
6 config_o[7] *1097:14 0
7 config_o[8] *1097:14 0.000404252
8 *2462:A *1097:14 0
9 *2568:B *1097:14 0
10 *3482:A *1097:14 0
11 *247:19 *1097:14 0.000446853
12 *602:25 *1097:14 0
13 *733:83 *1097:14 0
14 *884:8 *1097:14 0
15 *925:8 *1097:14 0.00034245
16 *1096:20 *1097:14 0.00337399
*RES
1 *2352:X *1097:6 40 
2 *1097:6 *1097:14 41.0429 
3 *1097:14 *3483:A 20 
*END

*D_NET *1098 0.00705212
*CONN
*I *3484:A I *D sg13cmos5l_buf_1
*I *2353:X O *D sg13cmos5l_mux2_1
*CAP
1 *3484:A 0
2 *2353:X 0.00015115
3 *1098:14 0.00236566
4 *1098:8 0.00251681
5 *2485:A *1098:14 0.000112426
6 *3454:A *1098:14 0
7 *247:34 *1098:14 0
8 *252:10 *1098:14 0.000874429
9 *262:10 *1098:8 0.000241979
10 *266:12 *1098:14 0.00012816
11 *266:18 *1098:14 0.000107421
12 *267:12 *1098:14 0
13 *602:40 *1098:14 0
14 *663:52 *1098:14 0.000554078
15 *699:8 *1098:14 0
16 *734:113 *1098:14 0
17 *762:123 *1098:8 0
18 *762:123 *1098:14 0
19 *863:8 *1098:14 0
20 *1010:22 *1098:14 0
21 *1050:8 *1098:14 0
22 *1096:20 *1098:14 0
*RES
1 *2353:X *1098:8 41.6171 
2 *1098:8 *1098:14 46.4993 
3 *1098:14 *3484:A 20 
*END

*D_NET *1099 0.0134936
*CONN
*I *3485:A I *D sg13cmos5l_buf_1
*I *2379:X O *D sg13cmos5l_and2_1
*CAP
1 *3485:A 0
2 *2379:X 5.51701e-05
3 *1099:20 0.00144404
4 *1099:14 0.0022241
5 *1099:8 0.00083523
6 *1099:20 *1102:10 0
7 *1099:20 *1106:22 0
8 *3164:A *1099:20 0
9 *3397:A *1099:20 0.000342951
10 *48:12 *1099:20 0
11 *53:8 *1099:20 0
12 *53:12 *1099:20 0.00477904
13 *713:29 *1099:20 0.00235116
14 *727:64 *1099:8 0.000287758
15 *769:56 *1099:14 0.000886473
16 *1014:14 *1099:8 0.000287672
*RES
1 *2379:X *1099:8 41.339 
2 *1099:8 *1099:14 46.8083 
3 *1099:14 *1099:20 43.7209 
4 *1099:20 *3485:A 20 
*END

*D_NET *1100 0.0124506
*CONN
*I *3486:A I *D sg13cmos5l_buf_1
*I *2380:X O *D sg13cmos5l_and2_1
*CAP
1 *3486:A 0
2 *2380:X 0
3 *1100:26 0.000333839
4 *1100:20 0.0009619
5 *1100:12 0.00175102
6 *1100:6 0.00112296
7 *1100:12 *1133:65 0.00034112
8 *1100:20 *1108:20 0
9 *1100:26 *1108:8 0
10 en_ros_o[1] *1100:26 0
11 *2385:A *1100:12 5.34469e-05
12 *2616:A *1100:12 0
13 *2616:B *1100:12 7.12678e-05
14 *48:12 *1100:26 0.00124939
15 *138:10 *1100:12 7.9706e-05
16 *187:24 *1100:12 0.00018211
17 *332:42 *1100:12 7.52158e-05
18 *725:26 *1100:12 0.00113918
19 *728:36 *1100:12 0
20 *769:20 *1100:12 0.00124474
21 *769:24 *1100:12 0.00039332
22 *769:35 *1100:12 0.00012816
23 *769:56 *1100:12 0.000394151
24 *838:12 *1100:26 0.000770024
25 *847:14 *1100:20 0.000627256
26 *1024:10 *1100:12 0.000871524
27 *1045:10 *1100:20 0.000660247
*RES
1 *2380:X *1100:6 40 
2 *1100:6 *1100:12 36.8302 
3 *1100:12 *1100:20 45.9534 
4 *1100:20 *1100:26 46.283 
5 *1100:26 *3486:A 20 
*END

*D_NET *1101 0.0112638
*CONN
*I *3487:A I *D sg13cmos5l_buf_1
*I *2381:X O *D sg13cmos5l_and2_1
*CAP
1 *3487:A 0
2 *2381:X 0.000289607
3 *1101:24 0.00192936
4 *1101:18 0.00310218
5 *1101:12 0.00146243
6 en_load_o[1] *1101:12 0.000711511
7 *2530:A1 *1101:24 0
8 *2535:A *1101:24 0.000660557
9 *2547:A *1101:24 0.000874342
10 *49:14 *1101:24 0
11 *654:8 *1101:24 0
12 *771:94 *1101:24 0
13 *932:16 *1101:24 0
14 *1000:10 *1101:12 1.54008e-05
15 *1001:10 *1101:12 0.000759755
16 *1047:18 *1101:24 0.0014587
*RES
1 *2381:X *1101:12 44.635 
2 *1101:12 *1101:18 49.4039 
3 *1101:18 *1101:24 40.9399 
4 *1101:24 *3487:A 20 
*END

*D_NET *1102 0.0138992
*CONN
*I *3488:A I *D sg13cmos5l_buf_1
*I *2382:X O *D sg13cmos5l_and2_1
*CAP
1 *3488:A 0.000121355
2 *2382:X 4.74954e-05
3 *1102:10 0.00290038
4 *1102:8 0.00282652
5 *1102:8 *1106:16 7.92329e-05
6 *1102:10 *1106:22 0
7 en_ros_o[0] *1102:10 0.00459686
8 en_ros_o[3] *1102:8 7.92329e-05
9 *2620:A *1102:10 0
10 *3397:A *1102:10 0.000341949
11 *53:12 *1102:10 0
12 *140:8 *1102:10 0
13 *713:29 *1102:10 0.00290615
14 *1066:8 *1102:10 0
15 *1099:20 *1102:10 0
*RES
1 *2382:X *1102:8 40.5356 
2 *1102:8 *1102:10 38.1718 
3 *1102:10 *3488:A 41.1845 
*END

*D_NET *1103 0.0359263
*CONN
*I *2534:A0 I *D sg13cmos5l_mux2_1
*I *2603:A0 I *D sg13cmos5l_mux2_1
*I *2433:A I *D sg13cmos5l_nand2_1
*I *2761:A1 I *D sg13cmos5l_o21ai_1
*I *3448:X O *D sg13cmos5l_buf_1
*CAP
1 *2534:A0 0
2 *2603:A0 0.00158629
3 *2433:A 0.000219079
4 *2761:A1 0
5 *3448:X 0.000143842
6 *1103:64 0.00236449
7 *1103:41 0.00307853
8 *1103:39 0.00512397
9 *1103:35 0.00333424
10 *1103:22 0.000291528
11 *1103:20 0.000922757
12 *1103:12 0.00320125
13 *1103:8 0.00242233
14 *2433:A *1140:87 7.51285e-05
15 *2603:A0 *1114:86 0
16 *2603:A0 *1137:101 0.000144857
17 *1103:12 *1136:16 0.00121612
18 *1103:12 *1147:16 0
19 *1103:20 *1125:12 0
20 *1103:20 *1147:20 0
21 *1103:20 *1151:73 0
22 *1103:35 *2769:A2 6.47932e-05
23 *1103:35 *1118:28 0.00011253
24 *1103:35 *1120:101 1.54008e-05
25 *1103:35 *1151:73 0
26 *1103:39 *1125:27 0
27 *1103:41 *1125:27 0
28 *1103:41 *1140:87 0
29 *1103:64 *1114:86 0.000305772
30 *1103:64 *1129:130 0
31 *2424:A *1103:41 0
32 *2432:C *1103:41 0
33 *2435:A *2433:A 0
34 *2536:A1 *2603:A0 4.77425e-05
35 *2537:B *2603:A0 0
36 *2603:A1 *2603:A0 0.000199156
37 *2606:B *2603:A0 2.21754e-05
38 *2991:D *2603:A0 0
39 *3009:RESET_B *1103:64 0.000404121
40 *3055:D *2603:A0 0.000176274
41 *3057:CLK *2603:A0 0
42 *3107:CLK *1103:39 0
43 *3187:A *2603:A0 0.000467475
44 *3394:A *2603:A0 0.000305253
45 *3440:A *1103:20 0
46 *4:13 *1103:12 0.000242451
47 *66:18 *1103:41 0
48 *67:8 *1103:41 0.00049947
49 *100:12 *2433:A 0
50 *110:8 *1103:64 0.000128576
51 *183:18 *1103:39 0.00311485
52 *229:18 *2433:A 0
53 *229:18 *1103:64 0.000236274
54 *230:22 *1103:64 0
55 *298:10 *1103:64 0
56 *503:8 *1103:20 0
57 *635:8 *1103:64 0.000181192
58 *664:230 *2433:A 0
59 *664:254 *2603:A0 0
60 *684:23 *1103:41 0
61 *707:12 *1103:39 0
62 *707:20 *1103:39 0
63 *707:28 *1103:35 0
64 *732:37 *1103:39 0
65 *732:37 *1103:41 0
66 *740:14 *1103:39 0
67 *754:8 *1103:39 0
68 *763:20 *1103:39 0
69 *769:12 *2603:A0 0.000209489
70 *771:58 *1103:41 0.00050063
71 *771:58 *1103:64 0.000318607
72 *771:73 *1103:41 0
73 *790:10 *1103:35 0.000396298
74 *799:18 *1103:20 0.000393736
75 *801:10 *1103:39 0.000770114
76 *830:10 *2603:A0 0
77 *876:28 *1103:20 0
78 *906:8 *1103:41 0
79 *1072:23 *1103:39 0.00268948
*RES
1 *3448:X *1103:8 41.339 
2 *1103:8 *1103:12 44.5449 
3 *1103:12 *1103:20 30.6605 
4 *1103:20 *1103:22 20 
5 *1103:22 *2761:A1 20 
6 *1103:22 *1103:35 23.6462 
7 *1103:35 *1103:39 38.2439 
8 *1103:39 *1103:41 20.6206 
9 *1103:41 *2433:A 42.6085 
10 *1103:41 *1103:64 29.0537 
11 *1103:64 *2603:A0 36.0474 
12 *1103:64 *2534:A0 20 
*END

*D_NET *1104 0.0148622
*CONN
*I *3489:A I *D sg13cmos5l_buf_1
*I *2383:X O *D sg13cmos5l_and2_1
*CAP
1 *3489:A 0
2 *2383:X 6.88035e-05
3 *1104:12 0.00279212
4 *1104:10 0.00286092
5 *1104:12 *1107:16 0
6 en_ros_o[1] *1104:12 0.00337639
7 en_ros_o[2] *1104:12 0
8 *2382:B *1104:10 0
9 *3049:CLK *1104:12 0.00028743
10 *3061:CLK *1104:12 0.00018261
11 *3067:CLK *1104:12 0.00170375
12 *331:36 *1104:12 0
13 *682:10 *1104:12 0.000584925
14 *682:32 *1104:12 0.00122729
15 *711:10 *1104:12 0.000426244
16 *711:12 *1104:12 0.000106894
17 *723:10 *1104:12 0
18 *730:8 *1104:12 0
19 *730:12 *1104:12 0
20 *834:10 *1104:12 0.00124482
*RES
1 *2383:X *1104:10 40.6695 
2 *1104:10 *1104:12 39.655 
3 *1104:12 *3489:A 40 
*END

*D_NET *1105 0.0114345
*CONN
*I *3490:A I *D sg13cmos5l_buf_1
*I *2384:X O *D sg13cmos5l_and2_1
*CAP
1 *3490:A 0
2 *2384:X 0.000971841
3 *1105:14 0.00261126
4 *1105:12 0.0035831
5 *1105:14 *1137:101 0
6 *1105:14 *1157:61 0.000235055
7 *1105:14 *1157:76 0.00229042
8 en_ros_o[3] *1105:12 0
9 *2381:B *1105:12 0
10 *2536:A1 *1105:14 0
11 *2621:A0 *1105:12 0
12 *2621:A1 *1105:12 0.000176605
13 *2623:A0 *1105:12 0
14 *47:10 *1105:14 0
15 *99:8 *1105:14 0
16 *187:18 *1105:14 0
17 *187:37 *1105:12 0
18 *331:63 *1105:14 0.000287256
19 *344:10 *1105:12 0
20 *345:10 *1105:14 0.000340288
21 *675:30 *1105:14 0.000714918
22 *715:35 *1105:12 0
23 *727:64 *1105:12 0.000144778
24 *815:10 *1105:14 0
25 *829:8 *1105:14 0
26 *992:8 *1105:14 0
27 *1000:10 *1105:12 7.89542e-05
28 *1001:10 *1105:12 0
29 *1031:30 *1105:14 0
30 *1031:36 *1105:14 0
31 *1057:29 *1105:14 0
*RES
1 *2384:X *1105:12 48.4048 
2 *1105:12 *1105:14 31.7446 
3 *1105:14 *3490:A 40 
*END

*D_NET *1106 0.0120294
*CONN
*I *3491:A I *D sg13cmos5l_buf_1
*I *2385:X O *D sg13cmos5l_and2_1
*CAP
1 *3491:A 0
2 *2385:X 0.000336423
3 *1106:22 0.00171977
4 *1106:16 0.00246037
5 *1106:10 0.00107702
6 *1106:10 *1110:14 0
7 *1106:16 *1107:24 0.000241505
8 en_ros_o[3] *1106:10 0.000394248
9 en_ros_o[3] *1106:16 0
10 *2618:A *1106:22 0
11 *2618:B *1106:22 0
12 *3369:A *1106:16 8.00842e-05
13 *3385:A *1106:16 0.00027377
14 *53:8 *1106:22 0
15 *53:12 *1106:22 0.00536696
16 *187:37 *1106:10 0
17 *187:39 *1106:16 0
18 *713:29 *1106:16 0
19 *713:29 *1106:22 0
20 *1099:20 *1106:22 0
21 *1102:8 *1106:16 7.92329e-05
22 *1102:10 *1106:22 0
*RES
1 *2385:X *1106:10 42.369 
2 *1106:10 *1106:16 46.8083 
3 *1106:16 *1106:22 47.8615 
4 *1106:22 *3491:A 20 
*END

*D_NET *1107 0.0173277
*CONN
*I *3492:A I *D sg13cmos5l_buf_1
*I *3163:X O *D sg13cmos5l_buf_1
*CAP
1 *3492:A 0.000110309
2 *3163:X 5.50512e-05
3 *1107:24 0.000505448
4 *1107:16 0.00256711
5 *1107:14 0.00283645
6 *1107:8 0.000719534
7 *3492:A *1110:14 0.000144401
8 *1107:8 *1141:115 0.000288379
9 en_ros_o[0] *1107:24 0
10 en_ros_o[1] *1107:24 0
11 en_ros_o[3] *1107:24 0.000241902
12 *2601:A0 *1107:14 0.000499118
13 *2602:B *1107:14 0
14 *2604:A *1107:16 0.000851329
15 *3067:CLK *1107:16 0
16 *3166:A *1107:24 0
17 *3216:A *1107:16 0.00113992
18 *55:8 *3492:A 0
19 *131:10 *1107:14 0
20 *131:10 *1107:16 0.00028826
21 *331:36 *1107:16 0
22 *723:10 *1107:16 0.00449006
23 *727:27 *1107:14 0
24 *727:50 *1107:14 0
25 *728:8 *1107:14 0.000209544
26 *767:91 *1107:8 0.000287758
27 *768:35 *1107:16 0.000713674
28 *873:14 *1107:16 0
29 *1031:10 *1107:16 0.000849341
30 *1031:20 *1107:16 0.000288588
31 *1104:12 *1107:16 0
32 *1106:16 *1107:24 0.000241505
*RES
1 *3163:X *1107:8 41.339 
2 *1107:8 *1107:14 46.592 
3 *1107:14 *1107:16 31.003 
4 *1107:16 *1107:24 43.9449 
5 *1107:24 *3492:A 41.1845 
*END

*D_NET *1108 0.011783
*CONN
*I *3493:A I *D sg13cmos5l_buf_1
*I *3164:X O *D sg13cmos5l_buf_1
*CAP
1 *3493:A 5.92968e-05
2 *3164:X 0.00064393
3 *1108:24 0.00164786
4 *1108:20 0.00268316
5 *1108:8 0.00173853
6 *3493:A *1109:20 0.000112548
7 *1108:20 *1114:56 0.000401354
8 *1108:24 *1141:115 0
9 en_load_o[1] *1108:24 0
10 en_ros_o[0] *1108:8 0.00174903
11 en_ros_o[1] *1108:8 0
12 *2537:A *1108:24 0
13 *2607:S *1108:20 0
14 *3227:A *1108:20 0.000466681
15 *3394:A *1108:24 0
16 *3397:A *1108:20 8.0216e-05
17 *48:12 *1108:8 0
18 *138:10 *1108:20 1.54008e-05
19 *331:48 *1108:24 0
20 *332:42 *1108:20 0
21 *715:10 *1108:24 0.00194424
22 *715:35 *1108:24 0
23 *726:21 *1108:24 0
24 *847:14 *1108:20 0
25 *1000:10 *1108:24 0.00012816
26 *1001:10 *3493:A 0.000112548
27 *1100:20 *1108:20 0
28 *1100:26 *1108:8 0
*RES
1 *3164:X *1108:8 48.0134 
2 *1108:8 *1108:20 30.4298 
3 *1108:20 *1108:24 35.9238 
4 *1108:24 *3493:A 40.7519 
*END

*D_NET *1109 0.00896835
*CONN
*I *3494:A I *D sg13cmos5l_buf_1
*I *3165:X O *D sg13cmos5l_buf_1
*CAP
1 *3494:A 0
2 *3165:X 0.000306739
3 *1109:20 0.0018643
4 *1109:8 0.00217104
5 *1109:8 *2607:A0 0
6 *1109:20 *1110:14 0
7 en_load_o[2] *1109:20 0.00150824
8 sel_load_src_o[1] *1109:20 0
9 *2537:A *1109:20 0
10 *3165:A *1109:8 0.000434877
11 *3394:A *1109:20 0
12 *3493:A *1109:20 0.000112548
13 *47:10 *1109:20 0
14 *683:49 *1109:20 0
15 *715:35 *1109:20 8.0216e-05
16 *726:21 *1109:20 0
17 *727:50 *1109:20 0.00156417
18 *1001:10 *1109:20 0
19 *1041:10 *1109:20 0.000926217
*RES
1 *3165:X *1109:8 42.9149 
2 *1109:8 *1109:20 42.1759 
3 *1109:20 *3494:A 20 
*END

*D_NET *1110 0.00265175
*CONN
*I *3495:A I *D sg13cmos5l_buf_1
*I *3166:X O *D sg13cmos5l_buf_1
*CAP
1 *3495:A 0
2 *3166:X 0.00110131
3 *1110:14 0.00110131
4 sel_load_src_o[1] *1110:14 0
5 sel_load_src_o[2] *1110:14 0
6 *2381:A *1110:14 0
7 *2382:B *1110:14 0
8 *3492:A *1110:14 0.000144401
9 *55:8 *1110:14 0
10 *58:12 *1110:14 4.79124e-05
11 *187:37 *1110:14 0
12 *187:39 *1110:14 0
13 *834:10 *1110:14 8.00842e-05
14 *873:8 *1110:14 0.000176731
15 *1106:10 *1110:14 0
16 *1109:20 *1110:14 0
*RES
1 *3166:X *1110:14 28.3935 
2 *1110:14 *3495:A 20 
*END

*D_NET *1111 0.000508
*CONN
*I *3496:A I *D sg13cmos5l_buf_1
*I *3167:X O *D sg13cmos5l_buf_1
*CAP
1 *3496:A 0.000246272
2 *3167:X 0.000246272
3 sel_load_src_o[4] *3496:A 0
4 *2623:A1 *3496:A 0
5 *58:12 *3496:A 0
6 *715:35 *3496:A 0
7 *810:16 *3496:A 1.54556e-05
*RES
1 *3167:X *3496:A 42.8119 
*END

*D_NET *1112 0.000265229
*CONN
*I *3497:A I *D sg13cmos5l_buf_1
*I *3168:X O *D sg13cmos5l_buf_1
*CAP
1 *3497:A 0.000132615
2 *3168:X 0.000132615
3 sel_load_src_o[4] *3497:A 0
4 *2623:A1 *3497:A 0
5 *654:24 *3497:A 0
6 *1057:29 *3497:A 0
*RES
1 *3168:X *3497:A 41.4111 
*END

*D_NET *1113 0.0219832
*CONN
*I *2816:B I *D sg13cmos5l_nand4_1
*I *2838:B I *D sg13cmos5l_nand4_1
*I *2833:B I *D sg13cmos5l_nand4_1
*I *2822:B I *D sg13cmos5l_nand3_1
*I *2791:B I *D sg13cmos5l_nand4_1
*I *2854:B I *D sg13cmos5l_nand4_1
*I *2779:B I *D sg13cmos5l_nand4_1
*I *2750:B I *D sg13cmos5l_nand2b_2
*I *3238:X O *D sg13cmos5l_buf_1
*CAP
1 *2816:B 0.00012856
2 *2838:B 0.00018859
3 *2833:B 0
4 *2822:B 0
5 *2791:B 0
6 *2854:B 0
7 *2779:B 0
8 *2750:B 0.00041464
9 *3238:X 0.000490486
10 *1113:122 0.00029965
11 *1113:82 0.000964749
12 *1113:58 0.000503007
13 *1113:52 0.00142426
14 *1113:46 0.00138358
15 *1113:24 0.00115165
16 *1113:22 0.000806513
17 *1113:14 0.00284257
18 *1113:8 0.00268325
19 *2750:B *1130:46 0
20 *2750:B *1151:114 0.000467612
21 *2838:B *1154:100 0.000212456
22 *1113:8 *2813:B 0
23 *1113:8 *1123:66 7.85932e-05
24 *1113:8 *1144:16 1.54556e-05
25 *1113:14 *2694:B 0
26 *1113:14 *1154:100 0.000393407
27 *1113:22 *1154:61 0.000744881
28 *1113:24 *1154:46 0.000144041
29 *1113:24 *1154:61 4.79124e-05
30 *1113:46 *2778:A2 8.02269e-05
31 *1113:46 *2789:A1 1.54008e-05
32 *1113:46 *1130:20 0
33 *1113:46 *1130:36 0
34 *1113:46 *1136:32 1.53846e-05
35 *1113:46 *1154:16 0
36 *1113:46 *1154:29 1.54008e-05
37 *1113:52 *1130:46 0
38 *1113:52 *1136:32 0
39 *1113:52 *1154:16 3.20292e-06
40 *1113:82 *2771:B 0
41 *1113:82 *1156:31 4.77425e-05
42 *1113:82 *1156:46 0.00223343
43 *1113:122 *1123:81 0.000128576
44 *2705:B *1113:14 0
45 *2707:B *1113:14 0
46 *2779:C *1113:52 0
47 *2779:C *1113:58 0.000123139
48 *2779:C *1113:82 0
49 *2789:A2 *1113:46 0.000144576
50 *2790:B2 *1113:46 0
51 *2791:C *1113:46 1.54008e-05
52 *2791:C *1113:52 4.77425e-05
53 *2791:D *1113:46 0
54 *2814:A2 *1113:122 0
55 *2816:C *2816:B 0.000176274
56 *2833:C *1113:22 4.79124e-05
57 *2833:C *1113:24 0.000241291
58 *2833:C *1113:46 4.79124e-05
59 *2854:C *1113:82 0.000177109
60 *3129:D *1113:14 0.000337353
61 *3268:A *1113:82 0
62 *3423:A *1113:8 0.00017634
63 *156:8 *1113:52 0
64 *162:12 *1113:24 0
65 *162:12 *1113:46 0
66 *352:10 *1113:82 0
67 *409:10 *1113:14 4.75151e-05
68 *410:33 *1113:122 0
69 *420:8 *1113:14 0
70 *424:8 *1113:14 0.000288087
71 *464:18 *1113:8 0
72 *464:22 *1113:14 0
73 *483:22 *1113:22 0
74 *497:14 *1113:46 4.76924e-05
75 *498:10 *1113:46 0
76 *499:26 *2750:B 0
77 *499:26 *1113:46 0
78 *531:16 *1113:46 4.85475e-05
79 *745:22 *1113:14 0
80 *762:59 *1113:22 0.000712759
81 *836:10 *1113:22 8.03692e-05
82 *911:10 *1113:52 0.000447269
83 *911:10 *1113:82 0.000850674
84 *987:14 *2750:B 0
85 *1073:56 *1113:122 0
*RES
1 *3238:X *1113:8 42.6986 
2 *1113:8 *1113:14 35.8723 
3 *1113:14 *1113:22 48.3945 
4 *1113:22 *1113:24 1.6171 
5 *1113:24 *1113:46 49.4263 
6 *1113:46 *1113:52 24.3466 
7 *1113:52 *1113:58 21.133 
8 *1113:58 *2750:B 24.3775 
9 *1113:58 *2779:B 20 
10 *1113:52 *1113:82 33.5136 
11 *1113:82 *2854:B 20 
12 *1113:46 *2791:B 20 
13 *1113:24 *2822:B 20 
14 *1113:22 *2833:B 20 
15 *1113:8 *2838:B 41.8746 
16 *3238:X *1113:122 41.5862 
17 *1113:122 *2816:B 41.1845 
*END

*D_NET *1114 0.0449398
*CONN
*I *2765:A1 I *D sg13cmos5l_o21ai_1
*I *2436:A I *D sg13cmos5l_nand2_1
*I *2536:A0 I *D sg13cmos5l_mux2_1
*I *2605:A0 I *D sg13cmos5l_mux2_1
*I *3449:X O *D sg13cmos5l_buf_1
*CAP
1 *2765:A1 0
2 *2436:A 0
3 *2536:A0 0.000222661
4 *2605:A0 0
5 *3449:X 0.0030391
6 *1114:96 0.000663607
7 *1114:86 0.00232125
8 *1114:56 0.0010394
9 *1114:38 0.00157864
10 *1114:30 0.00786849
11 *1114:28 0.00598696
12 *1114:24 0.000894224
13 *1114:16 0.00384063
14 *2536:A0 *1137:89 0.000606694
15 *1114:16 *1125:8 0.000776517
16 *1114:16 *1130:46 0
17 *1114:16 *1154:16 0
18 *1114:24 *2765:A2 0
19 *1114:24 *1125:8 0
20 *1114:24 *1130:46 0
21 *1114:24 *1147:16 0
22 *1114:28 *2765:A2 1.54008e-05
23 *1114:30 *2765:B1 0
24 *1114:30 *2765:A2 0
25 *1114:30 *1116:111 0.000768449
26 *1114:30 *1119:38 0.000235153
27 *1114:30 *1120:52 0.00109481
28 *1114:30 *1121:8 0.000291165
29 *1114:30 *1121:42 0
30 *1114:30 *1121:46 0
31 *1114:30 *1124:89 0.000502169
32 *1114:30 *1136:86 0
33 *1114:30 *1137:16 0.000182121
34 *1114:30 *1153:60 0
35 *1114:38 *1125:58 0
36 *1114:38 *1137:89 0.000287256
37 *1114:56 *2603:S 1.54008e-05
38 *1114:86 *1129:130 0.00053235
39 *1114:86 *1135:37 0.000176872
40 *1114:86 *1137:89 0
41 *1114:86 *1137:101 0.000176742
42 *1114:96 *2436:B 0
43 *2378:A *1114:28 0
44 *2421:B *1114:16 0.000112667
45 *2438:B *1114:96 0.000272762
46 *2536:A1 *2536:A0 1.54008e-05
47 *2538:A1 *1114:38 0.000401447
48 *2539:B *1114:38 0
49 *2603:A0 *1114:86 0
50 *2606:A *1114:56 0
51 *2927:D *1114:96 0
52 *2929:CLK *1114:96 0.000871022
53 *3057:RESET_B *1114:56 8.01609e-05
54 *3057:D *1114:56 8.0194e-05
55 *3444:A *1114:24 0
56 *187:18 *2536:A0 0.000744109
57 *187:18 *1114:38 0.000287342
58 *231:12 *1114:96 0
59 *295:33 *1114:30 0.000556129
60 *295:33 *1114:56 8.01938e-05
61 *295:33 *1114:86 0.00031912
62 *331:8 *1114:30 0
63 *397:33 *1114:30 0.00130546
64 *467:8 *1114:30 0
65 *489:8 *1114:30 0
66 *491:8 *1114:30 0
67 *635:27 *1114:86 0
68 *643:21 *1114:30 0.00119994
69 *657:26 *1114:86 0
70 *658:18 *1114:86 0.000176405
71 *662:43 *1114:96 0.000433847
72 *663:14 *1114:30 0
73 *664:180 *1114:96 0
74 *664:254 *1114:56 0
75 *685:17 *1114:96 7.52149e-05
76 *686:27 *2536:A0 0
77 *686:27 *1114:86 0
78 *743:10 *1114:30 0
79 *743:18 *1114:30 0
80 *743:51 *1114:30 0
81 *766:12 *1114:16 0.00105302
82 *769:12 *1114:56 0
83 *771:42 *1114:56 0.000596799
84 *785:8 *1114:30 0
85 *788:22 *1114:30 0
86 *799:8 *1114:24 0
87 *799:57 *1114:16 0
88 *799:57 *1114:24 0.000112446
89 *810:16 *1114:30 0.000503098
90 *810:16 *1114:86 0.0003963
91 *826:14 *1114:56 0
92 *830:10 *1114:86 0
93 *876:10 *1114:16 0.00053217
94 *890:12 *1114:16 0
95 *900:8 *1114:96 0.000552831
96 *911:10 *1114:16 0
97 *932:16 *1114:30 0
98 *1007:12 *1114:30 0
99 *1027:27 *1114:86 0
100 *1061:8 *1114:30 0
101 *1092:8 *1114:16 0.000177306
102 *1092:34 *1114:30 0
103 *1092:45 *1114:30 0
104 *1092:60 *1114:30 0
105 *1095:42 *1114:96 0.000181192
106 *1103:64 *1114:86 0.000305772
107 *1108:20 *1114:56 0.000401354
*RES
1 *3449:X *1114:16 49.2932 
2 *1114:16 *1114:24 48.0593 
3 *1114:24 *1114:28 20.9682 
4 *1114:28 *1114:30 67.0942 
5 *1114:30 *1114:38 44.0376 
6 *1114:38 *1114:56 30.6514 
7 *1114:56 *2605:A0 20 
8 *1114:38 *2536:A0 44.0994 
9 *1114:30 *1114:86 37.0877 
10 *1114:86 *1114:96 49.1773 
11 *1114:96 *2436:A 20 
12 *1114:24 *2765:A1 20 
*END

*D_NET *1115 0.0257358
*CONN
*I *2890:A I *D sg13cmos5l_nor2_1
*I *2879:A I *D sg13cmos5l_nor2_1
*I *2835:B I *D sg13cmos5l_nor4_1
*I *2813:B I *D sg13cmos5l_nor4_1
*I *2830:B I *D sg13cmos5l_nor4_1
*I *2788:B I *D sg13cmos5l_nor4_1
*I *2775:B I *D sg13cmos5l_nor4_1
*I *2851:B I *D sg13cmos5l_nor4_1
*I *3239:X O *D sg13cmos5l_buf_1
*CAP
1 *2890:A 0
2 *2879:A 4.37077e-05
3 *2835:B 0.00016721
4 *2813:B 0.000683422
5 *2830:B 0.00020987
6 *2788:B 0
7 *2775:B 0.000253657
8 *2851:B 0
9 *3239:X 0
10 *1115:123 0.000101777
11 *1115:108 0.000605467
12 *1115:76 0.00123157
13 *1115:72 0.00115214
14 *1115:43 0.000512531
15 *1115:37 0.00112895
16 *1115:26 0.000683084
17 *1115:16 0.00239208
18 *1115:8 0.00341366
19 *1115:6 0.00205365
20 *2775:B *1123:120 4.78524e-05
21 *2775:B *1123:134 0.000246161
22 *2775:B *1145:22 0
23 *2775:B *1146:97 0
24 *2813:B *1118:137 0.000288087
25 *2813:B *1123:66 0.000175644
26 *2813:B *1123:81 3.23417e-05
27 *2813:B *1143:6 1.54008e-05
28 *2813:B *1144:16 0
29 *2830:B *1117:49 0.000240328
30 *2830:B *1123:110 0
31 *2835:B *2835:C 4.77425e-05
32 *2879:A *1124:34 8.00842e-05
33 *1115:8 *1126:103 0
34 *1115:8 *1143:43 0.00156435
35 *1115:8 *1143:60 0
36 *1115:16 *1122:53 0.000953675
37 *1115:16 *1143:60 0
38 *1115:26 *1132:50 9.05293e-05
39 *1115:37 *1132:63 0.00103095
40 *1115:37 *1146:118 0
41 *1115:43 *2788:A 0
42 *1115:43 *1117:49 0.000112681
43 *1115:43 *1123:120 0.000129469
44 *1115:43 *1145:22 0
45 *1115:43 *1145:33 0
46 *1115:43 *1146:97 0
47 *1115:72 *1143:33 0
48 *1115:72 *1143:43 0
49 *1115:76 *1126:72 0.000501132
50 *1115:108 *1124:34 0.000191795
51 *1115:108 *1126:103 0
52 *1115:123 *1119:113 0.000175903
53 *1115:123 *1124:34 8.00842e-05
54 *2788:D *2775:B 0.000176432
55 *2830:D *2830:B 0
56 *2831:A2 *2830:B 0.000224817
57 *2831:A2 *1115:43 1.54556e-05
58 *2835:A *2813:B 0
59 *2835:A *2835:B 0.000224025
60 *2852:B1 *1115:26 0.00024047
61 *2903:S *2879:A 8.00842e-05
62 *2903:S *1115:108 0.000418939
63 *3248:A *1115:108 0
64 *165:10 *2813:B 0
65 *208:25 *1115:26 0
66 *209:62 *1115:16 0
67 *358:108 *1115:8 0.000288588
68 *379:24 *1115:8 0
69 *379:24 *1115:108 0
70 *427:18 *2813:B 0.000305088
71 *427:24 *1115:76 0
72 *429:8 *1115:26 0.000181192
73 *465:10 *1115:8 0
74 *487:28 *1115:37 0
75 *531:16 *2775:B 0
76 *531:16 *1115:43 2.20736e-05
77 *595:14 *1115:108 0.00020944
78 *664:395 *1115:8 0
79 *693:38 *2813:B 0.000502362
80 *693:38 *1115:76 0
81 *734:88 *1115:8 0
82 *736:34 *1115:8 0
83 *736:34 *1115:16 0
84 *745:22 *2813:B 0
85 *758:50 *1115:16 0
86 *758:50 *1115:26 0
87 *761:27 *1115:16 0
88 *761:27 *1115:26 0
89 *1081:20 *1115:26 1.54008e-05
90 *1088:10 *1115:16 0.0012767
91 *1090:10 *1115:72 0.000917763
92 *1092:16 *1115:37 0
93 *1113:8 *2813:B 0
*RES
1 *3239:X *1115:6 40 
2 *1115:6 *1115:8 17.9014 
3 *1115:8 *1115:16 32.051 
4 *1115:16 *1115:26 46.6744 
5 *1115:26 *2851:B 20 
6 *1115:16 *1115:37 47.7662 
7 *1115:37 *1115:43 2.781 
8 *1115:43 *2775:B 22.7192 
9 *1115:43 *2788:B 20 
10 *1115:37 *2830:B 22.266 
11 *1115:8 *1115:72 47.8898 
12 *1115:72 *1115:76 4.1303 
13 *1115:76 *2813:B 47.4263 
14 *1115:76 *2835:B 41.6171 
15 *1115:6 *1115:108 24.8204 
16 *1115:108 *2879:A 20.5356 
17 *1115:108 *1115:123 41.133 
18 *1115:123 *2890:A 20 
*END

*D_NET *1116 0.0216187
*CONN
*I *2804:A I *D sg13cmos5l_nor2_1
*I *2799:A I *D sg13cmos5l_nor2_1
*I *2754:A I *D sg13cmos5l_nor2_1
*I *2767:A I *D sg13cmos5l_nor2b_1
*I *2781:A I *D sg13cmos5l_nor2_1
*I *2759:A I *D sg13cmos5l_nor2_1
*I *2794:A I *D sg13cmos5l_nor2_1
*I *2763:A I *D sg13cmos5l_nor2b_1
*I *3240:X O *D sg13cmos5l_buf_1
*CAP
1 *2804:A 0.000626361
2 *2799:A 1.89189e-05
3 *2754:A 0
4 *2767:A 0.000715286
5 *2781:A 3.85771e-05
6 *2759:A 0.000839492
7 *2794:A 0.000758718
8 *2763:A 0
9 *3240:X 0.000191456
10 *1116:111 0.00054905
11 *1116:101 0.000599769
12 *1116:86 0.00103769
13 *1116:80 0.00100426
14 *1116:40 0.000275697
15 *1116:28 0.00203723
16 *1116:12 0.00195082
17 *1116:10 0.000276456
18 *1116:8 0.000408111
19 *2759:A *1119:46 0
20 *2804:A *2807:A1 0
21 *1116:10 *1120:67 0
22 *1116:10 *1121:38 0.000394566
23 *1116:12 *1120:67 0
24 *1116:12 *1121:38 0.000341119
25 *1116:28 *2783:B1 0
26 *1116:28 *1120:67 0
27 *1116:28 *1120:94 0.000448012
28 *1116:28 *1121:38 0.000714003
29 *1116:28 *1147:20 0
30 *1116:40 *2765:A2 0
31 *1116:40 *1121:67 0
32 *1116:40 *1148:8 7.57164e-05
33 *1116:80 *1121:38 0.000394151
34 *1116:86 *1120:67 0.00124823
35 *1116:101 *1120:67 0.000159839
36 *1116:111 *1148:126 0
37 *2378:A *1116:40 8.01938e-05
38 *2692:B *2767:A 0
39 *2754:B *1116:111 0.000241198
40 *2759:B *2759:A 0
41 *2781:B *2781:A 0
42 *2805:B *2804:A 0.000305011
43 *2807:A2 *2804:A 0
44 *3107:RESET_B *2804:A 0
45 *3107:D *2804:A 0
46 *3212:A *2759:A 0
47 *3213:A *2759:A 0.00014402
48 *3426:A *2759:A 0.000531778
49 *209:29 *1116:28 0.00018128
50 *330:12 *1116:40 0
51 *390:16 *2759:A 0
52 *397:33 *1116:111 0.000766204
53 *467:23 *1116:8 0
54 *467:23 *1116:80 0.000287256
55 *467:23 *1116:86 0.00124723
56 *467:23 *1116:101 0.000181608
57 *475:8 *1116:40 0.000340704
58 *664:51 *2767:A 0
59 *664:51 *1116:111 0
60 *673:18 *2759:A 0
61 *707:8 *2759:A 0
62 *707:28 *1116:28 0
63 *733:16 *2767:A 0
64 *734:27 *2767:A 0
65 *734:27 *2799:A 4.77425e-05
66 *734:27 *1116:111 0.000338245
67 *757:14 *1116:28 0.00105429
68 *758:10 *2759:A 0
69 *760:29 *1116:8 0
70 *1072:23 *2759:A 0
71 *1072:23 *2781:A 0
72 *1092:32 *2804:A 0
73 *1114:30 *1116:111 0.000768449
*RES
1 *3240:X *1116:8 41.6171 
2 *1116:8 *1116:10 1.8334 
3 *1116:10 *1116:12 1.5862 
4 *1116:12 *1116:28 33.7299 
5 *1116:28 *1116:40 43.193 
6 *1116:40 *2763:A 20 
7 *1116:28 *2794:A 26.18 
8 *1116:12 *2759:A 48.0237 
9 *1116:10 *2781:A 40.3193 
10 *1116:8 *1116:80 21.8334 
11 *1116:80 *1116:86 26.3242 
12 *1116:86 *2767:A 46.7259 
13 *1116:86 *1116:101 20.8446 
14 *1116:101 *1116:111 47.4469 
15 *1116:111 *2754:A 20 
16 *1116:101 *2799:A 20.3193 
17 *1116:80 *2804:A 25.5647 
*END

*D_NET *1117 0.0239902
*CONN
*I *2874:A1 I *D sg13cmos5l_o21ai_1
*I *2886:B I *D sg13cmos5l_or3_1
*I *2885:A1 I *D sg13cmos5l_o21ai_1
*I *2875:B I *D sg13cmos5l_or3_1
*I *2865:B I *D sg13cmos5l_nor4_1
*I *2858:B I *D sg13cmos5l_nor4_1
*I *2819:S I *D sg13cmos5l_mux2_1
*I *2641:B I *D sg13cmos5l_or4_1
*I *3241:X O *D sg13cmos5l_buf_1
*CAP
1 *2874:A1 0.000144531
2 *2886:B 0
3 *2885:A1 0.000321923
4 *2875:B 0
5 *2865:B 0
6 *2858:B 0
7 *2819:S 9.91658e-05
8 *2641:B 0.000309992
9 *3241:X 0.000169485
10 *1117:131 0.00111447
11 *1117:121 0.000986926
12 *1117:112 8.62488e-05
13 *1117:108 0.00133883
14 *1117:85 0.000375429
15 *1117:73 0.00183986
16 *1117:66 0.00103432
17 *1117:49 0.00266798
18 *1117:14 0.00209787
19 *1117:10 0.000260864
20 *2641:B *2647:A2 9.96588e-06
21 *2641:B *1132:16 0.000123072
22 *2641:B *1146:12 0
23 *2641:B *1150:18 7.74783e-05
24 *2641:B *1150:32 2.07576e-05
25 *2819:S *1145:68 0.000181608
26 *2819:S *1148:47 0
27 *2874:A1 *1142:96 8.00842e-05
28 *1117:10 *2645:C 0.000212862
29 *1117:10 *2771:B 0.000129283
30 *1117:10 *1118:61 7.94055e-05
31 *1117:10 *1150:65 0.000182023
32 *1117:14 *1126:39 0
33 *1117:14 *1132:16 7.92644e-05
34 *1117:49 *1126:16 0.000566239
35 *1117:49 *1126:28 0.00024205
36 *1117:49 *1126:39 0
37 *1117:49 *1145:22 0.000208774
38 *1117:49 *1145:33 0
39 *1117:49 *1145:62 0
40 *1117:49 *1146:12 0
41 *1117:66 *1122:53 0
42 *1117:66 *1132:87 0.00027465
43 *1117:66 *1132:98 4.79124e-05
44 *1117:66 *1145:68 0.00100811
45 *1117:66 *1148:47 0
46 *1117:73 *1132:98 0
47 *1117:108 *1122:72 0
48 *1117:108 *1132:98 0
49 *1117:108 *1154:128 0
50 *1117:108 *1155:59 0
51 *1117:131 *1122:87 0
52 *1117:131 *1123:81 0.00046754
53 *1117:131 *1155:49 0
54 *2775:D *1117:49 0
55 *2819:A0 *2819:S 0
56 *2830:B *1117:49 0.000240328
57 *2830:D *1117:49 0
58 *2835:A *1117:108 0
59 *2835:D *1117:108 0.000208593
60 *2858:A *1117:66 1.54556e-05
61 *2858:A *1117:73 0.000240789
62 *2858:A *1117:108 0.000112426
63 *2865:A *1117:85 1.50692e-05
64 *2865:C *1117:85 8.88697e-06
65 *2874:A2 *2874:A1 4.77425e-05
66 *2875:A *1117:112 1.54008e-05
67 *2875:A *1117:121 6.46834e-05
68 *2875:C *2874:A1 0.00012816
69 *2876:A1 *1117:108 4.77425e-05
70 *2884:B *1117:131 0
71 *2885:A2 *2885:A1 0.000258788
72 *3111:D *2885:A1 0
73 *3117:RESET_B *1117:49 0
74 *161:10 *2885:A1 0
75 *161:10 *1117:131 0
76 *174:8 *2874:A1 7.52158e-05
77 *174:8 *1117:131 0.000446438
78 *209:62 *1117:66 0
79 *352:30 *1117:10 0.000181192
80 *354:43 *1117:10 7.94055e-05
81 *358:96 *1117:85 0.000287256
82 *359:60 *1117:49 4.77425e-05
83 *441:43 *1117:85 0.000817575
84 *463:22 *1117:131 0.000234224
85 *463:33 *2885:A1 0
86 *463:33 *1117:131 0
87 *484:10 *1117:49 0.00024122
88 *487:52 *1117:85 0
89 *487:58 *2874:A1 0
90 *487:58 *1117:131 0
91 *493:12 *1117:49 8.02063e-05
92 *518:14 *1117:108 0
93 *518:14 *1117:131 0.000181192
94 *552:12 *1117:66 0
95 *566:10 *1117:108 0.00034079
96 *573:8 *1117:108 0.000340288
97 *574:8 *2885:A1 1.54008e-05
98 *574:8 *1117:131 0
99 *735:18 *1117:108 0
100 *736:34 *1117:66 0
101 *749:20 *1117:131 0
102 *752:65 *2885:A1 8.0194e-05
103 *809:10 *1117:108 0.00027267
104 *903:10 *1117:73 4.77425e-05
105 *903:10 *1117:85 0.00012816
106 *903:10 *1117:108 0.000289479
107 *1073:14 *1117:108 0.00103041
108 *1073:41 *1117:85 0.000181694
109 *1090:18 *1117:108 0.000235961
110 *1115:43 *1117:49 0.000112681
*RES
1 *3241:X *1117:10 42.6162 
2 *1117:10 *1117:14 20.9682 
3 *1117:14 *2641:B 23.5175 
4 *1117:14 *1117:49 36.7993 
5 *1117:49 *2819:S 41.1639 
6 *1117:49 *1117:66 28.8271 
7 *1117:66 *2858:B 20 
8 *1117:66 *1117:73 1.6171 
9 *1117:73 *1117:85 45.4667 
10 *1117:85 *2865:B 20 
11 *1117:73 *1117:108 34.9762 
12 *1117:108 *1117:112 20.3193 
13 *1117:112 *2875:B 20 
14 *1117:112 *1117:121 20.5356 
15 *1117:121 *1117:131 48.2194 
16 *1117:131 *2885:A1 43.4608 
17 *1117:131 *2886:B 40 
18 *1117:121 *2874:A1 41.6274 
*END

*D_NET *1118 0.0279473
*CONN
*I *2852:A1 I *D sg13cmos5l_a21oi_1
*I *2814:A1 I *D sg13cmos5l_a21oi_1
*I *2836:A1 I *D sg13cmos5l_a21oi_1
*I *2831:A1 I *D sg13cmos5l_a21oi_1
*I *2776:A1 I *D sg13cmos5l_a21oi_1
*I *2789:A1 I *D sg13cmos5l_a21oi_1
*I *2645:B I *D sg13cmos5l_nand3_1
*I *2408:B I *D sg13cmos5l_nand2_1
*I *3242:X O *D sg13cmos5l_buf_1
*CAP
1 *2852:A1 8.2408e-05
2 *2814:A1 0
3 *2836:A1 0
4 *2831:A1 0
5 *2776:A1 0
6 *2789:A1 0.00067079
7 *2645:B 9.35811e-05
8 *2408:B 0
9 *3242:X 0.00246906
10 *1118:137 0.000614702
11 *1118:122 0.00125012
12 *1118:116 0.00157028
13 *1118:101 0.000494746
14 *1118:93 0.00189851
15 *1118:89 0.000745163
16 *1118:78 0.000275835
17 *1118:61 0.00141939
18 *1118:40 0.00127834
19 *1118:28 0.00243175
20 *1118:10 0.000555463
21 *2645:B *2645:C 1.00105e-05
22 *2789:A1 *2778:A1 0.000287256
23 *2789:A1 *1122:10 0.000977086
24 *2789:A1 *1122:104 0
25 *2789:A1 *1136:20 0.000128247
26 *2789:A1 *1145:10 0
27 *2789:A1 *1154:16 0
28 *1118:28 *1120:86 0
29 *1118:28 *1120:94 0
30 *1118:28 *1120:101 0
31 *1118:28 *1148:16 0
32 *1118:28 *1150:40 0
33 *1118:28 *1151:39 0
34 *1118:28 *1151:99 0
35 *1118:28 *1156:8 4.77251e-05
36 *1118:61 *2645:C 0.000170408
37 *1118:78 *1122:10 0.000159096
38 *1118:93 *1132:57 0.000598318
39 *1118:93 *1132:87 0.000128417
40 *1118:101 *1130:53 0.00134997
41 *1118:101 *1142:20 0
42 *1118:116 *1132:87 0.000176501
43 *1118:116 *1148:47 0
44 *1118:122 *2835:C 0
45 *1118:122 *1132:98 0
46 *1118:122 *1143:60 8.01885e-05
47 *1118:137 *1126:72 0.000658479
48 *1118:137 *1154:94 0
49 *1118:137 *1154:111 0
50 *2642:B *1118:28 0
51 *2648:C *1118:28 0
52 *2789:A2 *2789:A1 1.54556e-05
53 *2789:B1 *2789:A1 0
54 *2813:B *1118:137 0.000288087
55 *2814:A2 *1118:137 1.54556e-05
56 *2831:A2 *1118:101 0.000176236
57 *2831:B1 *1118:101 0
58 *2836:A2 *1118:122 4.78028e-05
59 *2836:A2 *1118:137 1.54008e-05
60 *2838:C *1118:137 0.000175513
61 *2856:B *1118:93 0
62 *2856:B *1118:116 0
63 *2857:B *1118:116 0
64 *2859:A1 *1118:122 0
65 *2860:B1 *1118:116 0.000177247
66 *3127:D *1118:122 0.000208747
67 *3267:A *2789:A1 0.0013484
68 *3267:A *1118:78 0.000181192
69 *169:16 *1118:116 0.000102653
70 *187:10 *1118:10 0
71 *209:62 *1118:116 0
72 *215:24 *1118:10 0
73 *331:14 *1118:10 0
74 *331:14 *1118:28 0
75 *352:30 *1118:61 0
76 *354:43 *1118:40 0
77 *354:43 *1118:61 0
78 *355:64 *1118:40 0.000176581
79 *358:29 *1118:40 0
80 *358:43 *1118:61 0.000240196
81 *359:10 *1118:101 0.000714296
82 *360:12 *1118:40 0
83 *362:10 *1118:40 0.00018128
84 *464:18 *1118:137 0.000181279
85 *481:16 *1118:78 8.00842e-05
86 *481:16 *1118:89 1.54008e-05
87 *481:31 *2789:A1 0
88 *486:8 *1118:61 0
89 *486:8 *1118:78 1.54008e-05
90 *487:52 *1118:137 0.000338322
91 *495:10 *2852:A1 0.000288087
92 *495:10 *1118:89 0.000605447
93 *497:14 *2789:A1 0
94 *528:8 *1118:101 0
95 *534:14 *1118:122 0
96 *693:38 *1118:137 0
97 *707:28 *1118:28 0
98 *745:22 *1118:122 0
99 *745:47 *1118:116 0.000339086
100 *745:47 *1118:122 0
101 *761:27 *2852:A1 0.000313318
102 *761:27 *1118:89 0.000393736
103 *788:12 *1118:10 0.000242236
104 *788:12 *1118:28 0.00024122
105 *790:10 *1118:28 0
106 *907:10 *1118:10 0
107 *908:8 *1118:10 0
108 *987:20 *1118:40 0
109 *1103:35 *1118:28 0.00011253
110 *1113:46 *2789:A1 1.54008e-05
111 *1117:10 *1118:61 7.94055e-05
*RES
1 *3242:X *1118:10 45.1809 
2 *1118:10 *2408:B 40 
3 *3242:X *1118:28 37.1233 
4 *1118:28 *1118:40 44.7715 
5 *1118:40 *2645:B 21.151 
6 *1118:40 *1118:61 25.992 
7 *1118:61 *2789:A1 49.785 
8 *1118:61 *1118:78 21.3802 
9 *1118:78 *2776:A1 20 
10 *1118:78 *1118:89 23.1415 
11 *1118:89 *1118:93 24.8616 
12 *1118:93 *1118:101 47.4675 
13 *1118:101 *2831:A1 20 
14 *1118:93 *1118:116 48.9016 
15 *1118:116 *1118:122 5.4093 
16 *1118:122 *2836:A1 20 
17 *1118:122 *1118:137 47.1688 
18 *1118:137 *2814:A1 20 
19 *1118:89 *2852:A1 41.6583 
*END

*D_NET *1119 0.031813
*CONN
*I *2753:A I *D sg13cmos5l_buf_1
*I *2772:A I *D sg13cmos5l_buf_1
*I *2672:A I *D sg13cmos5l_nor4_2
*I *2825:S I *D sg13cmos5l_mux2_1
*I *2894:S I *D sg13cmos5l_mux2_1
*I *2637:A I *D sg13cmos5l_buf_1
*I *2809:S I *D sg13cmos5l_mux2_1
*I *2407:A I *D sg13cmos5l_buf_1
*I *3243:X O *D sg13cmos5l_buf_1
*CAP
1 *2753:A 0
2 *2772:A 0.000174708
3 *2672:A 0
4 *2825:S 0
5 *2894:S 0
6 *2637:A 0
7 *2809:S 0
8 *2407:A 3.14027e-05
9 *3243:X 0.000208086
10 *1119:137 0.0010996
11 *1119:131 0.00227871
12 *1119:121 0.00138719
13 *1119:113 0.000800783
14 *1119:97 0.00149946
15 *1119:76 0.00158043
16 *1119:61 0.000609428
17 *1119:57 0.00265836
18 *1119:46 0.00417615
19 *1119:38 0.0017046
20 *1119:25 0.00109621
21 *1119:14 0.00143898
22 *1119:12 0.000552573
23 *1119:8 0.000372952
24 *1119:8 *1156:31 0
25 *1119:12 *1156:31 0
26 *1119:14 *1156:31 0
27 *1119:76 *1120:46 0.000434826
28 *1119:97 *1120:32 0
29 *1119:97 *1120:46 0.000468029
30 *1119:97 *1126:103 0
31 *1119:97 *1126:113 0
32 *1119:113 *1120:32 0
33 *1119:113 *1120:46 4.7381e-05
34 *1119:113 *1124:34 0.00011237
35 *1119:121 *1126:103 0.000182121
36 *1119:131 *1126:93 0.000177219
37 *1119:137 *1126:87 0
38 *2665:A *1119:131 0.000176704
39 *2672:B *1119:137 0
40 *2723:B *1119:137 0
41 *2723:D *1119:137 0.000112826
42 *2759:A *1119:46 0
43 *2759:B *1119:46 0
44 *2782:A *1119:46 8.02598e-05
45 *2782:B *1119:46 0
46 *2825:A1 *1119:97 0
47 *2869:A0 *1119:113 0
48 *2890:B *1119:113 4.77425e-05
49 *2903:S *1119:121 0
50 *2911:A *1119:121 0
51 *2911:B *1119:113 0
52 *2911:B *1119:121 0
53 *3099:CLK *2407:A 0
54 *3099:CLK *1119:12 0
55 *3099:CLK *1119:14 0
56 *3213:A *1119:46 0.000467645
57 *3254:A *1119:97 0
58 *3426:A *1119:46 0.000531778
59 *187:14 *1119:25 0
60 *208:6 *2407:A 0
61 *208:6 *1119:8 0
62 *208:6 *1119:12 0
63 *208:6 *1119:14 0
64 *208:6 *1119:46 0.000466956
65 *208:25 *1119:46 0.00174876
66 *208:25 *1119:57 0.000112552
67 *331:24 *1119:25 0
68 *366:17 *1119:113 0.000234224
69 *366:27 *1119:113 0
70 *379:24 *1119:131 3.15716e-05
71 *380:25 *2772:A 0
72 *392:10 *1119:97 4.78195e-05
73 *393:12 *1119:61 0
74 *393:12 *1119:76 0
75 *393:18 *1119:61 0
76 *400:16 *1119:61 0.000177339
77 *400:16 *1119:76 0.000161769
78 *400:16 *1119:131 0
79 *414:10 *1119:137 0
80 *427:24 *1119:137 0
81 *465:26 *2772:A 8.01776e-05
82 *504:10 *1119:57 0.000605863
83 *512:10 *1119:25 0.000235142
84 *525:10 *1119:76 0.000208834
85 *525:10 *1119:97 1.54556e-05
86 *664:395 *1119:121 0
87 *664:403 *1119:131 0
88 *679:14 *1119:97 0
89 *733:83 *1119:76 0.000607195
90 *734:75 *1119:121 0.000144415
91 *734:75 *1119:131 0
92 *737:18 *1119:97 0.000549511
93 *737:26 *1119:76 0
94 *737:26 *1119:97 4.78524e-05
95 *738:35 *1119:113 0
96 *740:77 *1119:131 0
97 *740:108 *1119:131 0
98 *741:80 *1119:76 0
99 *745:90 *2772:A 0.000340288
100 *745:90 *1119:137 0.000340288
101 *758:50 *1119:57 0.000128247
102 *758:87 *1119:57 0
103 *758:102 *1119:57 0
104 *760:21 *1119:46 0
105 *762:148 *1119:137 0
106 *762:158 *1119:137 0
107 *788:22 *1119:38 0
108 *1072:23 *1119:46 0
109 *1072:31 *1119:76 0.000609162
110 *1081:20 *1119:57 0
111 *1114:30 *1119:38 0.000235153
112 *1115:123 *1119:113 0.000175903
*RES
1 *3243:X *1119:8 21.9673 
2 *1119:8 *1119:12 1.5656 
3 *1119:12 *1119:14 2.9149 
4 *1119:14 *2407:A 20.3193 
5 *1119:14 *1119:25 30.9798 
6 *1119:25 *2809:S 40 
7 *1119:12 *1119:38 41.0918 
8 *1119:38 *1119:46 17.3452 
9 *1119:46 *2637:A 20 
10 *1119:46 *1119:57 39.8584 
11 *1119:57 *1119:61 21.1845 
12 *1119:61 *2894:S 20 
13 *1119:61 *1119:76 46.9216 
14 *1119:76 *2825:S 20 
15 *1119:76 *1119:97 30.5781 
16 *1119:97 *1119:113 44.6041 
17 *1119:113 *1119:121 43.5741 
18 *1119:121 *1119:131 48.7756 
19 *1119:131 *1119:137 30.9901 
20 *1119:137 *2672:A 20 
21 *1119:131 *2772:A 42.1218 
22 *1119:8 *2753:A 20 
*END

*D_NET *1120 0.0368506
*CONN
*I *2882:A1 I *D sg13cmos5l_a21oi_1
*I *2893:A1 I *D sg13cmos5l_a21oi_1
*I *2783:A2 I *D sg13cmos5l_o21ai_1
*I *2769:A2 I *D sg13cmos5l_o21ai_1
*I *2761:A2 I *D sg13cmos5l_o21ai_1
*I *2796:A2 I *D sg13cmos5l_o21ai_1
*I *2765:A2 I *D sg13cmos5l_o21ai_1
*I *2757:A2 I *D sg13cmos5l_o21ai_1
*I *3244:X O *D sg13cmos5l_buf_1
*CAP
1 *2882:A1 0
2 *2893:A1 0
3 *2783:A2 5.39953e-05
4 *2769:A2 0.000278589
5 *2761:A2 0
6 *2796:A2 0
7 *2765:A2 0.000794554
8 *2757:A2 0.000121869
9 *3244:X 0.000615363
10 *1120:101 0.000455886
11 *1120:94 0.000410415
12 *1120:86 0.000691048
13 *1120:69 0.00118506
14 *1120:67 0.00207286
15 *1120:52 0.00220848
16 *1120:46 0.00367403
17 *1120:32 0.00390102
18 *1120:20 0.00118464
19 *1120:14 0.0012181
20 *2757:A2 *2757:B1 1.54556e-05
21 *2757:A2 *1153:60 0
22 *2765:A2 *2765:B1 0
23 *2765:A2 *1121:46 0
24 *2765:A2 *1121:67 0.000128353
25 *2765:A2 *1147:20 0
26 *2765:A2 *1148:8 0
27 *2765:A2 *1148:16 0.000395068
28 *2765:A2 *1151:43 0
29 *2769:A2 *2761:B1 1.54556e-05
30 *2769:A2 *2769:A1 1.54008e-05
31 *2769:A2 *1148:28 0
32 *2769:A2 *1151:73 4.77537e-05
33 *2783:A2 *1147:24 1.54449e-05
34 *2783:A2 *1147:28 8.01283e-05
35 *1120:20 *2892:B1 0
36 *1120:32 *2892:B1 0
37 *1120:32 *1124:34 4.77425e-05
38 *1120:32 *1126:103 0.000181608
39 *1120:46 *1124:34 0.000855214
40 *1120:46 *1124:42 0
41 *1120:46 *1124:62 0
42 *1120:46 *1126:103 0
43 *1120:46 *1153:93 0
44 *1120:67 *2757:B1 0
45 *1120:67 *2783:B1 7.51285e-05
46 *1120:67 *1121:32 0
47 *1120:67 *1147:30 0.00459862
48 *1120:67 *1153:60 0
49 *1120:69 *2783:B1 0.000797883
50 *1120:69 *1147:30 7.53228e-05
51 *1120:69 *1148:16 0
52 *1120:69 *1148:126 0
53 *1120:69 *1151:43 7.52158e-05
54 *1120:86 *2761:B1 0.000112426
55 *1120:94 *1151:65 0.000501069
56 *1120:94 *1151:80 4.77425e-05
57 *1120:94 *1151:99 1.54008e-05
58 *1120:101 *2761:B1 0.000274633
59 *2755:B *1120:67 0
60 *2757:A1 *2757:A2 8.01938e-05
61 *2758:A2 *2757:A2 0
62 *2758:A2 *1120:67 0
63 *2802:B1 *1120:67 0
64 *2869:A1 *1120:46 9.63868e-05
65 *2893:A2 *1120:20 0.000193973
66 *2893:A2 *1120:32 1.54446e-05
67 *2895:S *1120:46 0.00130609
68 *2896:B *1120:46 0
69 *2903:S *1120:20 0
70 *2905:B *1120:14 4.74263e-05
71 *3091:D *2769:A2 0
72 *3099:RESET_B *2783:A2 0
73 *3105:RESET_B *1120:46 0
74 *3121:D *1120:46 0.000176274
75 *3123:RESET_B *1120:46 0.000240405
76 *173:10 *1120:14 0
77 *173:10 *1120:20 0
78 *175:10 *1120:20 8.0023e-05
79 *183:18 *1120:46 0
80 *330:12 *2765:A2 0.00039332
81 *359:33 *1120:46 0.000273694
82 *359:43 *1120:14 0
83 *392:10 *1120:46 4.78195e-05
84 *397:16 *1120:67 0
85 *467:23 *1120:67 0
86 *467:44 *1120:67 0
87 *476:12 *2765:A2 0
88 *570:16 *1120:32 0.000500267
89 *579:12 *1120:32 0.000640068
90 *595:14 *1120:32 0
91 *595:30 *1120:20 0.000304989
92 *734:75 *1120:20 0
93 *734:101 *1120:46 0.000468615
94 *741:134 *1120:32 0
95 *743:18 *1120:46 0
96 *743:33 *1120:46 0
97 *756:26 *1120:14 0
98 *757:14 *1120:94 0.000448427
99 *759:47 *1120:46 6.99179e-05
100 *790:10 *2769:A2 0
101 *977:8 *1120:14 0.000233622
102 *1092:45 *1120:52 0
103 *1103:35 *2769:A2 6.47932e-05
104 *1103:35 *1120:101 1.54008e-05
105 *1114:24 *2765:A2 0
106 *1114:28 *2765:A2 1.54008e-05
107 *1114:30 *2765:A2 0
108 *1114:30 *1120:52 0.00109481
109 *1116:10 *1120:67 0
110 *1116:12 *1120:67 0
111 *1116:28 *1120:67 0
112 *1116:28 *1120:94 0.000448012
113 *1116:40 *2765:A2 0
114 *1116:86 *1120:67 0.00124823
115 *1116:101 *1120:67 0.000159839
116 *1118:28 *1120:86 0
117 *1118:28 *1120:94 0
118 *1118:28 *1120:101 0
119 *1119:76 *1120:46 0.000434826
120 *1119:97 *1120:32 0
121 *1119:97 *1120:46 0.000468029
122 *1119:113 *1120:32 0
123 *1119:113 *1120:46 4.7381e-05
*RES
1 *3244:X *1120:14 46.1285 
2 *1120:14 *1120:20 25.733 
3 *1120:20 *1120:32 46.6538 
4 *1120:32 *1120:46 32.8261 
5 *1120:46 *1120:52 45.047 
6 *1120:52 *2757:A2 21.1845 
7 *1120:52 *1120:67 44.1947 
8 *1120:67 *1120:69 4.0582 
9 *1120:69 *2765:A2 48.7756 
10 *1120:69 *1120:86 20.9682 
11 *1120:86 *1120:94 45.6444 
12 *1120:94 *2796:A2 20 
13 *1120:86 *1120:101 1.8334 
14 *1120:101 *2761:A2 20 
15 *1120:101 *2769:A2 23.0282 
16 *1120:67 *2783:A2 40.5356 
17 *1120:20 *2893:A1 20 
18 *1120:14 *2882:A1 40 
*END

*D_NET *1121 0.0178699
*CONN
*I *2802:A1 I *D sg13cmos5l_a21oi_1
*I *2807:A1 I *D sg13cmos5l_a21oi_1
*I *2784:A1 I *D sg13cmos5l_a21oi_1
*I *2770:A1 I *D sg13cmos5l_a21oi_1
*I *2762:A1 I *D sg13cmos5l_a21oi_1
*I *2797:A1 I *D sg13cmos5l_a21oi_1
*I *2766:A1 I *D sg13cmos5l_a21oi_1
*I *2758:A1 I *D sg13cmos5l_a21oi_1
*I *3245:X O *D sg13cmos5l_buf_1
*CAP
1 *2802:A1 3.07022e-05
2 *2807:A1 0.000168679
3 *2784:A1 0
4 *2770:A1 0.000503985
5 *2762:A1 0
6 *2797:A1 0
7 *2766:A1 0
8 *2758:A1 0.000201676
9 *3245:X 0.000440081
10 *1121:76 0.00067908
11 *1121:67 0.000617284
12 *1121:46 0.00122591
13 *1121:42 0.00108953
14 *1121:38 0.00117613
15 *1121:32 0.00164095
16 *1121:28 0.000987436
17 *1121:8 0.000286978
18 *2770:A1 *1148:28 6.46834e-05
19 *1121:8 *1124:68 0
20 *1121:8 *1153:60 7.52158e-05
21 *1121:28 *1147:30 0
22 *1121:28 *1153:48 0
23 *1121:28 *1153:78 0
24 *1121:32 *1153:20 0
25 *1121:38 *1156:31 0
26 *1121:42 *1148:126 0
27 *1121:46 *2765:B1 0.000393821
28 *1121:46 *1148:16 0
29 *1121:46 *1151:39 0.000394151
30 *1121:67 *1147:20 0
31 *1121:76 *1148:28 0.000177032
32 *2378:A *1121:67 0
33 *2596:C *1121:67 0
34 *2758:A2 *2758:A1 0
35 *2758:B1 *2758:A1 0
36 *2762:A2 *2770:A1 0
37 *2765:A2 *1121:46 0
38 *2765:A2 *1121:67 0.000128353
39 *2766:A2 *1121:67 8.00842e-05
40 *2784:A2 *1121:38 1.54008e-05
41 *2797:A2 *1121:67 1.54446e-05
42 *2802:A2 *2802:A1 4.77534e-05
43 *2802:B1 *2802:A1 0
44 *2804:A *2807:A1 0
45 *2807:A2 *2807:A1 0
46 *3091:RESET_B *2770:A1 0
47 *3095:D *2770:A1 4.79124e-05
48 *3099:RESET_B *1121:38 0.000338246
49 *3245:A *1121:28 1.54008e-05
50 *152:8 *1121:46 0.000712758
51 *209:29 *1121:76 0
52 *330:12 *1121:67 0.000278387
53 *384:24 *2807:A1 0
54 *399:18 *1121:32 0
55 *466:23 *1121:28 0.000225896
56 *467:23 *1121:32 0.00199026
57 *467:23 *1121:38 0
58 *467:44 *1121:32 0.000235556
59 *505:8 *1121:28 7.52158e-05
60 *505:8 *1121:32 0.00108523
61 *511:8 *1121:32 0
62 *707:28 *1121:76 0
63 *732:37 *1121:32 0
64 *732:37 *1121:38 0
65 *758:110 *1121:28 0
66 *785:8 *1121:46 0
67 *799:12 *1121:67 0
68 *876:28 *1121:67 0.000289721
69 *1061:8 *1121:8 0
70 *1061:10 *1121:8 0
71 *1114:30 *1121:8 0.000291165
72 *1114:30 *1121:42 0
73 *1114:30 *1121:46 0
74 *1116:10 *1121:38 0.000394566
75 *1116:12 *1121:38 0.000341119
76 *1116:28 *1121:38 0.000714003
77 *1116:40 *1121:67 0
78 *1116:80 *1121:38 0.000394151
79 *1120:67 *1121:32 0
*RES
1 *3245:X *1121:8 41.339 
2 *1121:8 *2758:A1 41.6171 
3 *3245:X *1121:28 43.9449 
4 *1121:28 *1121:32 11.0519 
5 *1121:32 *1121:38 31.7626 
6 *1121:38 *1121:42 23.0694 
7 *1121:42 *1121:46 28.0134 
8 *1121:46 *2766:A1 20 
9 *1121:46 *1121:67 46.9834 
10 *1121:67 *2797:A1 20 
11 *1121:42 *1121:76 21.8334 
12 *1121:76 *2762:A1 20 
13 *1121:76 *2770:A1 24.4496 
14 *1121:38 *2784:A1 20 
15 *1121:32 *2807:A1 41.8334 
16 *1121:28 *2802:A1 40.3193 
*END

*D_NET *1122 0.0274636
*CONN
*I *2790:A2 I *D sg13cmos5l_a22oi_1
*I *2778:A2 I *D sg13cmos5l_a22oi_1
*I *2872:B I *D sg13cmos5l_nand2_1
*I *2815:A2 I *D sg13cmos5l_a22oi_1
*I *2837:A2 I *D sg13cmos5l_a22oi_1
*I *2821:A1 I *D sg13cmos5l_o21ai_1
*I *2832:A2 I *D sg13cmos5l_a22oi_1
*I *2853:A2 I *D sg13cmos5l_a22oi_1
*I *3246:X O *D sg13cmos5l_buf_1
*CAP
1 *2790:A2 0
2 *2778:A2 0.00019115
3 *2872:B 0.000430737
4 *2815:A2 0
5 *2837:A2 0
6 *2821:A1 0.000588181
7 *2832:A2 0
8 *2853:A2 0.000127104
9 *3246:X 0
10 *1122:104 0.000488367
11 *1122:87 0.00126692
12 *1122:72 0.00167329
13 *1122:53 0.0027586
14 *1122:36 0.00259952
15 *1122:27 0.00112827
16 *1122:21 0.0013876
17 *1122:10 0.000942019
18 *1122:4 0.000866866
19 *2778:A2 *1136:32 0.000144706
20 *2821:A1 *1130:20 0.000176613
21 *2821:A1 *1142:8 0
22 *2872:B *1154:128 0
23 *1122:10 *1145:10 0.000501433
24 *1122:10 *1145:99 0.00225408
25 *1122:27 *1123:110 0
26 *1122:27 *1146:97 0
27 *1122:53 *1132:87 0
28 *1122:53 *1142:8 0
29 *1122:72 *1126:76 0
30 *1122:72 *1126:87 0
31 *1122:87 *1123:81 0.000758494
32 *1122:87 *1143:115 4.77537e-05
33 *2789:A1 *1122:10 0.000977086
34 *2789:A1 *1122:104 0
35 *2790:B1 *1122:104 0.000711927
36 *2821:B1 *2821:A1 0
37 *2821:A2 *2821:A1 1.54556e-05
38 *2832:B1 *1122:53 0.00023464
39 *2832:B2 *1122:27 0
40 *2835:A *1122:72 0.000177164
41 *2837:B2 *1122:53 8.00842e-05
42 *2837:B2 *1122:72 4.77425e-05
43 *2858:A *1122:53 0.000337814
44 *2877:C *2872:B 0.000134458
45 *2888:D *1122:87 0
46 *3137:RESET_B *2872:B 0.000177034
47 *3267:A *1122:104 0.000393736
48 *172:10 *2872:B 4.78195e-05
49 *209:62 *1122:53 0.000756811
50 *359:10 *1122:53 0
51 *427:24 *1122:72 0.000341119
52 *463:10 *1122:87 0
53 *463:33 *1122:87 0.000448012
54 *481:31 *2778:A2 4.77425e-05
55 *495:10 *1122:10 0
56 *498:10 *2778:A2 0
57 *515:10 *1122:72 1.54008e-05
58 *518:14 *1122:87 0.000112426
59 *522:10 *1122:27 8.02595e-05
60 *523:10 *2821:A1 0
61 *529:8 *1122:53 0.00140217
62 *532:10 *2821:A1 0
63 *532:10 *1122:36 0
64 *688:8 *1122:53 0
65 *688:14 *1122:53 0
66 *752:12 *1122:87 0
67 *760:46 *2853:A2 0.000175513
68 *761:27 *1122:10 0
69 *761:27 *1122:53 0.000597428
70 *1073:14 *1122:53 0.000530015
71 *1073:14 *1122:72 9.7025e-05
72 *1073:56 *1122:72 0
73 *1088:10 *1122:53 0
74 *1090:18 *1122:72 0
75 *1113:46 *2778:A2 8.02269e-05
76 *1115:16 *1122:53 0.000953675
77 *1117:66 *1122:53 0
78 *1117:108 *1122:72 0
79 *1117:131 *1122:87 0
80 *1118:78 *1122:10 0.000159096
*RES
1 *3246:X *1122:4 20 
2 *1122:4 *1122:10 33.0295 
3 *1122:10 *2853:A2 41.1845 
4 *1122:4 *1122:21 0.5356 
5 *1122:21 *1122:27 6.8598 
6 *1122:27 *2832:A2 20 
7 *1122:27 *1122:36 20.7519 
8 *1122:36 *2821:A1 45.7371 
9 *1122:36 *1122:53 42.6085 
10 *1122:53 *2837:A2 20 
11 *1122:53 *1122:72 48.3018 
12 *1122:72 *2815:A2 20 
13 *1122:72 *1122:87 49.0846 
14 *1122:87 *2872:B 24.017 
15 *1122:21 *1122:104 44.0582 
16 *1122:104 *2778:A2 21.8334 
17 *1122:104 *2790:A2 20 
*END

*D_NET *1123 0.0197648
*CONN
*I *2830:C I *D sg13cmos5l_nor4_1
*I *2820:B I *D sg13cmos5l_nand2b_1
*I *2788:C I *D sg13cmos5l_nor4_1
*I *2775:C I *D sg13cmos5l_nor4_1
*I *2876:B1 I *D sg13cmos5l_a21o_1
*I *2813:C I *D sg13cmos5l_nor4_1
*I *2860:A2 I *D sg13cmos5l_a22oi_1
*I *2867:A2 I *D sg13cmos5l_a22oi_1
*I *3247:X O *D sg13cmos5l_buf_1
*CAP
1 *2830:C 0.000148274
2 *2820:B 0
3 *2788:C 0
4 *2775:C 0
5 *2876:B1 0
6 *2813:C 0
7 *2860:A2 0
8 *2867:A2 0.000110614
9 *3247:X 0
10 *1123:134 0.000278498
11 *1123:120 0.000529475
12 *1123:110 0.000532895
13 *1123:100 0.00068436
14 *1123:89 0.000167164
15 *1123:81 0.000768825
16 *1123:66 0.00155512
17 *1123:51 0.000549835
18 *1123:33 0.0015033
19 *1123:31 0.00081887
20 *1123:10 0.00195983
21 *1123:4 0.00128451
22 *2830:C *1145:45 7.56308e-05
23 *2867:A2 *1154:71 0.000340288
24 *1123:31 *1148:51 0.000402014
25 *1123:31 *1148:59 0
26 *1123:31 *1154:71 0.000765375
27 *1123:51 *1143:60 0
28 *1123:51 *1154:83 0
29 *1123:81 *1143:14 0.00034112
30 *1123:100 *1145:45 0.000494275
31 *1123:110 *1146:97 1.54008e-05
32 *1123:110 *1146:118 6.47604e-05
33 *1123:120 *1145:45 0.000181192
34 *1123:120 *1146:97 0
35 *1123:134 *1145:22 8.02128e-05
36 *2775:B *1123:120 4.78524e-05
37 *2775:B *1123:134 0.000246161
38 *2775:D *1123:134 4.77425e-05
39 *2813:B *1123:66 0.000175644
40 *2813:B *1123:81 3.23417e-05
41 *2816:C *1123:66 0
42 *2830:B *1123:110 0
43 *2830:D *1123:110 0
44 *2832:B1 *2830:C 0
45 *2832:B2 *2830:C 0
46 *2832:B2 *1123:110 0
47 *2859:A1 *1123:51 0
48 *2859:A2 *1123:51 0.000153148
49 *2860:B2 *1123:51 0
50 *2861:C *1123:51 0
51 *2861:D *1123:51 0
52 *2867:B2 *2867:A2 8.00842e-05
53 *2876:A1 *1123:89 0
54 *2884:B *1123:81 0
55 *2888:D *1123:89 8.0216e-05
56 *3119:D *1123:66 0
57 *3127:D *1123:51 0
58 *358:84 *1123:51 4.77425e-05
59 *358:96 *1123:51 0.000196801
60 *427:18 *1123:66 0.000176912
61 *464:18 *1123:66 0.000273432
62 *483:22 *2867:A2 8.00842e-05
63 *487:52 *1123:51 0.000262616
64 *487:52 *1123:66 9.70075e-05
65 *516:12 *1123:66 0
66 *531:16 *1123:100 0
67 *531:16 *1123:110 0
68 *532:10 *1123:110 1.54556e-05
69 *550:8 *1123:51 0
70 *554:14 *1123:51 8.06227e-05
71 *555:12 *1123:51 0
72 *556:10 *1123:31 0
73 *557:12 *1123:31 0.000444691
74 *559:18 *1123:10 0.000209505
75 *745:22 *1123:51 0
76 *745:22 *1123:66 0.00053159
77 *745:35 *1123:66 0
78 *749:12 *1123:89 0
79 *749:20 *1123:89 0
80 *818:10 *1123:10 0.000111896
81 *1073:56 *1123:66 0
82 *1073:56 *1123:81 0
83 *1078:12 *2867:A2 0.000340288
84 *1078:12 *1123:31 0.000637214
85 *1091:8 *1123:31 0.000181192
86 *1092:16 *1123:120 0
87 *1113:8 *1123:66 7.85932e-05
88 *1113:122 *1123:81 0.000128576
89 *1115:43 *1123:120 0.000129469
90 *1117:131 *1123:81 0.00046754
91 *1122:27 *1123:110 0
92 *1122:87 *1123:81 0.000758494
*RES
1 *3247:X *1123:4 20 
2 *1123:4 *1123:10 29.1052 
3 *1123:10 *2867:A2 42.1218 
4 *1123:10 *1123:31 49.8262 
5 *1123:31 *1123:33 20 
6 *1123:33 *1123:51 46.0976 
7 *1123:51 *2860:A2 20 
8 *1123:33 *1123:66 49.1155 
9 *1123:66 *2813:C 20 
10 *1123:66 *1123:81 47.1997 
11 *1123:81 *1123:89 41.6274 
12 *1123:89 *2876:B1 20 
13 *1123:4 *1123:100 22.8325 
14 *1123:100 *1123:110 22.6059 
15 *1123:110 *1123:120 42.9973 
16 *1123:120 *1123:134 42.987 
17 *1123:134 *2775:C 20 
18 *1123:120 *2788:C 20 
19 *1123:110 *2820:B 20 
20 *1123:100 *2830:C 41.339 
*END

*D_NET *1124 0.0272789
*CONN
*I *2881:A2 I *D sg13cmos5l_o21ai_1
*I *2892:A2 I *D sg13cmos5l_o21ai_1
*I *2847:A2 I *D sg13cmos5l_o21ai_1
*I *2842:A2 I *D sg13cmos5l_o21ai_1
*I *2801:A2 I *D sg13cmos5l_o21ai_1
*I *2752:A I *D sg13cmos5l_buf_1
*I *2806:A2 I *D sg13cmos5l_o21ai_1
*I *2810:S I *D sg13cmos5l_mux2_1
*I *3248:X O *D sg13cmos5l_buf_1
*CAP
1 *2881:A2 0
2 *2892:A2 2.56635e-05
3 *2847:A2 0
4 *2842:A2 0
5 *2801:A2 0
6 *2752:A 0
7 *2806:A2 0
8 *2810:S 0.000128453
9 *3248:X 7.85774e-05
10 *1124:153 0.000671175
11 *1124:128 0.000835485
12 *1124:119 0.000368035
13 *1124:89 0.000642011
14 *1124:74 0.00111795
15 *1124:68 0.00056646
16 *1124:62 0.000758152
17 *1124:52 0.000905211
18 *1124:42 0.000983653
19 *1124:34 0.00314558
20 *1124:10 0.00311322
21 *2810:S *1148:126 0
22 *2892:A2 *2892:B1 4.77863e-05
23 *1124:34 *1131:24 0
24 *1124:34 *1131:30 0
25 *1124:62 *2842:B1 4.77425e-05
26 *1124:62 *1147:30 0
27 *1124:62 *1153:48 3.23417e-05
28 *1124:68 *1153:48 1.54008e-05
29 *1124:68 *1153:60 0.000494926
30 *1124:74 *1148:126 0
31 *1124:89 *2806:A1 1.54446e-05
32 *1124:89 *1153:12 0.000660758
33 *1124:89 *1153:20 0.000112689
34 *1124:89 *1153:31 1.54446e-05
35 *1124:119 *2847:B1 0.000208183
36 *1124:119 *1125:27 0.00119262
37 *1124:153 *2892:B1 0.000441127
38 *2663:A *1124:153 0.000234726
39 *2780:A *1124:68 0.000394652
40 *2780:A *1124:74 0.0010322
41 *2848:A1 *1124:52 0
42 *2848:B1 *1124:42 0
43 *2869:A0 *1124:34 6.99179e-05
44 *2869:A1 *1124:34 4.77534e-05
45 *2879:A *1124:34 8.00842e-05
46 *2880:B *1124:153 0
47 *2890:B *1124:34 0
48 *2895:S *1124:34 0.00137077
49 *2903:S *1124:10 4.77425e-05
50 *2903:S *1124:34 8.0216e-05
51 *3105:RESET_B *1124:62 0
52 *3121:D *1124:52 0
53 *3248:A *1124:10 0.000128247
54 *3248:A *1124:34 0
55 *3420:A *1124:52 0
56 *3425:A *1124:34 0
57 *3425:A *1124:42 0
58 *183:18 *1124:42 0
59 *183:18 *1124:52 0.000177351
60 *185:16 *1124:153 0.000261276
61 *208:31 *1124:34 0
62 *219:18 *1124:119 0.000111658
63 *219:24 *1124:119 0.00119715
64 *359:33 *1124:34 0.000259349
65 *384:24 *1124:89 0.000273451
66 *393:12 *1124:34 0
67 *393:18 *1124:34 0
68 *397:33 *1124:68 5.30319e-05
69 *397:33 *1124:74 0.000819652
70 *399:18 *1124:89 0
71 *466:8 *1124:62 0.000235055
72 *466:23 *1124:62 0
73 *543:12 *1124:42 0
74 *579:12 *1124:34 0
75 *579:12 *1124:128 0
76 *582:10 *1124:34 8.00842e-05
77 *595:14 *1124:34 0.000241782
78 *595:30 *1124:153 0
79 *664:51 *2810:S 0
80 *664:51 *1124:74 0
81 *664:51 *1124:89 0
82 *734:75 *1124:10 0.00012816
83 *739:112 *1124:153 4.77425e-05
84 *740:95 *1124:10 2.20966e-05
85 *740:95 *1124:34 0
86 *740:95 *1124:128 0.000447597
87 *741:134 *2892:A2 1.54446e-05
88 *741:143 *2892:A2 3.23417e-05
89 *741:143 *1124:153 8.0057e-05
90 *763:57 *1124:34 0
91 *792:12 *1124:34 0
92 *1061:8 *1124:62 0.00044893
93 *1061:10 *1124:62 7.52158e-05
94 *1061:10 *1124:68 0.000371639
95 *1092:34 *1124:89 0
96 *1114:30 *1124:89 0.000502169
97 *1115:108 *1124:34 0.000191795
98 *1115:123 *1124:34 8.00842e-05
99 *1119:113 *1124:34 0.00011237
100 *1120:32 *1124:34 4.77425e-05
101 *1120:46 *1124:34 0.000855214
102 *1120:46 *1124:42 0
103 *1120:46 *1124:62 0
104 *1121:8 *1124:68 0
*RES
1 *3248:X *1124:10 41.1639 
2 *1124:10 *1124:34 49.3809 
3 *1124:34 *1124:42 2.6368 
4 *1124:42 *1124:52 3.8522 
5 *1124:52 *1124:62 46.4272 
6 *1124:62 *1124:68 23.8831 
7 *1124:68 *1124:74 25.768 
8 *1124:74 *2810:S 21.1845 
9 *1124:74 *1124:89 47.4057 
10 *1124:89 *2806:A2 20 
11 *1124:68 *2752:A 40 
12 *1124:62 *2801:A2 20 
13 *1124:52 *2842:A2 20 
14 *1124:42 *1124:119 46.9422 
15 *1124:119 *2847:A2 20 
16 *1124:10 *1124:128 22.0806 
17 *1124:128 *2892:A2 20.3193 
18 *1124:128 *1124:153 47.1328 
19 *1124:153 *2881:A2 20 
*END

*D_NET *1125 0.0403999
*CONN
*I *2538:A0 I *D sg13cmos5l_mux2_1
*I *2607:A0 I *D sg13cmos5l_mux2_1
*I *2439:A I *D sg13cmos5l_nand2_1
*I *2769:A1 I *D sg13cmos5l_o21ai_1
*I *3450:X O *D sg13cmos5l_buf_1
*CAP
1 *2538:A0 0
2 *2607:A0 0.000535775
3 *2439:A 0.000335452
4 *2769:A1 3.58591e-05
5 *3450:X 2.86241e-05
6 *1125:66 0.000895531
7 *1125:58 0.00136245
8 *1125:37 0.00119708
9 *1125:27 0.00655666
10 *1125:25 0.00474108
11 *1125:14 8.46037e-05
12 *1125:12 0.000891743
13 *1125:8 0.00471248
14 *1125:6 0.00384936
15 *1125:6 *1147:14 0
16 *1125:8 *1147:16 0
17 *1125:12 *1150:40 0.000394981
18 *1125:12 *1151:73 0
19 *1125:25 *1148:28 0
20 *1125:25 *1150:40 0
21 *1125:27 *1135:14 0
22 *1125:27 *1153:31 0
23 *1125:27 *1153:46 0
24 *1125:66 *1137:89 0
25 *2424:A *1125:27 0.00117003
26 *2424:A *1125:58 0.000294341
27 *2432:C *1125:27 0
28 *2441:B *2439:A 8.00279e-05
29 *2441:B *1125:37 0
30 *2454:A *1125:37 0
31 *2538:A1 *2607:A0 0
32 *2538:A1 *1125:58 0
33 *2539:B *2607:A0 0
34 *2539:B *1125:58 0.000112748
35 *2539:B *1125:66 0
36 *2769:A2 *2769:A1 1.54008e-05
37 *2993:D *1125:58 0
38 *3107:CLK *1125:27 0
39 *3165:A *2607:A0 0
40 *3189:A *1125:37 0
41 *3303:A *2439:A 0
42 *3303:A *1125:37 0
43 *3424:A *1125:27 0.00103095
44 *3440:A *1125:8 0.000112328
45 *3447:A *1125:8 0.00030715
46 *3450:A *1125:8 1.54008e-05
47 *157:8 *1125:12 0
48 *219:24 *1125:27 0
49 *222:12 *1125:37 0
50 *222:12 *1125:58 0
51 *242:12 *2439:A 0
52 *242:12 *1125:37 0
53 *294:10 *1125:27 0.000873599
54 *294:27 *1125:27 0.000798472
55 *295:33 *1125:66 0
56 *479:14 *1125:27 0
57 *500:10 *1125:12 0
58 *503:8 *1125:12 0.000660142
59 *538:12 *1125:27 0
60 *600:8 *1125:27 0
61 *600:8 *1125:58 0
62 *632:16 *1125:58 0
63 *658:28 *1125:58 0
64 *684:23 *1125:58 0
65 *707:12 *1125:27 0
66 *733:16 *1125:27 0.000181192
67 *740:14 *1125:27 0
68 *765:27 *1125:12 0
69 *766:12 *1125:8 0
70 *768:85 *1125:58 0
71 *770:16 *1125:37 8.00842e-05
72 *771:42 *2607:A0 4.79124e-05
73 *771:42 *1125:66 0.000175728
74 *771:50 *1125:58 0.00053303
75 *771:73 *1125:37 0.000368863
76 *771:73 *1125:58 0.000143932
77 *790:10 *1125:25 0
78 *799:57 *1125:12 0.00023464
79 *847:14 *2607:A0 0.000337507
80 *876:10 *1125:8 0.000532247
81 *881:8 *1125:12 0
82 *897:10 *1125:37 8.01283e-05
83 *953:16 *1125:37 0.000789223
84 *987:36 *1125:27 0
85 *987:42 *1125:27 0.001403
86 *1027:27 *1125:58 0
87 *1074:10 *1125:27 0.00225359
88 *1092:8 *1125:8 0.000177399
89 *1103:20 *1125:12 0
90 *1103:39 *1125:27 0
91 *1103:41 *1125:27 0
92 *1109:8 *2607:A0 0
93 *1114:16 *1125:8 0.000776517
94 *1114:24 *1125:8 0
95 *1114:38 *1125:58 0
96 *1124:119 *1125:27 0.00119262
*RES
1 *3450:X *1125:6 20.3502 
2 *1125:6 *1125:8 34.4947 
3 *1125:8 *1125:12 30.2382 
4 *1125:12 *1125:14 20 
5 *1125:14 *2769:A1 20.3193 
6 *1125:14 *1125:25 20.5356 
7 *1125:25 *1125:27 57.2062 
8 *1125:27 *1125:37 48.6788 
9 *1125:37 *2439:A 43.0179 
10 *1125:27 *1125:58 30.4854 
11 *1125:58 *1125:66 43.2651 
12 *1125:66 *2607:A0 25.3004 
13 *1125:66 *2538:A0 20 
*END

*D_NET *1126 0.033308
*CONN
*I *2756:A I *D sg13cmos5l_buf_1
*I *2870:S I *D sg13cmos5l_mux2_1
*I *2826:S I *D sg13cmos5l_mux2_1
*I *2812:B I *D sg13cmos5l_and2_1
*I *2828:B I *D sg13cmos5l_and2_1
*I *2645:C I *D sg13cmos5l_nand3_1
*I *2771:B I *D sg13cmos5l_and2_1
*I *2785:B I *D sg13cmos5l_and2_1
*I *3249:X O *D sg13cmos5l_buf_1
*CAP
1 *2756:A 0.000488666
2 *2870:S 0
3 *2826:S 0
4 *2812:B 0
5 *2828:B 0
6 *2645:C 0.000151054
7 *2771:B 0.00035996
8 *2785:B 0
9 *3249:X 2.77263e-05
10 *1126:113 0.000817212
11 *1126:103 0.00187688
12 *1126:93 0.0021534
13 *1126:87 0.00330636
14 *1126:76 0.00176005
15 *1126:72 0.00154128
16 *1126:39 0.00128148
17 *1126:28 0.00127876
18 *1126:16 0.00113304
19 *1126:6 0.00215765
20 *2645:C *1132:16 0.000234224
21 *2771:B *1132:16 0.000181192
22 *2771:B *1146:12 9.64754e-05
23 *2771:B *1146:26 8.00842e-05
24 *2771:B *1150:10 0
25 *1126:16 *1142:12 0.000128531
26 *1126:16 *1142:20 8.00842e-05
27 *1126:16 *1142:38 0.000129499
28 *1126:28 *2773:A 0
29 *1126:28 *2777:A 0
30 *1126:28 *2785:A 1.65559e-05
31 *1126:39 *2777:A 0
32 *1126:39 *2785:A 0
33 *1126:39 *1150:80 0
34 *1126:72 *2707:A 0.000338207
35 *1126:72 *1130:10 0.000234224
36 *1126:72 *1148:51 0
37 *1126:72 *1148:90 0
38 *1126:87 *2812:A 4.75151e-05
39 *1126:113 *1131:10 0
40 *2645:B *2645:C 1.00105e-05
41 *2665:A *1126:93 0.000176704
42 *2666:B *1126:87 0
43 *2774:B *1126:39 0.000208692
44 *2819:A0 *1126:16 0
45 *2825:A1 *1126:113 0.000181279
46 *2863:B *1126:72 0.00027432
47 *2870:A0 *1126:113 4.75151e-05
48 *2903:A0 *2756:A 0
49 *2911:A *1126:103 0
50 *3097:CLK *1126:39 0.000241198
51 *3113:CLK *1126:16 8.01938e-05
52 *3254:A *1126:103 0.000338872
53 *3254:A *1126:113 0.000175853
54 *3264:A *1126:16 0.000181192
55 *165:10 *1126:72 0.000659726
56 *352:30 *2645:C 7.87737e-05
57 *352:30 *1126:28 0
58 *352:30 *1126:39 0
59 *352:30 *1126:72 0
60 *352:32 *1126:72 0.00120949
61 *359:33 *1126:113 0.000234224
62 *359:60 *1126:16 0.000566107
63 *380:25 *1126:93 0
64 *405:16 *1126:113 0.0010173
65 *427:24 *1126:72 0
66 *427:24 *1126:87 0
67 *462:12 *1126:87 0
68 *464:18 *1126:72 0
69 *465:18 *1126:93 0.000241308
70 *465:26 *1126:93 0
71 *481:8 *2771:B 0.00011236
72 *484:10 *1126:39 0.00024122
73 *515:10 *1126:87 0
74 *570:16 *1126:103 0.000186966
75 *589:10 *2756:A 0
76 *595:30 *2756:A 0
77 *664:382 *1126:103 0
78 *664:395 *1126:103 0
79 *664:403 *1126:93 0
80 *666:10 *1126:87 0
81 *666:22 *1126:87 0
82 *679:8 *1126:103 0
83 *688:14 *1126:16 4.78195e-05
84 *693:8 *1126:87 0
85 *693:23 *1126:76 0
86 *693:23 *1126:87 0
87 *739:10 *1126:87 0
88 *739:59 *1126:87 0
89 *741:92 *1126:113 0.000145052
90 *741:115 *1126:103 0
91 *741:134 *1126:103 7.92096e-05
92 *746:42 *2756:A 0
93 *762:148 *1126:87 0.00113826
94 *911:10 *2771:B 0
95 *1071:8 *1126:113 7.51285e-05
96 *1083:14 *2756:A 0.000980408
97 *1083:14 *1126:87 0.00145728
98 *1113:82 *2771:B 0
99 *1115:8 *1126:103 0
100 *1115:76 *1126:72 0.000501132
101 *1115:108 *1126:103 0
102 *1117:10 *2645:C 0.000212862
103 *1117:10 *2771:B 0.000129283
104 *1117:14 *1126:39 0
105 *1117:49 *1126:16 0.000566239
106 *1117:49 *1126:28 0.00024205
107 *1117:49 *1126:39 0
108 *1118:61 *2645:C 0.000170408
109 *1118:137 *1126:72 0.000658479
110 *1119:97 *1126:103 0
111 *1119:97 *1126:113 0
112 *1119:121 *1126:103 0.000182121
113 *1119:131 *1126:93 0.000177219
114 *1119:137 *1126:87 0
115 *1120:32 *1126:103 0.000181608
116 *1120:46 *1126:103 0
117 *1122:72 *1126:76 0
118 *1122:72 *1126:87 0
*RES
1 *3249:X *1126:6 20.3502 
2 *1126:6 *1126:16 47.3233 
3 *1126:16 *1126:28 5.253 
4 *1126:28 *2785:B 20 
5 *1126:28 *1126:39 27.1585 
6 *1126:39 *2771:B 43.7595 
7 *1126:39 *2645:C 42.2402 
8 *1126:16 *2828:B 20 
9 *1126:6 *1126:72 37.201 
10 *1126:72 *1126:76 20.3193 
11 *1126:76 *2812:B 20 
12 *1126:76 *1126:87 39.3949 
13 *1126:87 *1126:93 49.4039 
14 *1126:93 *1126:103 30.3 
15 *1126:103 *1126:113 49.0846 
16 *1126:113 *2826:S 20 
17 *1126:103 *2870:S 20 
18 *1126:87 *2756:A 45.9534 
*END

*D_NET *1127 0.0317308
*CONN
*I *2490:B I *D sg13cmos5l_nand2_1
*I *2487:B I *D sg13cmos5l_nand2_1
*I *2484:B I *D sg13cmos5l_nand2_1
*I *2503:B I *D sg13cmos5l_nand2_1
*I *2506:B I *D sg13cmos5l_nand2_1
*I *2500:B I *D sg13cmos5l_nand2_1
*I *2494:B I *D sg13cmos5l_nand2_1
*I *2497:B I *D sg13cmos5l_nand2_1
*I *3250:X O *D sg13cmos5l_buf_1
*CAP
1 *2490:B 0
2 *2487:B 0.00172247
3 *2484:B 0
4 *2503:B 0
5 *2506:B 0
6 *2500:B 3.30115e-05
7 *2494:B 3.57588e-05
8 *2497:B 2.94269e-05
9 *3250:X 0.000660156
10 *1127:116 0.00256597
11 *1127:106 0.00229247
12 *1127:87 0.000357276
13 *1127:72 0.000479568
14 *1127:68 0.00093871
15 *1127:56 0.0026081
16 *1127:45 0.000559014
17 *1127:34 0.00078244
18 *1127:30 0.000777275
19 *1127:10 0.000475693
20 *2500:B *1134:31 0.000182109
21 *1127:10 *2474:B 4.77425e-05
22 *1127:34 *1138:97 0
23 *1127:45 *1138:101 0.000241089
24 *1127:56 *1134:31 0.000340704
25 *1127:56 *1134:53 0.00143269
26 *1127:106 *1134:53 0.00172294
27 *1127:106 *1134:72 0.000744021
28 config_o[23] *1127:34 0.000659726
29 config_o[24] *1127:34 0
30 config_o[24] *1127:106 0
31 config_o[28] *1127:68 0.000128355
32 config_o[29] *1127:87 0
33 config_o[9] *2487:B 0
34 *2371:A0 *1127:68 1.54008e-05
35 *2371:A1 *1127:68 0
36 *2371:S *1127:68 0.000118704
37 *2375:S *1127:68 0
38 *2485:A *2487:B 0
39 *2486:B *1127:116 0.00010143
40 *2490:A *1127:106 0.000499483
41 *2491:A *1127:30 1.54008e-05
42 *2499:B *2497:B 1.54008e-05
43 *2514:C *2487:B 0
44 *2573:A *1127:68 4.77702e-05
45 *2967:RESET_B *1127:45 0.000144009
46 *2967:CLK *1127:34 0.0012986
47 *2977:D *1127:87 0.000144229
48 *3234:A *1127:116 0.000402278
49 *3235:A *1127:116 0.000369826
50 *3250:A *1127:30 0
51 *3291:A *1127:116 0.000208195
52 *3311:A *1127:68 0.000208615
53 *3342:A *1127:68 0
54 *3350:A *1127:106 0.000306794
55 *3482:A *2487:B 0
56 *12:14 *2487:B 0
57 *13:12 *2487:B 0
58 *14:12 *2487:B 0.000145042
59 *14:12 *1127:106 0
60 *14:12 *1127:116 0
61 *22:8 *1127:10 0.000340704
62 *265:16 *2487:B 0.00192686
63 *266:12 *2487:B 0.00024216
64 *268:14 *1127:116 0
65 *269:10 *1127:30 0.000240614
66 *270:22 *1127:68 0.000111505
67 *270:22 *1127:72 0.000176474
68 *270:22 *1127:87 0.000129447
69 *275:10 *1127:34 0.00119212
70 *294:52 *2497:B 4.77425e-05
71 *317:8 *1127:30 0
72 *609:51 *1127:116 0
73 *612:10 *1127:106 0
74 *612:21 *1127:106 0
75 *649:10 *1127:68 4.77425e-05
76 *653:8 *1127:87 0
77 *744:54 *2500:B 0.000182109
78 *744:54 *1127:56 0.0017513
79 *744:54 *1127:106 0.00127692
80 *776:114 *1127:87 0
81 *778:10 *1127:116 7.90445e-05
82 *789:14 *1127:45 0
83 *844:14 *1127:68 0.00012816
84 *852:10 *1127:68 0
85 *915:20 *1127:72 0
86 *1097:14 *2487:B 0
*RES
1 *3250:X *1127:10 43.4196 
2 *1127:10 *2497:B 40.3193 
3 *3250:X *1127:30 42.2145 
4 *1127:30 *1127:34 29.7438 
5 *1127:34 *2494:B 20.3193 
6 *1127:34 *1127:45 22.0497 
7 *1127:45 *2500:B 40.8446 
8 *1127:45 *1127:56 8.2606 
9 *1127:56 *1127:68 48.1061 
10 *1127:68 *1127:72 21.1845 
11 *1127:72 *2506:B 20 
12 *1127:72 *1127:87 43.2754 
13 *1127:87 *2503:B 20 
14 *1127:56 *1127:106 39.3434 
15 *1127:106 *1127:116 8.7962 
16 *1127:116 *2484:B 20 
17 *1127:116 *2487:B 40.2292 
18 *1127:106 *2490:B 20 
*END

*D_NET *1128 0.0221442
*CONN
*I *2452:B I *D sg13cmos5l_nand2_1
*I *2462:B I *D sg13cmos5l_nand2_1
*I *2458:B I *D sg13cmos5l_nand2_1
*I *2480:B I *D sg13cmos5l_nand2_1
*I *2468:B I *D sg13cmos5l_nand2_1
*I *2474:B I *D sg13cmos5l_nand2_1
*I *2471:B I *D sg13cmos5l_nand2_1
*I *2455:B I *D sg13cmos5l_nand2_1
*I *3251:X O *D sg13cmos5l_buf_1
*CAP
1 *2452:B 0.000283433
2 *2462:B 0.000584255
3 *2458:B 3.06537e-05
4 *2480:B 8.896e-05
5 *2468:B 0
6 *2474:B 0.00089512
7 *2471:B 0
8 *2455:B 0
9 *3251:X 0
10 *1128:95 0.0010354
11 *1128:89 0.00112351
12 *1128:55 0.000474368
13 *1128:43 0.00179096
14 *1128:35 0.000857758
15 *1128:29 0.000525249
16 *1128:27 0.00114723
17 *1128:23 0.00207715
18 *1128:12 0.000210242
19 *1128:4 0.00072058
20 *1128:23 *1139:88 0
21 *1128:55 *1144:55 0.000607497
22 *2357:A0 *1128:27 0
23 *2357:A1 *1128:27 0
24 *2358:S *1128:55 0
25 *2455:A *1128:23 0.000144691
26 *2458:A *2458:B 0
27 *2471:A *1128:55 0
28 *2473:C *1128:55 0
29 *2478:A *2452:B 0
30 *2939:RESET_B *1128:27 0.000564862
31 *2943:D *2462:B 0
32 *2947:RESET_B *1128:35 0.000241165
33 *3231:A *2474:B 0.000709635
34 *3231:A *1128:55 4.77425e-05
35 *3251:A *1128:23 0
36 *220:45 *1128:55 0.000219971
37 *221:10 *1128:12 0
38 *241:37 *1128:89 0
39 *241:37 *1128:95 0.000660557
40 *245:14 *1128:12 8.00842e-05
41 *249:10 *2462:B 0.000817286
42 *252:10 *2458:B 4.7885e-05
43 *253:10 *1128:35 0.000208747
44 *257:10 *2474:B 0.0014276
45 *257:10 *1128:55 4.77425e-05
46 *258:14 *1128:55 0
47 *263:22 *1128:43 0
48 *604:10 *1128:27 0
49 *604:10 *1128:35 0
50 *630:12 *2452:B 0.000177219
51 *638:27 *1128:35 0
52 *662:43 *2452:B 0
53 *663:52 *1128:27 0
54 *668:12 *2480:B 9.05293e-05
55 *668:12 *1128:27 0
56 *690:44 *1128:35 0.000446767
57 *697:8 *1128:27 0.000144102
58 *733:83 *2462:B 0
59 *733:83 *1128:23 0.000181192
60 *733:83 *1128:89 0.00108689
61 *733:83 *1128:95 0
62 *736:80 *1128:43 0.00108523
63 *738:35 *1128:43 0
64 *762:123 *1128:27 0
65 *854:8 *1128:27 0
66 *882:10 *2462:B 0
67 *1021:8 *2480:B 0.000235055
68 *1021:8 *1128:35 0.000979162
69 *1021:8 *1128:55 0
70 *1127:10 *2474:B 4.77425e-05
*RES
1 *3251:X *1128:4 20 
2 *1128:4 *1128:12 41.8437 
3 *1128:12 *2455:B 20 
4 *1128:4 *1128:23 24.841 
5 *1128:23 *1128:27 31.3506 
6 *1128:27 *1128:29 20 
7 *1128:29 *1128:35 26.6023 
8 *1128:35 *1128:43 45.3663 
9 *1128:43 *1128:55 45.5723 
10 *1128:55 *2471:B 20 
11 *1128:43 *2474:B 30.1043 
12 *1128:35 *2468:B 20 
13 *1128:29 *2480:B 41.4111 
14 *1128:23 *1128:89 5.047 
15 *1128:89 *1128:95 4.6968 
16 *1128:95 *2458:B 40.3193 
17 *1128:95 *2462:B 46.3551 
18 *1128:89 *2452:B 42.4823 
*END

*D_NET *1129 0.0450452
*CONN
*I *2443:B I *D sg13cmos5l_nand2_1
*I *2428:B I *D sg13cmos5l_nand2_1
*I *2440:B I *D sg13cmos5l_nand2_1
*I *2434:B I *D sg13cmos5l_nand2_1
*I *2437:B I *D sg13cmos5l_nand2_1
*I *2431:B I *D sg13cmos5l_nand2_1
*I *2518:B I *D sg13cmos5l_nand2_1
*I *2515:B I *D sg13cmos5l_nand2_1
*I *3252:X O *D sg13cmos5l_buf_1
*CAP
1 *2443:B 0
2 *2428:B 0
3 *2440:B 0.000127613
4 *2434:B 0.000244702
5 *2437:B 0
6 *2431:B 0.000508025
7 *2518:B 2.75323e-05
8 *2515:B 0.000495566
9 *3252:X 5.9923e-05
10 *1129:134 0.00112193
11 *1129:130 0.00150726
12 *1129:122 0.000780668
13 *1129:115 0.00059584
14 *1129:105 0.00105938
15 *1129:90 0.00132048
16 *1129:84 0.00149145
17 *1129:80 0.0005389
18 *1129:54 0.000684172
19 *1129:50 0.00429118
20 *1129:28 0.00425318
21 *1129:22 0.00275313
22 *1129:8 0.00303645
23 *2431:B *1140:47 0.00113762
24 *1129:28 *1145:112 0.000394981
25 *1129:50 *1144:47 0.00208831
26 *2345:B *1129:134 0
27 *2431:A *2431:B 0
28 *2432:A *1129:80 0.000106064
29 *2437:A *1129:130 0.000714088
30 *2438:C *2440:B 0.000241362
31 *2438:C *1129:122 1.54008e-05
32 *2456:A *2431:B 0
33 *2460:A *2434:B 0
34 *2515:A *2515:B 0
35 *2535:A *1129:115 0
36 *2535:A *1129:122 0
37 *2915:A2 *1129:50 0
38 *2923:RESET_B *1129:80 0.000176994
39 *2995:CLK *1129:22 0
40 *3115:RESET_B *1129:50 0
41 *3131:RESET_B *1129:50 0
42 *3139:RESET_B *1129:50 0
43 *3141:CLK *1129:22 0
44 *3145:RESET_B *1129:50 0
45 *3169:A *1129:22 0
46 *3169:A *1129:50 8.00842e-05
47 *3215:A *1129:22 0
48 *3237:A *1129:50 0
49 *3471:A *1129:50 0.000177279
50 *5:28 *1129:22 0
51 *5:30 *1129:22 0
52 *21:8 *1129:50 0.000272894
53 *25:8 *1129:50 0
54 *110:8 *1129:130 0.000128662
55 *183:22 *1129:134 0.00204437
56 *219:51 *1129:22 0.000111476
57 *223:10 *1129:22 0.000207948
58 *225:53 *1129:50 0
59 *228:8 *2431:B 4.74263e-05
60 *230:16 *1129:134 0
61 *248:12 *2434:B 0.000208879
62 *291:8 *1129:50 4.78688e-05
63 *295:19 *1129:22 0
64 *295:19 *1129:80 0
65 *295:19 *1129:115 0
66 *307:12 *1129:134 0.000978834
67 *632:16 *1129:115 0
68 *634:29 *2434:B 0
69 *635:8 *1129:130 0.000340288
70 *657:26 *1129:130 0.00053235
71 *658:28 *2440:B 0.000225967
72 *658:28 *1129:115 0.000145042
73 *658:28 *1129:122 3.24568e-05
74 *659:20 *1129:80 0
75 *660:20 *1129:8 7.94972e-05
76 *662:10 *1129:115 0
77 *664:111 *1129:50 0
78 *709:8 *1129:22 0
79 *710:44 *1129:22 0
80 *732:37 *1129:84 0.000552831
81 *732:37 *1129:105 0.00140425
82 *733:83 *1129:28 0
83 *734:101 *1129:22 0
84 *734:103 *1129:80 0
85 *734:103 *1129:84 0
86 *734:103 *1129:105 0
87 *734:103 *1129:115 0.00124598
88 *734:103 *1129:130 0
89 *755:25 *1129:50 0.000112417
90 *756:20 *1129:50 0
91 *758:131 *2431:B 0
92 *763:8 *1129:22 0
93 *763:12 *1129:22 0.000209692
94 *763:27 *1129:22 0.000208074
95 *763:36 *1129:22 0.000145009
96 *766:43 *1129:50 0
97 *767:37 *1129:22 0.00105265
98 *767:37 *1129:80 0.000181192
99 *770:97 *2434:B 0
100 *771:58 *1129:130 0.000500631
101 *772:23 *1129:90 0.00104736
102 *780:8 *1129:50 0
103 *801:10 *1129:22 0.000240934
104 *841:8 *1129:50 0.000498085
105 *876:63 *1129:22 0.000112332
106 *896:8 *1129:50 0
107 *906:8 *1129:105 0
108 *922:12 *1129:54 0
109 *935:8 *2515:B 0
110 *935:8 *1129:54 0
111 *944:12 *2518:B 0
112 *944:12 *1129:50 0
113 *957:8 *2434:B 0
114 *973:16 *1129:50 0
115 *987:46 *1129:115 0
116 *1008:12 *2431:B 0.000340288
117 *1010:36 *1129:50 0.00122761
118 *1021:34 *1129:50 0
119 *1076:22 *2515:B 0
120 *1076:22 *1129:54 0
121 *1103:64 *1129:130 0
122 *1114:86 *1129:130 0.00053235
*RES
1 *3252:X *1129:8 40.5356 
2 *1129:8 *1129:22 45.7397 
3 *1129:22 *1129:28 41.8334 
4 *1129:28 *1129:50 41.9169 
5 *1129:50 *1129:54 21.339 
6 *1129:54 *2515:B 44.3775 
7 *1129:54 *2518:B 40.3193 
8 *1129:8 *1129:80 23.7595 
9 *1129:80 *1129:84 22.575 
10 *1129:84 *1129:90 47.0246 
11 *1129:90 *2431:B 46.2624 
12 *1129:84 *1129:105 26.5302 
13 *1129:105 *1129:115 47.3554 
14 *1129:115 *2437:B 20 
15 *1129:115 *1129:122 0.3193 
16 *1129:122 *1129:130 49.1052 
17 *1129:130 *1129:134 31.4742 
18 *1129:134 *2434:B 42.3999 
19 *1129:122 *2440:B 21.6171 
20 *1129:105 *2428:B 20 
21 *1129:80 *2443:B 20 
*END

*D_NET *1130 0.0341005
*CONN
*I *2699:B2 I *D sg13cmos5l_a22oi_1
*I *2697:A I *D sg13cmos5l_nor2b_1
*I *2709:B I *D sg13cmos5l_nor2_1
*I *2742:B I *D sg13cmos5l_and4_1
*I *2743:B I *D sg13cmos5l_nor4_1
*I *2737:B I *D sg13cmos5l_nor4_1
*I *2738:B I *D sg13cmos5l_nand4_1
*I *2763:B_N I *D sg13cmos5l_nor2b_1
*I *3253:X O *D sg13cmos5l_buf_1
*CAP
1 *2699:B2 0.000118214
2 *2697:A 3.93617e-05
3 *2709:B 0
4 *2742:B 2.17267e-05
5 *2743:B 0
6 *2737:B 6.81614e-05
7 *2738:B 0.000118256
8 *2763:B_N 0
9 *3253:X 0.000644013
10 *1130:121 0.00152721
11 *1130:111 0.00145385
12 *1130:83 0.000191624
13 *1130:75 0.000326261
14 *1130:66 0.000238552
15 *1130:53 0.00141428
16 *1130:46 0.00222552
17 *1130:36 0.00293038
18 *1130:22 0.0019434
19 *1130:20 0.00222576
20 *1130:10 0.00278557
21 *2742:B *2742:A 1.54556e-05
22 *1130:10 *1154:94 8.00842e-05
23 *1130:10 *1154:111 0.000128641
24 *1130:20 *1154:61 0.000274769
25 *1130:20 *1155:16 0
26 *1130:20 *1155:32 0
27 *1130:20 *1155:34 0.000630032
28 *1130:36 *1136:20 0
29 *1130:36 *1155:16 0
30 *1130:46 *1136:32 0
31 *1130:46 *1154:16 0
32 *1130:53 *1146:118 0
33 *1130:83 *1150:126 0
34 *1130:111 *1154:111 0.000111234
35 *1130:121 *1144:16 0.00130248
36 *1130:121 *1144:31 0.000394652
37 *2596:C *1130:46 0
38 *2638:B_N *1130:46 0
39 *2643:A *1130:46 0
40 *2694:A *1130:121 0.00039332
41 *2699:A2 *2697:A 0
42 *2699:A2 *2699:B2 4.79017e-05
43 *2712:A1 *1130:20 0
44 *2737:A *2737:B 1.54008e-05
45 *2737:A *2738:B 0
46 *2738:A *2738:B 1.54556e-05
47 *2738:D *2738:B 0
48 *2750:B *1130:46 0
49 *2766:B1 *1130:46 0
50 *2789:A2 *1130:36 0
51 *2789:B1 *1130:36 0.000209506
52 *2821:B1 *1130:20 0
53 *2821:B1 *1130:36 0
54 *2821:A1 *1130:20 0.000176613
55 *2821:A2 *1130:20 0
56 *2833:C *1130:20 0
57 *2863:A *1130:10 0.000208725
58 *2868:B *1130:20 0
59 *149:14 *1130:46 0
60 *162:12 *1130:20 0.000565284
61 *170:10 *1130:20 8.0194e-05
62 *293:6 *1130:46 0
63 *330:12 *1130:46 0
64 *359:10 *1130:83 0
65 *381:20 *1130:121 0
66 *410:33 *1130:111 0
67 *414:10 *2699:B2 0.000112695
68 *414:10 *1130:121 0
69 *424:8 *1130:10 0
70 *424:8 *1130:20 0
71 *450:8 *1130:83 1.54008e-05
72 *450:21 *1130:83 0.000441062
73 *450:23 *2737:B 9.67074e-05
74 *450:23 *2742:B 4.78195e-05
75 *450:23 *1130:75 0.000175644
76 *450:31 *2737:B 4.77425e-05
77 *451:31 *2742:B 0
78 *451:31 *1130:75 0
79 *451:51 *1130:83 0.000287256
80 *453:8 *1130:66 0.00023547
81 *464:18 *1130:10 0
82 *483:8 *1130:53 0.000977502
83 *497:14 *1130:36 0
84 *499:10 *1130:20 0
85 *499:14 *1130:20 0
86 *522:10 *1130:36 0
87 *522:10 *1130:53 0
88 *523:10 *1130:20 0
89 *523:10 *1130:53 0
90 *531:16 *1130:53 0.00092447
91 *744:14 *1130:121 0.00204938
92 *744:42 *1130:121 0.00139793
93 *745:22 *1130:10 0.000499799
94 *758:50 *2738:B 0
95 *762:59 *1130:20 4.77921e-05
96 *762:107 *1130:53 0.000819651
97 *762:107 *1130:66 0.000288502
98 *762:158 *2697:A 6.47823e-05
99 *762:158 *1130:121 0.000305794
100 *766:12 *1130:36 0
101 *799:12 *1130:46 0
102 *799:42 *1130:46 0
103 *799:57 *1130:46 0.000274561
104 *890:12 *1130:46 0.000209648
105 *911:10 *1130:46 0.000274798
106 *987:14 *1130:46 0
107 *1113:46 *1130:20 0
108 *1113:46 *1130:36 0
109 *1113:52 *1130:46 0
110 *1114:16 *1130:46 0
111 *1114:24 *1130:46 0
112 *1118:101 *1130:53 0.00134997
113 *1126:72 *1130:10 0.000234224
*RES
1 *3253:X *1130:10 46.4478 
2 *1130:10 *1130:20 42.7218 
3 *1130:20 *1130:22 20 
4 *1130:22 *1130:36 46.6909 
5 *1130:36 *1130:46 41.4841 
6 *1130:46 *2763:B_N 20 
7 *1130:22 *1130:53 16.4182 
8 *1130:53 *2738:B 41.1845 
9 *1130:53 *1130:66 21.339 
10 *1130:66 *2737:B 20.9682 
11 *1130:66 *1130:75 1.1845 
12 *1130:75 *1130:83 42.6471 
13 *1130:83 *2743:B 20 
14 *1130:75 *2742:B 20.3193 
15 *1130:10 *2709:B 40 
16 *3253:X *1130:111 40.7519 
17 *1130:111 *1130:121 40.1262 
18 *1130:121 *2697:A 20.5356 
19 *1130:121 *2699:B2 21.5965 
*END

*D_NET *1131 0.0133496
*CONN
*I *2823:B I *D sg13cmos5l_xor2_1
*I *2720:B I *D sg13cmos5l_nor2_1
*I *2656:A_N I *D sg13cmos5l_nand3b_1
*I *2653:B I *D sg13cmos5l_or2_1
*I *2701:B I *D sg13cmos5l_nor3_1
*I *2652:B I *D sg13cmos5l_nand2_1
*I *2798:A I *D sg13cmos5l_xnor2_1
*I *2658:C I *D sg13cmos5l_nand3b_1
*I *3254:X O *D sg13cmos5l_buf_1
*CAP
1 *2823:B 0
2 *2720:B 0
3 *2656:A_N 0
4 *2653:B 2.05237e-05
5 *2701:B 0
6 *2652:B 0
7 *2798:A 0.000396221
8 *2658:C 0.000470107
9 *3254:X 0.000154246
10 *1131:89 0.000341642
11 *1131:81 0.00112312
12 *1131:66 0.00111282
13 *1131:64 0.000580292
14 *1131:40 0.000934611
15 *1131:36 0.000324435
16 *1131:34 0.000132368
17 *1131:30 0.000455554
18 *1131:24 0.000395442
19 *1131:20 0.000707983
20 *1131:10 0.000817701
21 *2658:C *1145:112 0
22 *2798:A *1145:112 0
23 *1131:30 *1145:112 0.000744937
24 *1131:34 *1145:112 0.000342036
25 *2653:A *2653:B 0
26 *2653:A *1131:36 0
27 *2656:B *2798:A 0.000257991
28 *2656:C *1131:40 0
29 *2656:C *1131:64 0
30 *2658:B *2658:C 8.00954e-05
31 *2662:S0 *1131:66 4.78524e-05
32 *2662:A0 *2653:B 0
33 *2662:A0 *1131:66 0.000144297
34 *2702:B *1131:89 4.7381e-05
35 *2720:A *1131:30 0.000499886
36 *2798:B *2798:A 0.000241166
37 *2824:A *1131:20 0.00017662
38 *2825:A1 *1131:10 0.000112826
39 *2825:A1 *1131:20 0
40 *3254:A *1131:10 0
41 *3430:A *2798:A 0
42 *364:19 *1131:64 0
43 *364:34 *1131:64 0
44 *364:34 *1131:66 0
45 *369:10 *1131:89 1.54008e-05
46 *369:12 *1131:89 8.00842e-05
47 *369:16 *1131:89 0.000112058
48 *370:28 *2658:C 0.000112437
49 *391:14 *1131:81 0.000287757
50 *397:44 *2798:A 0
51 *397:44 *1131:40 0.000112437
52 *397:44 *1131:64 0.000323723
53 *397:44 *1131:66 0.000516663
54 *397:44 *1131:81 3.23417e-05
55 *435:10 *1131:30 0
56 *435:10 *1131:34 0
57 *524:8 *1131:20 0
58 *737:18 *1131:10 0
59 *741:92 *1131:10 0
60 *741:92 *1131:20 0.000434097
61 *742:48 *2658:C 0
62 *760:65 *1131:20 0
63 *762:117 *1131:10 0
64 *763:38 *1131:30 0.000159839
65 *763:53 *1131:30 0
66 *763:57 *1131:24 0
67 *766:39 *1131:20 0
68 *1072:31 *2658:C 0.000340791
69 *1072:31 *2798:A 0.000159839
70 *1124:34 *1131:24 0
71 *1124:34 *1131:30 0
72 *1126:113 *1131:10 0
*RES
1 *3254:X *1131:10 41.5965 
2 *1131:10 *1131:20 46.7671 
3 *1131:20 *1131:24 20.5356 
4 *1131:24 *1131:30 25.3972 
5 *1131:30 *1131:34 21.5862 
6 *1131:34 *1131:36 0.3502 
7 *1131:36 *1131:40 20.7519 
8 *1131:40 *2658:C 44.3157 
9 *1131:40 *2798:A 44.1921 
10 *1131:36 *1131:64 2.266 
11 *1131:64 *1131:66 3.5638 
12 *1131:66 *2652:B 20 
13 *1131:66 *1131:81 46.5199 
14 *1131:81 *1131:89 42.7707 
15 *1131:89 *2701:B 20 
16 *1131:64 *2653:B 20.3502 
17 *1131:34 *2656:A_N 20 
18 *1131:30 *2720:B 40 
19 *1131:24 *2823:B 20 
*END

*D_NET *1132 0.0176668
*CONN
*I *2835:C I *D sg13cmos5l_nor4_1
*I *2834:B I *D sg13cmos5l_nor2_1
*I *2858:C I *D sg13cmos5l_nor4_1
*I *2777:A I *D sg13cmos5l_buf_1
*I *2773:A I *D sg13cmos5l_buf_1
*I *2851:C I *D sg13cmos5l_nor4_1
*I *2641:C I *D sg13cmos5l_or4_1
*I *2647:A2 I *D sg13cmos5l_a22oi_1
*I *3255:X O *D sg13cmos5l_buf_1
*CAP
1 *2835:C 7.81009e-05
2 *2834:B 0
3 *2858:C 0
4 *2777:A 0.000228223
5 *2773:A 3.03095e-05
6 *2851:C 0
7 *2641:C 0
8 *2647:A2 0.000261698
9 *3255:X 6.13248e-05
10 *1132:106 0.000200849
11 *1132:98 0.000894111
12 *1132:87 0.00167631
13 *1132:63 0.000457434
14 *1132:57 0.0018034
15 *1132:50 0.000142075
16 *1132:42 0.00120262
17 *1132:16 0.000799575
18 *1132:6 0.0011164
19 *2647:A2 *1150:32 3.23417e-05
20 *2647:A2 *1150:40 4.77425e-05
21 *2773:A *2785:A 0
22 *1132:16 *1150:80 0
23 *1132:63 *1146:118 0.00103095
24 *1132:87 *2829:A 0
25 *2641:B *2647:A2 9.96588e-06
26 *2641:B *1132:16 0.000123072
27 *2645:C *1132:16 0.000234224
28 *2648:B *2647:A2 0
29 *2648:C *2647:A2 0
30 *2771:B *1132:16 0.000181192
31 *2835:B *2835:C 4.77425e-05
32 *2835:D *2835:C 0.000144542
33 *2835:D *1132:98 4.68848e-05
34 *2835:D *1132:106 0.000341216
35 *2836:A2 *1132:106 0.00028745
36 *2849:B *1132:42 4.77537e-05
37 *2852:A2 *1132:42 3.23417e-05
38 *2852:A2 *1132:57 0.00027267
39 *2852:B1 *1132:50 4.77425e-05
40 *3127:RESET_B *1132:98 8.00842e-05
41 *3127:CLK *1132:106 0.0001122
42 *3436:A *1132:57 4.77425e-05
43 *3436:A *1132:87 0.000143818
44 *209:33 *1132:42 0
45 *352:30 *2777:A 0.000274638
46 *355:64 *2647:A2 0
47 *358:29 *1132:42 0
48 *385:10 *1132:106 0.000181387
49 *533:8 *1132:106 0.000265893
50 *534:14 *2835:C 3.23417e-05
51 *534:14 *1132:98 4.68848e-05
52 *545:6 *1132:42 4.78743e-05
53 *545:12 *1132:50 0.000234224
54 *552:12 *1132:87 0.000177378
55 *553:10 *1132:87 0
56 *553:10 *1132:98 0.000143931
57 *708:55 *1132:42 0.000446438
58 *742:27 *1132:42 0.000129283
59 *742:27 *1132:57 0
60 *757:72 *1132:6 0.00011236
61 *757:72 *1132:42 4.77154e-05
62 *757:80 *1132:57 0
63 *759:8 *1132:42 4.77425e-05
64 *761:27 *1132:57 0
65 *761:27 *1132:87 0
66 *762:35 *1132:6 0.00011236
67 *762:35 *1132:42 0.000274477
68 *762:96 *1132:87 6.40363e-05
69 *903:10 *1132:98 0.000337221
70 *1115:26 *1132:50 9.05293e-05
71 *1115:37 *1132:63 0.00103095
72 *1117:14 *1132:16 7.92644e-05
73 *1117:66 *1132:87 0.00027465
74 *1117:66 *1132:98 4.79124e-05
75 *1117:73 *1132:98 0
76 *1117:108 *1132:98 0
77 *1118:93 *1132:57 0.000598318
78 *1118:93 *1132:87 0.000128417
79 *1118:116 *1132:87 0.000176501
80 *1118:122 *2835:C 0
81 *1118:122 *1132:98 0
82 *1122:53 *1132:87 0
83 *1126:28 *2773:A 0
84 *1126:28 *2777:A 0
85 *1126:39 *2777:A 0
*RES
1 *3255:X *1132:6 20.7519 
2 *1132:6 *1132:16 45.5363 
3 *1132:16 *2647:A2 22.2609 
4 *1132:16 *2641:C 20 
5 *1132:6 *1132:42 45.5517 
6 *1132:42 *1132:50 41.6583 
7 *1132:50 *2851:C 20 
8 *1132:42 *1132:57 5.9431 
9 *1132:57 *1132:63 44.7998 
10 *1132:63 *2773:A 20.3502 
11 *1132:63 *2777:A 22.266 
12 *1132:57 *1132:87 10.7738 
13 *1132:87 *2858:C 20 
14 *1132:87 *1132:98 5.7474 
15 *1132:98 *1132:106 43.3269 
16 *1132:106 *2834:B 20 
17 *1132:98 *2835:C 20.9682 
*END

*D_NET *1133 0.0137101
*CONN
*I *2613:S I *D sg13cmos5l_mux2_1
*I *2611:S I *D sg13cmos5l_mux2_1
*I *2605:S I *D sg13cmos5l_mux2_1
*I *2603:S I *D sg13cmos5l_mux2_1
*I *2599:S I *D sg13cmos5l_mux2_1
*I *2617:S I *D sg13cmos5l_mux2_1
*I *2601:S I *D sg13cmos5l_mux2_1
*I *2609:S I *D sg13cmos5l_mux2_1
*I *3256:X O *D sg13cmos5l_buf_1
*CAP
1 *2613:S 0.000425673
2 *2611:S 5.0436e-05
3 *2605:S 0
4 *2603:S 0.000355371
5 *2599:S 3.39844e-05
6 *2617:S 3.04198e-05
7 *2601:S 3.78077e-05
8 *2609:S 0.000211899
9 *3256:X 0.00036393
10 *1133:81 0.000476109
11 *1133:65 0.000835202
12 *1133:48 0.000615518
13 *1133:37 0.000660593
14 *1133:26 0.00122505
15 *1133:22 0.000810799
16 *2609:S *2609:A0 0
17 *2611:S *2609:A0 8.0216e-05
18 *2613:S *2609:A0 0.000516378
19 *2613:S *1147:75 0
20 *2613:S *1157:8 0
21 *2613:S *1157:12 0
22 *1133:26 *1157:100 0.00034245
23 *2601:A1 *1133:37 0.000979163
24 *3227:A *2603:S 0
25 *3256:A *1133:22 0
26 *3256:A *1133:26 0
27 *3278:A *2613:S 0
28 *5:18 *2609:S 0
29 *332:25 *1133:26 0
30 *332:42 *1133:65 0.000553662
31 *675:8 *2617:S 4.77425e-05
32 *713:12 *2603:S 4.77425e-05
33 *727:31 *1133:22 0
34 *728:12 *1133:26 0
35 *728:36 *1133:37 0
36 *728:36 *1133:65 0.000872356
37 *731:26 *1133:65 0.000340704
38 *769:12 *2603:S 0
39 *1059:10 *1133:37 0.000159511
40 *1059:10 *1133:48 0.000554077
41 *1059:10 *1133:65 0.00023464
42 *1060:8 *1133:37 0.00023464
43 *1060:8 *1133:48 0.00053198
44 *1060:8 *1133:65 0.00100977
45 *1064:8 *1133:26 0.00071575
46 *1100:12 *1133:65 0.00034112
47 *1114:56 *2603:S 1.54008e-05
*RES
1 *3256:X *2609:S 41.9673 
2 *3256:X *1133:22 41.339 
3 *1133:22 *1133:26 7.5911 
4 *1133:26 *2601:S 40.3193 
5 *1133:26 *1133:37 6.283 
6 *1133:37 *2617:S 40.3193 
7 *1133:37 *1133:48 2.575 
8 *1133:48 *2599:S 40.3193 
9 *1133:48 *1133:65 29.4245 
10 *1133:65 *2603:S 23.3578 
11 *1133:65 *2605:S 20 
12 *1133:22 *1133:81 20 
13 *1133:81 *2611:S 20.5356 
14 *1133:81 *2613:S 24.4084 
*END

*D_NET *1134 0.0349248
*CONN
*I *2584:S I *D sg13cmos5l_mux2_1
*I *2574:S I *D sg13cmos5l_mux2_1
*I *2580:S I *D sg13cmos5l_mux2_1
*I *2586:S I *D sg13cmos5l_mux2_1
*I *2572:S I *D sg13cmos5l_mux2_1
*I *2578:S I *D sg13cmos5l_mux2_1
*I *2576:S I *D sg13cmos5l_mux2_1
*I *2582:S I *D sg13cmos5l_mux2_1
*I *3257:X O *D sg13cmos5l_buf_1
*CAP
1 *2584:S 0
2 *2574:S 7.36296e-05
3 *2580:S 2.88561e-05
4 *2586:S 0.000225994
5 *2572:S 0.000164679
6 *2578:S 0.000113697
7 *2576:S 0
8 *2582:S 3.04198e-05
9 *3257:X 0.00123388
10 *1134:110 0.0013088
11 *1134:97 0.00139869
12 *1134:95 0.000703076
13 *1134:82 0.00207451
14 *1134:72 0.00185469
15 *1134:53 0.00141917
16 *1134:39 0.000399971
17 *1134:31 0.00113183
18 *1134:23 0.00129807
19 *1134:14 0.0012643
20 *1134:14 *1138:116 0
21 config_o[25] *1134:31 0
22 config_o[25] *1134:39 0.00156931
23 config_o[25] *1134:53 0
24 *2500:A *1134:31 0.000287343
25 *2500:B *1134:31 0.000182109
26 *2519:A *1134:14 0
27 *2520:A *1134:14 0
28 *2578:A0 *2578:S 0
29 *2578:A0 *1134:31 0.000112394
30 *2584:A0 *1134:72 3.75762e-05
31 *2584:A0 *1134:82 0.00085739
32 *2584:A1 *1134:72 0
33 *2591:B *1134:14 0.000208074
34 *2971:RESET_B *1134:14 1.54556e-05
35 *3033:CLK *1134:97 1.54008e-05
36 *3033:CLK *1134:110 0.000175513
37 *3039:D *1134:97 0.000144773
38 *3207:A *1134:14 0
39 *3257:A *1134:14 0.00012777
40 *3284:A *2586:S 0.000274077
41 *3290:A *1134:72 0
42 *3300:A *2574:S 0
43 *3340:A *1134:110 0.000927352
44 *3351:A *1134:72 0.000274189
45 *3365:A *1134:14 0
46 *20:18 *1134:95 0.00182684
47 *20:24 *1134:82 0
48 *95:12 *1134:14 0
49 *122:8 *1134:110 0
50 *127:10 *1134:14 0.000498008
51 *186:26 *1134:95 0
52 *269:41 *1134:53 0.00188121
53 *288:12 *1134:14 0
54 *317:16 *1134:14 0.000209225
55 *609:39 *1134:82 3.23417e-05
56 *609:51 *1134:82 0.000208769
57 *612:10 *2572:S 4.78688e-05
58 *612:10 *1134:72 0
59 *615:10 *1134:31 0
60 *615:14 *1134:31 0.000767035
61 *624:8 *1134:14 0
62 *667:16 *1134:39 0
63 *700:32 *1134:97 0
64 *741:145 *1134:110 0
65 *744:54 *1134:31 0
66 *748:38 *1134:110 0
67 *775:87 *2586:S 0.000403795
68 *775:87 *1134:82 0.000208982
69 *778:57 *1134:110 0.000235971
70 *782:10 *2582:S 4.77425e-05
71 *782:10 *1134:14 0.000305904
72 *877:18 *1134:95 0.000765375
73 *899:10 *1134:110 0.000234224
74 *901:22 *1134:39 0.00156468
75 *905:18 *2572:S 0.000240614
76 *926:28 *2580:S 0
77 *926:28 *1134:97 0.000112388
78 *976:22 *1134:31 0.000394981
79 *983:10 *1134:53 0.000765462
80 *1039:8 *1134:110 0
81 *1127:56 *1134:31 0.000340704
82 *1127:56 *1134:53 0.00143269
83 *1127:106 *1134:53 0.00172294
84 *1127:106 *1134:72 0.000744021
*RES
1 *3257:X *1134:14 32.3188 
2 *1134:14 *2582:S 20.3193 
3 *1134:14 *1134:23 20 
4 *1134:23 *1134:31 28.8683 
5 *1134:31 *1134:39 48.24 
6 *1134:39 *2576:S 20 
7 *1134:31 *2578:S 20.9682 
8 *1134:23 *1134:53 14.6878 
9 *1134:53 *2572:S 41.6171 
10 *1134:53 *1134:72 26.4993 
11 *1134:72 *1134:82 11.8244 
12 *1134:82 *2586:S 22.6986 
13 *1134:82 *1134:95 49.2494 
14 *1134:95 *1134:97 1.4008 
15 *1134:97 *2580:S 20.3502 
16 *1134:97 *1134:110 32.4115 
17 *1134:110 *2574:S 40.7519 
18 *1134:72 *2584:S 20 
*END

*D_NET *1135 0.0224207
*CONN
*I *2563:S I *D sg13cmos5l_mux2_1
*I *2565:S I *D sg13cmos5l_mux2_1
*I *2561:S I *D sg13cmos5l_mux2_1
*I *2559:S I *D sg13cmos5l_mux2_1
*I *2555:S I *D sg13cmos5l_mux2_1
*I *2553:S I *D sg13cmos5l_mux2_1
*I *2551:S I *D sg13cmos5l_mux2_1
*I *2557:S I *D sg13cmos5l_mux2_1
*I *3258:X O *D sg13cmos5l_buf_1
*CAP
1 *2563:S 0.000875836
2 *2565:S 0.000311482
3 *2561:S 0
4 *2559:S 0
5 *2555:S 0
6 *2553:S 0.000462044
7 *2551:S 0.000161176
8 *2557:S 0
9 *3258:X 0.000155326
10 *1135:108 0.00176985
11 *1135:95 0.000753497
12 *1135:88 0.000729113
13 *1135:80 0.00250822
14 *1135:41 0.00114837
15 *1135:37 0.000650262
16 *1135:33 0.00163763
17 *1135:21 0.00323788
18 *1135:14 0.000280632
19 *1135:6 0.000553166
20 *1135:33 *1140:87 0
21 *2346:B1 *2553:S 4.77425e-05
22 *2353:S *1135:80 0.000501069
23 *2424:A *1135:33 0
24 *2432:C *1135:14 0
25 *2459:A *1135:80 0
26 *2459:A *1135:95 0
27 *2459:A *1135:108 0
28 *2551:A0 *2551:S 0
29 *2551:A1 *2551:S 0
30 *2557:A0 *1135:6 0
31 *2558:A *1135:80 0.000111596
32 *2561:A0 *1135:80 0.000111567
33 *2561:A0 *1135:95 0.00027443
34 *2561:A1 *1135:108 2.21754e-05
35 *2920:S *1135:14 4.77425e-05
36 *2920:S *1135:21 0
37 *3005:RESET_B *2553:S 0.000871939
38 *3261:A *1135:80 0.000791237
39 *3364:A *1135:21 0
40 *3364:A *1135:80 0
41 *68:12 *1135:33 0.000499383
42 *183:22 *1135:33 0.000128248
43 *230:16 *1135:37 0
44 *234:12 *1135:33 0.000715418
45 *247:8 *1135:80 0.000421203
46 *247:8 *1135:95 0
47 *263:6 *1135:108 0
48 *263:49 *2563:S 0
49 *294:52 *1135:88 8.0194e-05
50 *307:12 *2551:S 0
51 *312:10 *1135:88 0
52 *627:44 *1135:80 0.000240306
53 *634:29 *2553:S 0.000122871
54 *635:8 *1135:41 0
55 *636:10 *1135:14 0.000282054
56 *663:37 *1135:6 0.000241242
57 *663:37 *1135:21 0.000175644
58 *663:37 *1135:80 0.000467133
59 *664:230 *1135:33 0
60 *668:12 *2565:S 0
61 *734:107 *2551:S 0.000274627
62 *742:82 *1135:108 0.000128248
63 *742:88 *2563:S 0
64 *742:88 *1135:108 0
65 *775:10 *2565:S 0
66 *797:10 *2563:S 0.000159096
67 *797:10 *1135:108 0.000181279
68 *1010:22 *2563:S 0
69 *1010:22 *1135:88 0
70 *1010:22 *1135:108 0
71 *1052:12 *1135:80 0
72 *1053:8 *1135:88 0
73 *1094:32 *2553:S 0
74 *1094:32 *1135:33 0.000112895
75 *1094:32 *1135:41 0
76 *1114:86 *1135:37 0.000176872
77 *1125:27 *1135:14 0
*RES
1 *3258:X *1135:6 21.6171 
2 *1135:6 *1135:14 42.6471 
3 *1135:14 *2557:S 20 
4 *1135:6 *1135:21 1.1845 
5 *1135:21 *1135:33 34.5127 
6 *1135:33 *1135:37 21.1845 
7 *1135:37 *1135:41 25.5414 
8 *1135:41 *2551:S 41.8334 
9 *1135:41 *2553:S 45.4384 
10 *1135:37 *2555:S 20 
11 *1135:21 *1135:80 16.5624 
12 *1135:80 *1135:88 47.0658 
13 *1135:88 *2559:S 20 
14 *1135:80 *1135:95 1.8334 
15 *1135:95 *2561:S 20 
16 *1135:95 *1135:108 25.7165 
17 *1135:108 *2565:S 42.4823 
18 *1135:108 *2563:S 47.0967 
*END

*D_NET *1136 0.0356797
*CONN
*I *2778:A1 I *D sg13cmos5l_a22oi_1
*I *2442:A I *D sg13cmos5l_nand2_1
*I *2540:A0 I *D sg13cmos5l_mux2_1
*I *2609:A0 I *D sg13cmos5l_mux2_1
*I *3451:X O *D sg13cmos5l_buf_1
*CAP
1 *2778:A1 0.000212919
2 *2442:A 0
3 *2540:A0 0
4 *2609:A0 0.00135013
5 *3451:X 0.00250086
6 *1136:86 0.00185016
7 *1136:78 0.00085049
8 *1136:70 0.00123892
9 *1136:58 0.000984793
10 *1136:54 0.000594539
11 *1136:42 0.00456852
12 *1136:32 0.00471659
13 *1136:20 0.00118791
14 *1136:16 0.00282958
15 *2609:A0 *2612:A 0
16 *2609:A0 *1157:12 0
17 *2609:A0 *1157:18 0
18 *2609:A0 *1157:31 0.000468083
19 *1136:16 *1147:14 0
20 *1136:16 *1147:16 0.00163777
21 *1136:42 *1150:94 0
22 *1136:42 *1151:114 0
23 *1136:54 *1140:10 0.0001757
24 *1136:54 *1146:66 0.000181608
25 *1136:54 *1147:46 0
26 *1136:58 *1140:14 0
27 *1136:58 *1140:22 0
28 *1136:70 *1137:16 0
29 *1136:70 *1140:22 0
30 *1136:78 *2540:S 1.54008e-05
31 *1136:78 *1147:65 0.000342145
32 *1136:86 *2540:S 8.00842e-05
33 *2430:A *1136:78 0
34 *2444:B *1136:70 8.02379e-05
35 *2444:A *1136:70 4.78524e-05
36 *2447:B *1136:54 0
37 *2529:A *1136:70 0
38 *2545:B *2609:A0 0.000176614
39 *2609:S *2609:A0 0
40 *2611:S *2609:A0 8.0216e-05
41 *2613:A0 *2609:A0 0
42 *2613:S *2609:A0 0.000516378
43 *2714:A *1136:42 0
44 *2778:A2 *1136:32 0.000144706
45 *2779:D *1136:32 0.000145009
46 *2789:A1 *2778:A1 0.000287256
47 *2789:A1 *1136:20 0.000128247
48 *2791:D *1136:32 8.00842e-05
49 *2933:D *1136:54 0
50 *2995:CLK *1136:78 0
51 *2997:RESET_B *2609:A0 0
52 *2997:D *2609:A0 0.00024211
53 *3259:A *1136:70 0
54 *3414:A *2609:A0 0
55 *3451:A *1136:16 4.74163e-05
56 *5:18 *2609:A0 0
57 *105:10 *2609:A0 0
58 *183:42 *1136:42 0
59 *219:51 *1136:54 1.50831e-05
60 *221:38 *1136:42 0.000181192
61 *235:10 *1136:70 0.000292887
62 *302:10 *2609:A0 0
63 *338:10 *2609:A0 0
64 *354:18 *1136:42 0.00108523
65 *354:30 *1136:42 0.000181192
66 *355:49 *1136:42 0
67 *355:64 *1136:42 0.000341204
68 *406:12 *1136:42 0.00252299
69 *481:31 *2778:A1 0
70 *498:10 *2778:A1 0
71 *499:26 *2778:A1 0.000177164
72 *743:51 *1136:86 0
73 *758:125 *1136:54 0.000181192
74 *766:16 *1136:20 0
75 *766:63 *2609:A0 0
76 *766:63 *1136:70 0
77 *766:95 *1136:42 0
78 *767:37 *1136:70 0.0006608
79 *767:47 *1136:54 0
80 *767:47 *1136:58 0.000129203
81 *767:47 *1136:70 0.000144151
82 *876:86 *1136:70 0.000129089
83 *890:12 *1136:20 0
84 *987:14 *1136:32 0.00040272
85 *987:20 *1136:42 0
86 *1052:40 *1136:70 0.000241786
87 *1067:10 *1136:42 0
88 *1103:12 *1136:16 0.00121612
89 *1113:46 *1136:32 1.53846e-05
90 *1113:52 *1136:32 0
91 *1114:30 *1136:86 0
92 *1130:36 *1136:20 0
93 *1130:46 *1136:32 0
*RES
1 *3451:X *1136:16 47.6246 
2 *1136:16 *1136:20 23.5638 
3 *1136:20 *1136:32 46.9319 
4 *1136:32 *1136:42 46.1852 
5 *1136:42 *1136:54 44.8616 
6 *1136:54 *1136:58 20.9682 
7 *1136:58 *1136:70 49.6202 
8 *1136:70 *1136:78 43.4814 
9 *1136:78 *1136:86 43.8522 
10 *1136:86 *2609:A0 33.144 
11 *1136:78 *2540:A0 20 
12 *1136:58 *2442:A 20 
13 *1136:20 *2778:A1 42.5235 
*END

*D_NET *1137 0.0167782
*CONN
*I *2544:S I *D sg13cmos5l_mux2_1
*I *2536:S I *D sg13cmos5l_mux2_1
*I *2534:S I *D sg13cmos5l_mux2_1
*I *2530:S I *D sg13cmos5l_mux2_1
*I *2548:S I *D sg13cmos5l_mux2_1
*I *2532:S I *D sg13cmos5l_mux2_1
*I *2540:S I *D sg13cmos5l_mux2_1
*I *2542:S I *D sg13cmos5l_mux2_1
*I *3259:X O *D sg13cmos5l_buf_1
*CAP
1 *2544:S 0
2 *2536:S 0
3 *2534:S 0
4 *2530:S 0
5 *2548:S 0
6 *2532:S 0
7 *2540:S 0.000443608
8 *2542:S 0.000284841
9 *3259:X 0.0006075
10 *1137:101 0.000455215
11 *1137:93 0.000537489
12 *1137:89 0.000974473
13 *1137:74 0.000968245
14 *1137:63 0.000639609
15 *1137:54 0.000783951
16 *1137:32 0.000728449
17 *1137:30 0.000422977
18 *1137:24 0.000352833
19 *1137:16 0.000757744
20 *2540:S *1147:65 0
21 *2542:S *1147:65 0
22 *2542:S *1147:75 0
23 *1137:16 *1147:65 0.000337611
24 *1137:24 *1147:65 0
25 *1137:30 *1147:65 0.000177142
26 *1137:63 *1157:61 0
27 *2430:A *2540:S 0
28 *2532:A1 *1137:63 0.000978748
29 *2536:A0 *1137:89 0.000606694
30 *2536:A1 *1137:101 0.000128248
31 *2541:B *1137:24 0
32 *2544:A0 *1137:30 0
33 *2603:A0 *1137:101 0.000144857
34 *2613:A0 *1137:24 0
35 *2613:A0 *1137:30 0.000177142
36 *2991:D *1137:101 0
37 *2995:RESET_B *2540:S 0
38 *2995:D *1137:16 0
39 *2999:RESET_B *2540:S 0
40 *2999:CLK *1137:30 0.000110289
41 *2999:CLK *1137:54 0.000533225
42 *3063:RESET_B *2542:S 0
43 *3259:A *1137:16 1.54008e-05
44 *98:10 *1137:89 0.0011395
45 *187:14 *1137:30 0.000341534
46 *187:14 *1137:54 0.00087443
47 *187:14 *1137:63 0
48 *187:14 *1137:74 0
49 *187:18 *1137:74 7.52149e-05
50 *187:18 *1137:89 0.00119304
51 *187:18 *1137:101 0.000340704
52 *295:19 *1137:16 1.54285e-05
53 *295:33 *1137:89 0
54 *658:18 *1137:101 0.000241847
55 *660:20 *2540:S 0
56 *660:20 *2542:S 0
57 *686:27 *1137:89 0
58 *706:32 *1137:30 0.000253514
59 *828:8 *1137:101 0
60 *830:10 *1137:93 0
61 *1033:18 *1137:54 0
62 *1035:8 *1137:63 0.000182023
63 *1035:8 *1137:74 0.000213045
64 *1052:40 *1137:16 0
65 *1052:40 *1137:24 0
66 *1092:45 *1137:16 0
67 *1105:14 *1137:101 0
68 *1114:30 *1137:16 0.000182121
69 *1114:38 *1137:89 0.000287256
70 *1114:86 *1137:89 0
71 *1114:86 *1137:101 0.000176742
72 *1125:66 *1137:89 0
73 *1136:70 *1137:16 0
74 *1136:78 *2540:S 1.54008e-05
75 *1136:86 *2540:S 8.00842e-05
*RES
1 *3259:X *1137:16 46.3242 
2 *1137:16 *1137:24 21.6377 
3 *1137:24 *1137:30 23.2033 
4 *1137:30 *1137:32 20 
5 *1137:32 *2542:S 22.9664 
6 *1137:32 *2540:S 24.3775 
7 *1137:30 *1137:54 4.3775 
8 *1137:54 *2532:S 40 
9 *1137:54 *1137:63 6.283 
10 *1137:63 *2548:S 40 
11 *1137:63 *1137:74 21.0918 
12 *1137:74 *2530:S 20 
13 *1137:74 *1137:89 32.9265 
14 *1137:89 *1137:93 20.7519 
15 *1137:93 *1137:101 45.5826 
16 *1137:101 *2534:S 20 
17 *1137:93 *2536:S 20 
18 *1137:24 *2544:S 20 
*END

*D_NET *1138 0.027424
*CONN
*I *2492:B I *D sg13cmos5l_nand2_1
*I *2519:B I *D sg13cmos5l_nand2_1
*I *2507:B I *D sg13cmos5l_nand2_1
*I *2504:B I *D sg13cmos5l_nand2_1
*I *2510:B I *D sg13cmos5l_nand2_1
*I *2495:B I *D sg13cmos5l_nand2_1
*I *2498:B I *D sg13cmos5l_nand2_1
*I *2501:B I *D sg13cmos5l_nand2_1
*I *3260:X O *D sg13cmos5l_buf_1
*CAP
1 *2492:B 0.000136635
2 *2519:B 0
3 *2507:B 0
4 *2504:B 0
5 *2510:B 0.000750635
6 *2495:B 2.59583e-05
7 *2498:B 0.000957235
8 *2501:B 0.000253889
9 *3260:X 0.000594524
10 *1138:116 0.00221329
11 *1138:101 0.00245934
12 *1138:97 0.000977212
13 *1138:74 0.00136003
14 *1138:57 0.00225048
15 *1138:33 0.0017009
16 *1138:27 0.000907372
17 *1138:25 0.000747991
18 *1138:6 0.000952036
19 config_o[24] *1138:97 0
20 config_o[31] *1138:116 0
21 *2480:A *2510:B 0.000597296
22 *2496:C *1138:25 0.000433542
23 *2507:A *2510:B 4.77425e-05
24 *2507:A *1138:57 0.000176274
25 *2519:A *1138:101 0
26 *2519:A *1138:116 0
27 *2520:C *1138:116 4.7154e-05
28 *2520:A *1138:116 0.000176075
29 *2578:A0 *2501:B 0.000231341
30 *2591:B *1138:116 0
31 *2955:RESET_B *1138:33 0.00024193
32 *2955:CLK *2510:B 0.000242006
33 *2963:RESET_B *1138:97 0.00030522
34 *2963:D *1138:97 0
35 *2963:CLK *1138:25 0
36 *2965:CLK *2498:B 0
37 *2977:D *2492:B 4.74263e-05
38 *3196:A *2498:B 0
39 *3305:A *2510:B 0
40 *3346:A *2492:B 0
41 *3365:A *1138:116 0.000234224
42 *18:24 *1138:74 0
43 *20:18 *2498:B 0
44 *95:12 *1138:116 0.000143369
45 *125:8 *1138:74 0
46 *185:28 *1138:74 0.00050146
47 *251:30 *1138:25 0
48 *269:66 *1138:116 0.000821483
49 *275:10 *1138:97 0.000552831
50 *278:14 *1138:74 0
51 *280:10 *1138:25 0.000272631
52 *282:8 *2510:B 0
53 *287:26 *1138:116 0.000176363
54 *288:12 *1138:116 0.000274749
55 *294:52 *2498:B 0.000305942
56 *317:20 *1138:116 0
57 *317:35 *1138:116 0
58 *608:16 *2510:B 0
59 *609:28 *2510:B 0
60 *609:28 *1138:74 0.00119262
61 *613:14 *1138:25 0
62 *624:8 *1138:116 0
63 *636:42 *2495:B 4.77534e-05
64 *638:33 *2498:B 0.00023547
65 *647:8 *1138:116 0
66 *647:14 *1138:116 0
67 *664:126 *2498:B 0
68 *664:126 *1138:33 0
69 *668:12 *2510:B 0
70 *740:99 *1138:74 0.00044727
71 *741:145 *1138:74 0
72 *745:102 *2501:B 0.000289113
73 *745:102 *1138:25 0.000798264
74 *776:114 *2492:B 0
75 *779:35 *1138:74 0.00039332
76 *780:45 *2495:B 4.77534e-05
77 *782:16 *1138:25 0
78 *789:14 *1138:101 0
79 *848:12 *2501:B 0.000288087
80 *848:12 *1138:25 0.000818908
81 *877:18 *2498:B 0
82 *877:18 *1138:33 0
83 *912:14 *2510:B 0.000144358
84 *936:8 *1138:116 7.51285e-05
85 *948:51 *2492:B 0
86 *981:8 *1138:74 0.00028826
87 *1127:34 *1138:97 0
88 *1127:45 *1138:101 0.000241089
89 *1134:14 *1138:116 0
*RES
1 *3260:X *1138:6 40 
2 *1138:6 *2501:B 43.2445 
3 *1138:6 *1138:25 29.3215 
4 *1138:25 *1138:27 0.5356 
5 *1138:27 *1138:33 27.6529 
6 *1138:33 *2498:B 49.8159 
7 *1138:33 *2495:B 40.3193 
8 *1138:27 *1138:57 1.7819 
9 *1138:57 *2510:B 28.4563 
10 *1138:57 *1138:74 35.6045 
11 *1138:74 *2504:B 40 
12 *1138:25 *2507:B 20 
13 *3260:X *1138:97 45.8607 
14 *1138:97 *1138:101 23.3475 
15 *1138:101 *2519:B 20 
16 *1138:101 *1138:116 39.6318 
17 *1138:116 *2492:B 41.3184 
*END

*D_NET *1139 0.0242357
*CONN
*I *2478:B I *D sg13cmos5l_nand2_1
*I *2460:B I *D sg13cmos5l_nand2_1
*I *2463:B I *D sg13cmos5l_nand2_1
*I *2466:B I *D sg13cmos5l_nand2_1
*I *2481:B I *D sg13cmos5l_nand2_1
*I *2469:B I *D sg13cmos5l_nand2_1
*I *2475:B I *D sg13cmos5l_nand2_1
*I *2472:B I *D sg13cmos5l_nand2_1
*I *3261:X O *D sg13cmos5l_buf_1
*CAP
1 *2478:B 0.000133111
2 *2460:B 0
3 *2463:B 9.74389e-05
4 *2466:B 8.32461e-05
5 *2481:B 0
6 *2469:B 7.62066e-05
7 *2475:B 0
8 *2472:B 0.000282888
9 *3261:X 0
10 *1139:138 0.00187907
11 *1139:111 0.00208694
12 *1139:100 0.000877017
13 *1139:88 0.00160423
14 *1139:75 0.00100433
15 *1139:62 0.000364372
16 *1139:38 0.000612855
17 *1139:26 0.00107479
18 *1139:16 0.00126426
19 *1139:6 0.000591042
20 config_o[6] *1139:138 0
21 config_o[7] *1139:138 7.96143e-05
22 *2350:A0 *1139:26 0.000339004
23 *2350:A1 *1139:26 0
24 *2455:A *1139:75 0
25 *2458:A *1139:111 0.000181192
26 *2458:A *1139:138 0.000212127
27 *2460:A *1139:138 0.000274638
28 *2464:C *2463:B 4.77425e-05
29 *2464:A *2463:B 0.000144089
30 *2472:A *2472:B 0
31 *2475:A *1139:16 0.000112558
32 *2478:A *2478:B 0
33 *2568:B *1139:138 0.000402505
34 *2933:CLK *1139:26 0
35 *2935:CLK *1139:26 0
36 *2937:RESET_B *2478:B 0
37 *2937:CLK *1139:100 0.000181192
38 *2939:RESET_B *1139:88 0
39 *3314:A *1139:26 0
40 *3377:A *1139:138 0.000241957
41 *3482:A *1139:138 0.000171634
42 *31:10 *1139:138 0
43 *116:12 *1139:138 0
44 *221:10 *1139:16 0.000181694
45 *221:10 *1139:26 0.000659397
46 *224:29 *1139:16 5.30319e-05
47 *224:29 *1139:26 0.000659397
48 *224:52 *1139:16 0.000128663
49 *225:31 *1139:26 8.00842e-05
50 *241:37 *1139:100 0
51 *245:14 *2469:B 8.00842e-05
52 *245:14 *1139:16 0.00012816
53 *245:14 *1139:62 0.000318607
54 *246:8 *2466:B 0.000144298
55 *247:19 *1139:88 0
56 *249:10 *1139:138 0
57 *252:10 *2466:B 0.000112525
58 *254:10 *2469:B 1.54008e-05
59 *254:10 *1139:16 0.00103136
60 *254:10 *1139:62 0.000287256
61 *254:10 *1139:75 3.22045e-05
62 *262:10 *1139:88 0.00040366
63 *311:10 *2472:B 0.00014502
64 *601:25 *1139:138 0.00199258
65 *628:12 *1139:26 0
66 *630:12 *1139:100 0.000554493
67 *633:16 *1139:138 0
68 *663:37 *1139:75 0
69 *690:16 *2472:B 0.00040924
70 *690:16 *1139:38 0.000403533
71 *733:83 *1139:88 0.00130109
72 *733:83 *1139:138 0
73 *760:65 *1139:38 2.20966e-05
74 *770:97 *1139:138 0
75 *771:110 *1139:138 0
76 *884:8 *1139:138 0
77 *952:22 *2472:B 0
78 *957:8 *1139:138 0.000155766
79 *1033:30 *1139:38 0.000403533
80 *1093:18 *1139:138 0.000112516
81 *1095:42 *1139:138 0
82 *1128:23 *1139:88 0
*RES
1 *3261:X *1139:6 40 
2 *1139:6 *1139:16 46.3963 
3 *1139:16 *1139:26 48.343 
4 *1139:26 *1139:38 43.9346 
5 *1139:38 *2472:B 43.1518 
6 *1139:16 *2475:B 40 
7 *1139:6 *1139:62 21.5862 
8 *1139:62 *2469:B 20.7519 
9 *1139:62 *1139:75 1.8855 
10 *1139:75 *2481:B 20 
11 *1139:75 *1139:88 48.9507 
12 *1139:88 *1139:100 27.4057 
13 *1139:100 *2466:B 40.9682 
14 *1139:100 *1139:111 1.339 
15 *1139:111 *2463:B 40.9682 
16 *1139:111 *1139:138 42.8299 
17 *1139:138 *2460:B 20 
18 *1139:88 *2478:B 21.1845 
*END

*D_NET *1140 0.01712
*CONN
*I *2445:B I *D sg13cmos5l_nand2_1
*I *2442:B I *D sg13cmos5l_nand2_1
*I *2448:B I *D sg13cmos5l_nand2_1
*I *2436:B I *D sg13cmos5l_nand2_1
*I *2433:B I *D sg13cmos5l_nand2_1
*I *2424:B I *D sg13cmos5l_nand2_1
*I *2456:B I *D sg13cmos5l_nand2_1
*I *2430:B I *D sg13cmos5l_nand2_1
*I *3262:X O *D sg13cmos5l_buf_1
*CAP
1 *2445:B 0.000226876
2 *2442:B 0
3 *2448:B 0.000115493
4 *2436:B 0.000320708
5 *2433:B 0
6 *2424:B 4.16444e-05
7 *2456:B 8.70765e-05
8 *2430:B 0
9 *3262:X 0.000577514
10 *1140:87 0.00021805
11 *1140:66 0.000802099
12 *1140:60 0.00124748
13 *1140:47 0.00130543
14 *1140:39 0.00106912
15 *1140:32 0.000624587
16 *1140:22 0.000938116
17 *1140:14 0.000363363
18 *1140:10 0.000520117
19 *2445:B *1147:46 0.000241716
20 *1140:10 *1147:46 0.000143358
21 *2423:A *1140:14 0
22 *2423:A *1140:22 0
23 *2423:A *1140:39 4.77425e-05
24 *2430:A *1140:32 0
25 *2431:B *1140:47 0.00113762
26 *2433:A *1140:87 7.51285e-05
27 *2435:A *1140:87 0
28 *2438:B *2436:B 0
29 *2440:A *1140:87 6.64682e-05
30 *2456:A *2456:B 0
31 *2529:A *1140:32 0
32 *2929:D *2456:B 0
33 *2929:CLK *2436:B 0
34 *2929:CLK *1140:66 0
35 *2931:RESET_B *1140:32 8.01609e-05
36 *2931:RESET_B *1140:39 0
37 *2933:D *2445:B 0
38 *3324:A *1140:32 0.000143278
39 *3324:A *1140:39 4.77425e-05
40 *220:10 *1140:22 0
41 *220:33 *1140:22 7.52149e-05
42 *221:6 *2448:B 0
43 *221:6 *1140:39 0
44 *222:12 *2424:B 8.03692e-05
45 *222:12 *1140:66 0.00038727
46 *224:12 *1140:10 0.000235153
47 *225:18 *1140:32 0
48 *231:12 *2436:B 1.54556e-05
49 *235:10 *1140:22 1.54556e-05
50 *235:10 *1140:32 0
51 *237:10 *2445:B 0
52 *238:14 *2448:B 0.00014382
53 *238:14 *1140:39 4.6793e-05
54 *242:12 *2436:B 0
55 *600:29 *1140:66 8.00842e-05
56 *611:16 *1140:32 0
57 *611:29 *1140:32 0.00012816
58 *658:28 *2424:B 8.02595e-05
59 *658:28 *1140:66 0.000467535
60 *710:20 *1140:22 0
61 *757:49 *1140:47 0.000181387
62 *757:55 *1140:47 0.00182684
63 *757:55 *1140:60 0.00113826
64 *758:125 *1140:10 0.000395177
65 *758:131 *1140:47 0.000977086
66 *758:131 *1140:60 0
67 *766:55 *1140:10 4.74263e-05
68 *953:16 *2436:B 0
69 *1052:12 *1140:32 0.000181694
70 *1103:41 *1140:87 0
71 *1114:96 *2436:B 0
72 *1135:33 *1140:87 0
73 *1136:54 *1140:10 0.0001757
74 *1136:58 *1140:14 0
75 *1136:58 *1140:22 0
76 *1136:70 *1140:22 0
*RES
1 *3262:X *1140:10 44.0994 
2 *1140:10 *1140:14 21.4008 
3 *1140:14 *1140:22 41.6583 
4 *1140:22 *1140:32 46.4581 
5 *1140:32 *2430:B 20 
6 *1140:22 *1140:39 1.4008 
7 *1140:39 *1140:47 33.596 
8 *1140:47 *2456:B 40.7519 
9 *1140:47 *1140:60 25.2942 
10 *1140:60 *1140:66 5.5311 
11 *1140:66 *2424:B 20.5356 
12 *1140:66 *1140:87 42.4669 
13 *1140:87 *2433:B 20 
14 *1140:60 *2436:B 22.9355 
15 *1140:39 *2448:B 21.1845 
16 *1140:14 *2442:B 20 
17 *3262:X *2445:B 42.2145 
*END

*D_NET *1141 0.0301116
*CONN
*I *2619:S I *D sg13cmos5l_mux2_1
*I *2598:A I *D sg13cmos5l_buf_1
*I *2635:S I *D sg13cmos5l_mux2_1
*I *2627:S I *D sg13cmos5l_mux2_1
*I *2633:S I *D sg13cmos5l_mux2_1
*I *2625:S I *D sg13cmos5l_mux2_1
*I *2629:S I *D sg13cmos5l_mux2_1
*I *2631:S I *D sg13cmos5l_mux2_1
*I *3263:X O *D sg13cmos5l_buf_1
*CAP
1 *2619:S 0.000410524
2 *2598:A 0.00026981
3 *2635:S 3.03288e-05
4 *2627:S 0
5 *2633:S 0.000319512
6 *2625:S 0.000539166
7 *2629:S 0
8 *2631:S 0.000677428
9 *3263:X 4.54475e-05
10 *1141:115 0.00270923
11 *1141:94 0.00315308
12 *1141:81 0.000858679
13 *1141:74 0.000789627
14 *1141:53 0.00120779
15 *1141:49 0.00086531
16 *1141:36 0.00116376
17 *1141:16 0.000999545
18 *1141:8 0.000469281
19 *2625:S *1152:31 0
20 *1141:49 *1152:14 0
21 *1141:49 *1152:64 0
22 *1141:49 *1152:98 0
23 *1141:81 *1152:98 0
24 *2549:A *1141:115 0
25 *2631:A0 *2631:S 0
26 *2633:A1 *1141:53 0
27 *3063:RESET_B *2598:A 0
28 *3075:RESET_B *2625:S 0
29 *3077:CLK *1141:74 0
30 *3083:RESET_B *1141:49 0
31 *3083:D *2625:S 0.000176405
32 *3085:RESET_B *2633:S 7.8685e-05
33 *3085:RESET_B *1141:53 0.000177237
34 *3085:D *2633:S 0
35 *3165:A *1141:115 0.000396105
36 *3188:A *2619:S 4.72443e-05
37 *3188:A *1141:115 0.000980406
38 *3211:A *1141:81 0
39 *3226:A *1141:115 0.00162698
40 *3229:A *1141:115 0
41 *3338:A *2631:S 0
42 *3345:A *2625:S 4.77425e-05
43 *134:12 *1141:115 0
44 *145:12 *2631:S 0
45 *331:42 *2619:S 0.000725259
46 *332:8 *2598:A 0
47 *332:8 *1141:115 0
48 *350:10 *1141:49 0.00034162
49 *660:20 *2598:A 0
50 *672:16 *1141:49 0
51 *672:16 *1141:53 0
52 *676:8 *1141:115 0.000554993
53 *703:8 *2625:S 0
54 *715:10 *1141:115 0.000878964
55 *720:22 *2631:S 0.000112388
56 *721:12 *1141:74 0
57 *721:12 *1141:81 0.000182023
58 *721:22 *1141:49 0.000289002
59 *721:22 *1141:74 0
60 *721:22 *1141:81 0.000318279
61 *722:18 *1141:16 0.000606693
62 *722:18 *1141:36 0.00053198
63 *729:12 *1141:115 0.000129283
64 *729:14 *1141:115 0.000287256
65 *729:20 *1141:16 0.000608233
66 *729:20 *1141:36 0.00055613
67 *729:20 *1141:74 0.000395177
68 *729:20 *1141:115 0.000289306
69 *731:49 *2633:S 0
70 *731:49 *1141:115 0
71 *767:27 *2598:A 0
72 *767:27 *1141:115 0.000112558
73 *767:91 *1141:115 0
74 *771:19 *1141:115 0.00037308
75 *771:42 *1141:115 0.00031912
76 *772:19 *1141:94 0
77 *788:32 *2635:S 4.77425e-05
78 *788:32 *1141:94 0
79 *820:10 *1141:74 0
80 *1031:20 *2619:S 0.000628523
81 *1031:36 *1141:81 0.000181192
82 *1031:36 *1141:94 0.00204603
83 *1063:8 *1141:81 0.000234224
84 *1063:8 *1141:94 0.00021346
85 *1068:8 *1141:94 0.000821399
86 *1107:8 *1141:115 0.000288379
87 *1108:24 *1141:115 0
*RES
1 *3263:X *1141:8 40.3193 
2 *1141:8 *1141:16 24.3878 
3 *1141:16 *2631:S 26.4272 
4 *1141:16 *2629:S 20 
5 *1141:8 *1141:36 22.575 
6 *1141:36 *2625:S 24.8616 
7 *1141:36 *1141:49 26.1697 
8 *1141:49 *1141:53 21.1845 
9 *1141:53 *2633:S 22.746 
10 *1141:53 *1141:74 47.4778 
11 *1141:74 *2627:S 20 
12 *1141:49 *1141:81 3.811 
13 *1141:81 *2635:S 40.3193 
14 *1141:81 *1141:94 29.4966 
15 *1141:94 *2598:A 22.5338 
16 *1141:94 *1141:115 48.3765 
17 *1141:115 *2619:S 44.8616 
*END

*D_NET *1142 0.0193828
*CONN
*I *2872:A I *D sg13cmos5l_nand2_1
*I *2898:A I *D sg13cmos5l_xor2_1
*I *2669:A I *D sg13cmos5l_xnor2_1
*I *2741:A I *D sg13cmos5l_nand2_1
*I *2744:A I *D sg13cmos5l_nor2_1
*I *2856:A I *D sg13cmos5l_xor2_1
*I *2828:A I *D sg13cmos5l_and2_1
*I *2830:A I *D sg13cmos5l_nor4_1
*I *3264:X O *D sg13cmos5l_buf_1
*CAP
1 *2872:A 0
2 *2898:A 0
3 *2669:A 0
4 *2741:A 6.00887e-05
5 *2744:A 0
6 *2856:A 0
7 *2828:A 0
8 *2830:A 0
9 *3264:X 0.000548794
10 *1142:119 0.000624786
11 *1142:104 0.0010943
12 *1142:96 0.00197063
13 *1142:90 0.00202515
14 *1142:75 0.00221105
15 *1142:60 0.000652631
16 *1142:49 0.000641754
17 *1142:38 0.00115931
18 *1142:20 0.000162941
19 *1142:12 0.000241261
20 *1142:10 0.000750989
21 *1142:8 0.000548794
22 *1142:90 *2670:A 0.000240745
23 *1142:90 *1155:59 0
24 *1142:104 *1143:115 0.00039332
25 *2669:B *1142:75 0.000306975
26 *2670:B *1142:90 0
27 *2671:B *1142:90 0
28 *2746:B1 *2741:A 0
29 *2819:A1 *1142:38 0
30 *2821:A1 *1142:8 0
31 *2874:A1 *1142:96 8.00842e-05
32 *2875:C *1142:96 4.77425e-05
33 *2877:C *1142:119 1.54008e-05
34 *3113:CLK *1142:38 0
35 *3133:RESET_B *1142:119 0.000242187
36 *3137:CLK *1142:119 0
37 *3264:A *1142:8 0
38 *3264:A *1142:38 0
39 *3429:A *1142:119 8.00842e-05
40 *161:10 *1142:104 0
41 *352:30 *1142:12 0.000143932
42 *352:30 *1142:20 8.00842e-05
43 *352:30 *1142:38 0.00037174
44 *352:32 *1142:104 8.02267e-05
45 *359:60 *1142:20 0.000181192
46 *384:8 *1142:90 0
47 *384:18 *1142:75 0
48 *384:18 *1142:90 0
49 *395:25 *1142:104 0
50 *395:49 *1142:60 8.00842e-05
51 *449:20 *1142:90 0
52 *455:14 *2741:A 0
53 *461:6 *1142:75 0
54 *461:6 *1142:90 0.00111062
55 *487:73 *1142:104 0
56 *532:10 *1142:8 0
57 *566:10 *1142:90 0.00018261
58 *567:10 *1142:104 0
59 *573:8 *1142:90 0.000394981
60 *666:22 *1142:90 0
61 *688:8 *1142:49 0
62 *688:14 *1142:8 0.00012816
63 *694:14 *1142:119 0
64 *694:25 *1142:119 0.000287256
65 *733:52 *1142:60 8.0216e-05
66 *735:8 *1142:119 0.000234311
67 *735:18 *1142:119 0.000727243
68 *736:34 *1142:49 0
69 *738:25 *1142:38 0
70 *738:25 *1142:49 0
71 *745:47 *1142:38 0
72 *745:47 *1142:49 0
73 *749:12 *1142:104 0
74 *752:20 *1142:90 0
75 *758:63 *1142:49 0.000288087
76 *758:63 *1142:60 0
77 *758:63 *1142:75 0
78 *761:31 *1142:49 0
79 *761:31 *1142:60 0.000340704
80 *761:31 *1142:75 0.000234224
81 *995:28 *1142:96 0
82 *1118:101 *1142:20 0
83 *1122:53 *1142:8 0
84 *1126:16 *1142:12 0.000128531
85 *1126:16 *1142:20 8.00842e-05
86 *1126:16 *1142:38 0.000129499
*RES
1 *3264:X *1142:8 45.047 
2 *1142:8 *1142:10 20 
3 *1142:10 *1142:12 0.9682 
4 *1142:12 *1142:20 41.8746 
5 *1142:20 *2830:A 20 
6 *1142:12 *2828:A 20 
7 *1142:10 *1142:38 27.3542 
8 *1142:38 *2856:A 40 
9 *1142:38 *1142:49 25.5414 
10 *1142:49 *2744:A 20 
11 *1142:49 *1142:60 22.1218 
12 *1142:60 *2741:A 40.5356 
13 *1142:60 *1142:75 24.6556 
14 *1142:75 *2669:A 20 
15 *1142:75 *1142:90 37.3143 
16 *1142:90 *1142:96 22.3999 
17 *1142:96 *1142:104 49.5378 
18 *1142:104 *2898:A 20 
19 *1142:96 *1142:119 47.6014 
20 *1142:119 *2872:A 20 
*END

*D_NET *1143 0.0231097
*CONN
*I *2884:A I *D sg13cmos5l_xnor2_1
*I *2696:B I *D sg13cmos5l_xnor2_1
*I *2813:A I *D sg13cmos5l_nor4_1
*I *2728:A_N I *D sg13cmos5l_nand3b_1
*I *2667:A I *D sg13cmos5l_and2_1
*I *2860:A1 I *D sg13cmos5l_a22oi_1
*I *2685:A I *D sg13cmos5l_xnor2_1
*I *2812:A I *D sg13cmos5l_and2_1
*I *3265:X O *D sg13cmos5l_buf_1
*CAP
1 *2884:A 2.18915e-05
2 *2696:B 0
3 *2813:A 0
4 *2728:A_N 0
5 *2667:A 0
6 *2860:A1 0
7 *2685:A 3.15674e-05
8 *2812:A 0.000203346
9 *3265:X 0.000358564
10 *1143:115 0.000180544
11 *1143:107 0.000412197
12 *1143:88 0.00130754
13 *1143:71 0.00223187
14 *1143:60 0.00041335
15 *1143:43 0.00124852
16 *1143:33 0.00250461
17 *1143:31 0.00201957
18 *1143:14 0.000965354
19 *1143:6 0.000689877
20 *1143:6 *1144:16 0.000207986
21 *1143:14 *1154:128 0
22 *1143:71 *1144:31 0
23 *1143:71 *1155:59 0
24 *1143:88 *1155:59 0
25 *2699:B1 *1143:88 0
26 *2728:C *1143:88 0.000435457
27 *2730:A *1143:88 0
28 *2732:B *1143:88 0.000403116
29 *2813:B *1143:6 1.54008e-05
30 *2814:A2 *1143:14 0.000553247
31 *2884:B *2884:A 4.77425e-05
32 *2884:B *1143:107 0.000208637
33 *2888:D *1143:115 0
34 *3119:CLK *2812:A 0
35 *358:96 *1143:43 0
36 *358:96 *1143:60 0.000982242
37 *358:108 *1143:43 0.000287256
38 *378:22 *1143:43 0
39 *381:14 *1143:88 0
40 *400:16 *2685:A 0
41 *410:33 *1143:107 0
42 *414:10 *1143:88 0
43 *464:10 *2884:A 0
44 *464:10 *1143:107 0
45 *465:10 *1143:43 0.00156103
46 *515:10 *2812:A 0
47 *515:10 *1143:14 0.000340288
48 *553:10 *1143:60 0.00012816
49 *574:8 *1143:107 0
50 *693:12 *1143:31 0.000448013
51 *693:23 *2812:A 0.000144041
52 *733:52 *1143:33 0.00136913
53 *733:52 *1143:43 0.000144519
54 *733:52 *1143:71 0.000370244
55 *735:18 *1143:71 0
56 *744:14 *1143:31 0
57 *745:47 *1143:60 0.00011209
58 *752:37 *1143:43 0.000288087
59 *762:158 *1143:88 0
60 *1090:10 *2812:A 0
61 *1090:10 *1143:33 0
62 *1090:18 *1143:31 0
63 *1115:8 *1143:43 0.00156435
64 *1115:8 *1143:60 0
65 *1115:16 *1143:60 0
66 *1115:72 *1143:33 0
67 *1115:72 *1143:43 0
68 *1118:122 *1143:60 8.01885e-05
69 *1122:87 *1143:115 4.77537e-05
70 *1123:51 *1143:60 0
71 *1123:81 *1143:14 0.00034112
72 *1126:87 *2812:A 4.75151e-05
73 *1142:104 *1143:115 0.00039332
*RES
1 *3265:X *1143:6 21.4008 
2 *1143:6 *1143:14 46.6023 
3 *1143:14 *2812:A 22.0703 
4 *1143:14 *1143:31 42.575 
5 *1143:31 *1143:33 9.1876 
6 *1143:33 *1143:43 36.5727 
7 *1143:43 *2685:A 40.3502 
8 *1143:33 *1143:60 46.0461 
9 *1143:60 *2860:A1 20 
10 *1143:31 *1143:71 29.0125 
11 *1143:71 *2667:A 40 
12 *1143:71 *1143:88 31.7214 
13 *1143:88 *2728:A_N 20 
14 *1143:6 *2813:A 20 
15 *3265:X *1143:107 22.2454 
16 *1143:107 *1143:115 42.1527 
17 *1143:115 *2696:B 20 
18 *1143:107 *2884:A 20.3193 
*END

*D_NET *1144 0.0362743
*CONN
*I *2731:A1 I *D sg13cmos5l_a21oi_1
*I *2732:A I *D sg13cmos5l_nor3_1
*I *2733:A1 I *D sg13cmos5l_a22oi_1
*I *2356:A0 I *D sg13cmos5l_mux2_1
*I *3265:A I *D sg13cmos5l_buf_1
*I *3266:X O *D sg13cmos5l_buf_1
*CAP
1 *2731:A1 0.000125219
2 *2732:A 0.000598805
3 *2733:A1 2.77263e-05
4 *2356:A0 0.000237262
5 *3265:A 0
6 *3266:X 0
7 *1144:77 0.00103359
8 *1144:66 0.00102226
9 *1144:55 0.00258855
10 *1144:47 0.00385771
11 *1144:39 0.00252392
12 *1144:33 0.00170246
13 *1144:31 0.00148292
14 *1144:16 0.00063489
15 *1144:4 0.00211781
16 *1144:31 *1155:59 0
17 *2362:A2 *1144:55 0
18 *2726:A *1144:39 0.00011182
19 *2726:A *1144:66 0.00032336
20 *2732:B *2732:A 0
21 *2733:B1 *1144:77 0
22 *2734:A1 *2732:A 0
23 *2813:B *1144:16 0
24 *2813:D *1144:16 0.00050063
25 *2955:CLK *1144:55 0
26 *3131:RESET_B *1144:47 0.000134311
27 *3135:CLK *1144:47 0
28 *3145:RESET_B *1144:47 0.000176581
29 *3194:A *1144:55 0
30 *21:8 *1144:47 0
31 *81:8 *1144:55 0.000766292
32 *83:12 *1144:55 0
33 *225:53 *1144:47 0
34 *259:10 *2356:A0 0
35 *381:14 *1144:31 7.51285e-05
36 *381:20 *1144:16 0.000584596
37 *381:20 *1144:31 0.00161887
38 *381:45 *1144:66 0
39 *408:12 *1144:66 0
40 *410:33 *1144:16 0
41 *441:54 *1144:39 0
42 *441:54 *1144:66 0
43 *441:54 *1144:77 0
44 *441:65 *1144:77 0
45 *444:10 *2731:A1 0.000371223
46 *444:10 *2732:A 0.000234224
47 *445:25 *2731:A1 0.000287672
48 *445:25 *2732:A 0.00113784
49 *464:10 *1144:16 0
50 *464:18 *1144:16 0
51 *635:27 *2356:A0 0.000369826
52 *664:111 *1144:47 0
53 *664:115 *1144:47 0
54 *664:362 *1144:47 0
55 *735:18 *1144:31 0
56 *736:80 *1144:55 0
57 *744:42 *1144:31 0
58 *744:42 *1144:39 0.00263737
59 *746:8 *1144:55 0
60 *747:36 *2732:A 0
61 *753:18 *1144:39 0
62 *865:10 *1144:55 0.00392221
63 *870:8 *1144:55 0.000341205
64 *933:8 *1144:55 0
65 *995:20 *1144:66 0
66 *1004:10 *1144:47 0
67 *1021:8 *1144:55 0
68 *1021:34 *1144:47 0.000111668
69 *1083:14 *1144:39 0
70 *1113:8 *1144:16 1.54556e-05
71 *1128:55 *1144:55 0.000607497
72 *1129:50 *1144:47 0.00208831
73 *1130:121 *1144:16 0.00130248
74 *1130:121 *1144:31 0.000394652
75 *1143:6 *1144:16 0.000207986
76 *1143:71 *1144:31 0
*RES
1 *3266:X *1144:4 20 
2 *1144:4 *1144:16 49.4039 
3 *1144:16 *3265:A 20 
4 *1144:4 *1144:31 35.9238 
5 *1144:31 *1144:33 20 
6 *1144:33 *1144:39 32.9677 
7 *1144:39 *1144:47 33.261 
8 *1144:47 *1144:55 48.6752 
9 *1144:55 *2356:A0 42.4823 
10 *1144:33 *1144:66 6.1594 
11 *1144:66 *2733:A1 20.3502 
12 *1144:66 *1144:77 22.4823 
13 *1144:77 *2732:A 47.2615 
14 *1144:77 *2731:A1 42.1527 
*END

*D_NET *1145 0.0334592
*CONN
*I *2718:A I *D sg13cmos5l_nor2_1
*I *2351:A0 I *D sg13cmos5l_mux2_1
*I *2716:A I *D sg13cmos5l_nand2_1
*I *2785:A I *D sg13cmos5l_and2_1
*I *2694:B I *D sg13cmos5l_xor2_1
*I *2857:A I *D sg13cmos5l_xnor2_1
*I *2832:A1 I *D sg13cmos5l_a22oi_1
*I *2788:A I *D sg13cmos5l_nor4_1
*I *3267:X O *D sg13cmos5l_buf_1
*CAP
1 *2718:A 0
2 *2351:A0 0.000322211
3 *2716:A 0.000220338
4 *2785:A 0.00013132
5 *2694:B 0.00101849
6 *2857:A 0
7 *2832:A1 0
8 *2788:A 2.92009e-05
9 *3267:X 0.000363662
10 *1145:112 0.00311079
11 *1145:101 0.00304071
12 *1145:99 0.00115354
13 *1145:68 0.000324481
14 *1145:62 0.00202125
15 *1145:47 0.000678279
16 *1145:45 0.00083719
17 *1145:33 0.00102877
18 *1145:22 0.000468825
19 *1145:10 0.00186478
20 *2716:A *1149:41 0
21 *2716:A *1149:48 0
22 *1145:10 *3276:A 8.00522e-05
23 *1145:45 *1146:118 0.000287256
24 *1145:99 *1149:59 0
25 *1145:99 *1150:84 0.00278904
26 *1145:101 *1149:48 0
27 *1145:101 *1149:59 0
28 *2351:A1 *2351:A0 1.54008e-05
29 *2449:A *1145:112 0
30 *2475:A *1145:112 0
31 *2658:B *1145:112 0.000181608
32 *2658:C *1145:112 0
33 *2773:A *2785:A 0
34 *2775:B *1145:22 0
35 *2775:D *1145:22 1.62936e-05
36 *2778:B1 *1145:10 0
37 *2789:A1 *1145:10 0
38 *2798:A *1145:112 0
39 *2818:A *2694:B 8.0194e-05
40 *2819:A0 *2694:B 0
41 *2819:A1 *1145:68 0.00066097
42 *2819:S *1145:68 0.000181608
43 *2830:C *1145:45 7.56308e-05
44 *2832:B1 *1145:62 8.00842e-05
45 *3113:D *1145:62 0
46 *3117:RESET_B *1145:62 8.02379e-05
47 *254:14 *2351:A0 0.000565202
48 *258:14 *2351:A0 0
49 *311:10 *1145:112 0.000340374
50 *369:32 *2716:A 0.000306162
51 *369:32 *1145:99 0.000144571
52 *369:32 *1145:101 4.77537e-05
53 *372:25 *1145:99 0
54 *372:36 *1145:99 0
55 *372:36 *1145:112 0.000446767
56 *372:48 *1145:112 0
57 *373:10 *1145:112 0
58 *433:10 *1145:99 7.97013e-05
59 *435:10 *1145:112 0
60 *464:22 *2694:B 0.00117709
61 *481:31 *1145:10 0
62 *483:8 *1145:45 0
63 *483:12 *1145:45 0.000208195
64 *484:10 *1145:10 0
65 *485:10 *1145:10 0.00012816
66 *485:22 *1145:22 8.00842e-05
67 *487:28 *1145:45 0
68 *493:12 *1145:22 8.02063e-05
69 *519:10 *2694:B 0
70 *521:12 *2694:B 0
71 *521:12 *1145:62 0
72 *522:10 *1145:45 0.000341204
73 *532:10 *1145:62 8.0216e-05
74 *733:83 *1145:112 0
75 *736:10 *1145:68 0.000552415
76 *736:34 *1145:68 0.000234311
77 *737:26 *1145:112 0.000554577
78 *760:46 *1145:99 0
79 *760:59 *1145:99 0
80 *760:59 *1145:112 0
81 *762:59 *1145:68 0
82 *763:38 *1145:112 0
83 *763:105 *1145:112 0
84 *890:12 *1145:10 0
85 *1072:31 *1145:112 0
86 *1092:16 *2785:A 0.000287672
87 *1092:16 *1145:45 0
88 *1096:18 *2351:A0 0.000435764
89 *1113:14 *2694:B 0
90 *1115:43 *2788:A 0
91 *1115:43 *1145:22 0
92 *1115:43 *1145:33 0
93 *1117:49 *1145:22 0.000208774
94 *1117:49 *1145:33 0
95 *1117:49 *1145:62 0
96 *1117:66 *1145:68 0.00100811
97 *1122:10 *1145:10 0.000501433
98 *1122:10 *1145:99 0.00225408
99 *1123:100 *1145:45 0.000494275
100 *1123:120 *1145:45 0.000181192
101 *1123:134 *1145:22 8.02128e-05
102 *1126:28 *2785:A 1.65559e-05
103 *1126:39 *2785:A 0
104 *1129:28 *1145:112 0.000394981
105 *1131:30 *1145:112 0.000744937
106 *1131:34 *1145:112 0.000342036
*RES
1 *3267:X *1145:10 44.0994 
2 *1145:10 *1145:22 23.7955 
3 *1145:22 *2788:A 20.3502 
4 *1145:22 *1145:33 20.5356 
5 *1145:33 *1145:45 49.8056 
6 *1145:45 *1145:47 20 
7 *1145:47 *2832:A1 20 
8 *1145:47 *1145:62 6.4484 
9 *1145:62 *1145:68 46.7774 
10 *1145:68 *2857:A 20 
11 *1145:62 *2694:B 30.0528 
12 *1145:33 *2785:A 41.7999 
13 *1145:10 *1145:99 38.128 
14 *1145:99 *1145:101 0.3193 
15 *1145:101 *2716:A 22.0497 
16 *1145:101 *1145:112 48.531 
17 *1145:112 *2351:A0 43.7801 
18 *1145:99 *2718:A 20 
*END

*D_NET *1146 0.0326247
*CONN
*I *2775:A I *D sg13cmos5l_nor4_1
*I *2735:A I *D sg13cmos5l_xnor2_1
*I *2820:A_N I *D sg13cmos5l_nand2b_1
*I *2771:A I *D sg13cmos5l_and2_1
*I *2674:A I *D sg13cmos5l_nor2_1
*I *2349:A0 I *D sg13cmos5l_mux2_1
*I *2803:A I *D sg13cmos5l_xnor2_1
*I *2673:C I *D sg13cmos5l_nand3b_1
*I *3268:X O *D sg13cmos5l_buf_1
*CAP
1 *2775:A 2.83098e-05
2 *2735:A 3.43204e-05
3 *2820:A_N 0
4 *2771:A 0
5 *2674:A 0
6 *2349:A0 0.000142105
7 *2803:A 3.25769e-05
8 *2673:C 0.000230578
9 *3268:X 0.000196595
10 *1146:118 0.00141172
11 *1146:97 0.00185749
12 *1146:87 0.000799239
13 *1146:66 0.00273618
14 *1146:47 0.00270974
15 *1146:36 0.000736015
16 *1146:30 0.000530637
17 *1146:26 0.00133414
18 *1146:12 0.00156305
19 *1146:10 0.000628047
20 *1146:8 0.000196595
21 *2673:C *1150:106 0.000305297
22 *2735:A *1150:126 0
23 *1146:26 *1149:15 0
24 *1146:26 *1151:99 7.9225e-05
25 *1146:30 *1156:31 0.000176708
26 *1146:36 *1149:15 0.00124358
27 *1146:36 *1150:106 0
28 *1146:36 *1156:31 4.78524e-05
29 *1146:47 *1149:15 0.000425172
30 *1146:66 *1149:15 0.000159839
31 *1146:66 *1149:28 0.000501044
32 *2349:A1 *2349:A0 0.000240405
33 *2351:A1 *2349:A0 4.77425e-05
34 *2641:B *1146:12 0
35 *2648:B *1146:26 0
36 *2673:A_N *2673:C 4.77425e-05
37 *2714:B *2735:A 1.54008e-05
38 *2771:B *1146:12 9.64754e-05
39 *2771:B *1146:26 8.00842e-05
40 *2775:B *1146:97 0
41 *2775:D *1146:87 0
42 *2779:C *1146:8 0
43 *2788:D *1146:97 7.9586e-05
44 *2803:B *2803:A 1.54008e-05
45 *2856:B *1146:30 0
46 *3087:RESET_B *1146:26 8.0216e-05
47 *3087:D *1146:26 0
48 *3123:CLK *1146:66 0.000552831
49 *156:8 *1146:8 0.000288088
50 *183:54 *1146:118 0.000287342
51 *219:51 *1146:66 0.000856973
52 *220:10 *1146:66 0
53 *220:33 *1146:66 0
54 *225:8 *1146:66 0.000552831
55 *358:10 *1146:26 0.000765876
56 *363:10 *1146:26 8.02924e-05
57 *393:18 *1146:66 0
58 *450:31 *1146:118 0.000394151
59 *451:12 *2735:A 0
60 *451:12 *1146:118 0
61 *451:16 *1146:118 0.000500629
62 *481:8 *1146:12 0
63 *481:31 *1146:12 0
64 *483:8 *1146:118 0.000446352
65 *485:10 *1146:87 0
66 *522:10 *1146:97 0
67 *531:16 *1146:97 8.02595e-05
68 *531:16 *1146:118 8.00842e-05
69 *661:18 *2349:A0 0.000208063
70 *708:12 *1146:26 0.00108831
71 *710:20 *1146:66 0
72 *710:29 *1146:66 0.000357142
73 *732:14 *1146:26 0.000111596
74 *740:37 *1146:36 0.000447269
75 *740:37 *1146:47 0.000447182
76 *740:37 *1146:66 0.00273586
77 *741:20 *1146:66 0
78 *741:28 *1146:66 0.000501547
79 *741:42 *1146:66 7.51285e-05
80 *758:29 *2673:C 0.000240405
81 *758:125 *1146:66 0
82 *758:131 *1146:66 0.00113743
83 *762:18 *1146:26 0
84 *876:59 *1146:66 0
85 *1077:12 *1146:30 0
86 *1077:12 *1146:36 0
87 *1092:16 *1146:118 0
88 *1115:37 *1146:118 0
89 *1115:43 *1146:97 0
90 *1117:49 *1146:12 0
91 *1122:27 *1146:97 0
92 *1123:110 *1146:97 1.54008e-05
93 *1123:110 *1146:118 6.47604e-05
94 *1123:120 *1146:97 0
95 *1130:53 *1146:118 0
96 *1132:63 *1146:118 0.00103095
97 *1136:54 *1146:66 0.000181608
98 *1145:45 *1146:118 0.000287256
*RES
1 *3268:X *1146:8 42.0806 
2 *1146:8 *1146:10 20 
3 *1146:10 *1146:12 2.9149 
4 *1146:12 *1146:26 33.9359 
5 *1146:26 *1146:30 21.1845 
6 *1146:30 *1146:36 26.1079 
7 *1146:36 *2673:C 42.4823 
8 *1146:36 *1146:47 2.0806 
9 *1146:47 *2803:A 40.3193 
10 *1146:47 *1146:66 33.7016 
11 *1146:66 *2349:A0 41.6171 
12 *1146:30 *2674:A 20 
13 *1146:12 *2771:A 20 
14 *1146:10 *1146:87 2.4823 
15 *1146:87 *1146:97 4.9028 
16 *1146:97 *2820:A_N 20 
17 *1146:97 *1146:118 36.3873 
18 *1146:118 *2735:A 40.3193 
19 *1146:87 *2775:A 20.3502 
*END

*D_NET *1147 0.0394175
*CONN
*I *2783:A1 I *D sg13cmos5l_o21ai_1
*I *2542:A0 I *D sg13cmos5l_mux2_1
*I *2611:A0 I *D sg13cmos5l_mux2_1
*I *2445:A I *D sg13cmos5l_nand2_1
*I *3452:X O *D sg13cmos5l_buf_1
*CAP
1 *2783:A1 0
2 *2542:A0 0
3 *2611:A0 0
4 *2445:A 0
5 *3452:X 0.00113887
6 *1147:75 0.000784996
7 *1147:65 0.00179962
8 *1147:46 0.00178621
9 *1147:30 0.0055884
10 *1147:28 0.00285499
11 *1147:24 0.000190261
12 *1147:20 0.00145869
13 *1147:16 0.00552094
14 *1147:14 0.00532395
15 *1147:30 *1148:126 0
16 *1147:30 *1157:41 0
17 *1147:65 *1157:41 0
18 *1147:75 *2612:A 0
19 *1147:75 *1157:12 0
20 *1147:75 *1157:85 0
21 *1147:75 *1157:87 0
22 *2445:B *1147:46 0.000241716
23 *2528:A *1147:46 0
24 *2540:S *1147:65 0
25 *2541:B *1147:65 0
26 *2542:S *1147:65 0
27 *2542:S *1147:75 0
28 *2613:A0 *1147:65 0
29 *2613:A0 *1147:75 0
30 *2613:S *1147:75 0
31 *2614:B *1147:75 0.000176301
32 *2765:A2 *1147:20 0
33 *2780:A *1147:30 0
34 *2783:A2 *1147:24 1.54449e-05
35 *2783:A2 *1147:28 8.01283e-05
36 *3063:RESET_B *1147:75 0
37 *3089:CLK *1147:30 0
38 *3099:RESET_B *1147:24 0
39 *3214:A *1147:46 0
40 *3278:A *1147:75 4.77425e-05
41 *3440:A *1147:16 0.000112749
42 *3444:A *1147:20 0
43 *3447:A *1147:16 0.00030749
44 *3450:A *1147:16 0.000112651
45 *3451:A *1147:14 0
46 *3452:A *1147:14 0
47 *5:18 *1147:46 0
48 *209:33 *1147:24 0.000112519
49 *221:38 *1147:46 8.00842e-05
50 *225:53 *1147:46 8.00954e-05
51 *466:8 *1147:30 0
52 *475:8 *1147:20 0
53 *490:10 *1147:30 0.000396105
54 *664:19 *1147:46 0
55 *707:28 *1147:20 0
56 *709:8 *1147:30 0
57 *731:49 *1147:75 0.000287256
58 *740:8 *1147:46 0
59 *741:18 *1147:46 0
60 *743:10 *1147:30 0
61 *743:18 *1147:30 0
62 *743:51 *1147:30 0
63 *743:51 *1147:65 0
64 *757:8 *1147:24 3.23417e-05
65 *757:8 *1147:28 0.000112399
66 *757:31 *1147:24 0.000144872
67 *766:12 *1147:14 0.00153905
68 *766:12 *1147:16 0
69 *766:55 *1147:46 0.000391382
70 *766:63 *1147:46 0.00111363
71 *772:10 *1147:75 0
72 *799:8 *1147:20 0
73 *799:18 *1147:20 0
74 *1033:18 *1147:65 0.000259204
75 *1033:18 *1147:75 1.54556e-05
76 *1061:8 *1147:30 0
77 *1103:12 *1147:16 0
78 *1103:20 *1147:20 0
79 *1114:24 *1147:16 0
80 *1116:28 *1147:20 0
81 *1120:67 *1147:30 0.00459862
82 *1120:69 *1147:30 7.53228e-05
83 *1121:28 *1147:30 0
84 *1121:67 *1147:20 0
85 *1124:62 *1147:30 0
86 *1125:6 *1147:14 0
87 *1125:8 *1147:16 0
88 *1136:16 *1147:14 0
89 *1136:16 *1147:16 0.00163777
90 *1136:54 *1147:46 0
91 *1136:78 *1147:65 0.000342145
92 *1137:16 *1147:65 0.000337611
93 *1137:24 *1147:65 0
94 *1137:30 *1147:65 0.000177142
95 *1140:10 *1147:46 0.000143358
*RES
1 *3452:X *1147:14 32.3497 
2 *1147:14 *1147:16 38.3881 
3 *1147:16 *1147:20 33.699 
4 *1147:20 *1147:24 21.4008 
5 *1147:24 *1147:28 20.7519 
6 *1147:28 *1147:30 33.7222 
7 *1147:30 *1147:46 37.8087 
8 *1147:46 *2445:A 20 
9 *1147:30 *1147:65 31.1497 
10 *1147:65 *1147:75 46.8872 
11 *1147:75 *2611:A0 20 
12 *1147:65 *2542:A0 20 
13 *1147:24 *2783:A1 20 
*END

*D_NET *1148 0.0365625
*CONN
*I *2764:A I *D sg13cmos5l_xnor2_1
*I *2810:A0 I *D sg13cmos5l_mux2_1
*I *2707:A I *D sg13cmos5l_and2_1
*I *2709:A I *D sg13cmos5l_nor2_1
*I *2700:B I *D sg13cmos5l_nor3_1
*I *2713:B I *D sg13cmos5l_nand3_1
*I *2670:A I *D sg13cmos5l_xnor2_1
*I *2793:A I *D sg13cmos5l_xnor2_1
*I *3269:X O *D sg13cmos5l_buf_1
*CAP
1 *2764:A 6.2708e-05
2 *2810:A0 0
3 *2707:A 0.000536813
4 *2709:A 0.000959145
5 *2700:B 0
6 *2713:B 0.000201731
7 *2670:A 0.000174858
8 *2793:A 0
9 *3269:X 0.000299849
10 *1148:126 0.00212426
11 *1148:90 0.00163025
12 *1148:74 0.000476224
13 *1148:59 0.00168805
14 *1148:51 0.00200841
15 *1148:47 0.00328341
16 *1148:41 0.00298169
17 *1148:28 0.00135784
18 *1148:16 0.00358094
19 *1148:10 0.000495242
20 *1148:8 0.000299849
21 *1148:8 *1151:43 0.00012816
22 *1148:16 *1151:39 0
23 *1148:28 *1150:40 0
24 *1148:28 *1151:73 0
25 *2670:B *2670:A 0
26 *2694:A *2707:A 0
27 *2700:C *2713:B 0.000337353
28 *2765:A2 *1148:8 0
29 *2765:A2 *1148:16 0.000395068
30 *2769:A2 *1148:28 0
31 *2770:A1 *1148:28 6.46834e-05
32 *2780:A *1148:126 0
33 *2793:B *1148:28 1.54008e-05
34 *2793:B *1148:41 6.48152e-05
35 *2810:S *1148:126 0
36 *2819:A0 *1148:51 0
37 *2819:S *1148:47 0
38 *2835:D *1148:59 0
39 *2856:B *1148:47 0
40 *2857:B *1148:47 0.000209549
41 *2859:A1 *1148:59 0.000288174
42 *2863:B *1148:51 0
43 *3091:RESET_B *1148:28 0.000143756
44 *3091:D *1148:28 0
45 *3095:D *1148:28 0
46 *3103:CLK *1148:28 0
47 *3432:A *2713:B 0.000240328
48 *185:49 *1148:59 0.000978835
49 *185:49 *1148:74 0.000958638
50 *209:33 *1148:47 0.00334206
51 *209:45 *1148:47 0.000128576
52 *209:62 *1148:47 5.30319e-05
53 *352:32 *2707:A 0.000176383
54 *354:49 *1148:47 0.00039332
55 *358:18 *1148:41 0.000143281
56 *385:10 *1148:59 0
57 *385:10 *1148:74 0
58 *397:33 *1148:126 0
59 *467:8 *1148:126 0
60 *475:8 *1148:8 0
61 *489:8 *1148:126 0.000927047
62 *490:10 *1148:126 0.000394981
63 *491:8 *1148:126 0
64 *500:10 *1148:28 0
65 *519:10 *2707:A 0
66 *519:10 *1148:51 0
67 *519:10 *1148:90 0
68 *557:12 *1148:51 0
69 *557:12 *1148:59 0.00012816
70 *559:10 *2707:A 0
71 *559:10 *2709:A 0
72 *559:10 *1148:59 0.000500214
73 *688:32 *1148:47 0.00140273
74 *707:28 *1148:28 0
75 *732:14 *1148:41 0.000394566
76 *732:31 *1148:41 0.000128248
77 *734:27 *1148:126 0
78 *739:72 *1148:74 0.000393821
79 *745:35 *1148:59 0.000181608
80 *757:31 *1148:28 0
81 *757:37 *1148:41 0.00012816
82 *762:12 *1148:28 0
83 *762:35 *1148:41 0
84 *762:59 *1148:47 0
85 *987:36 *1148:28 0
86 *1078:12 *1148:51 8.00995e-05
87 *1091:8 *1148:59 0.000446439
88 *1116:40 *1148:8 7.57164e-05
89 *1116:111 *1148:126 0
90 *1117:66 *1148:47 0
91 *1118:28 *1148:16 0
92 *1118:116 *1148:47 0
93 *1120:69 *1148:16 0
94 *1120:69 *1148:126 0
95 *1121:42 *1148:126 0
96 *1121:46 *1148:16 0
97 *1121:76 *1148:28 0.000177032
98 *1123:31 *1148:51 0.000402014
99 *1123:31 *1148:59 0
100 *1124:74 *1148:126 0
101 *1125:25 *1148:28 0
102 *1126:72 *2707:A 0.000338207
103 *1126:72 *1148:51 0
104 *1126:72 *1148:90 0
105 *1142:90 *2670:A 0.000240745
106 *1147:30 *1148:126 0
*RES
1 *3269:X *1148:8 42.575 
2 *1148:8 *1148:10 20 
3 *1148:10 *1148:16 24.5629 
4 *1148:16 *1148:28 29.3233 
5 *1148:28 *2793:A 20 
6 *1148:28 *1148:41 43.8796 
7 *1148:41 *1148:47 47.4289 
8 *1148:47 *1148:51 25.9431 
9 *1148:51 *1148:59 34.8629 
10 *1148:59 *2670:A 41.6171 
11 *1148:59 *1148:74 24.8719 
12 *1148:74 *2713:B 22.266 
13 *1148:74 *2700:B 20 
14 *1148:51 *1148:90 21.1845 
15 *1148:90 *2709:A 46.0461 
16 *1148:90 *2707:A 45.0779 
17 *1148:16 *1148:126 40.5279 
18 *1148:126 *2810:A0 20 
19 *1148:10 *2764:A 20.5356 
*END

*D_NET *1149 0.0161658
*CONN
*I *2742:A I *D sg13cmos5l_and4_1
*I *2829:A I *D sg13cmos5l_xnor2_1
*I *2743:A I *D sg13cmos5l_nor4_1
*I *2718:B I *D sg13cmos5l_nor2_1
*I *2716:B I *D sg13cmos5l_nand2_1
*I *2806:A1 I *D sg13cmos5l_o21ai_1
*I *2344:A I *D sg13cmos5l_inv_1
*I *2760:A I *D sg13cmos5l_xnor2_1
*I *3270:X O *D sg13cmos5l_buf_1
*CAP
1 *2742:A 3.05285e-05
2 *2829:A 0.000376406
3 *2743:A 0
4 *2718:B 0
5 *2716:B 0
6 *2806:A1 0.000666767
7 *2344:A 0.000301121
8 *2760:A 0.000170972
9 *3270:X 0
10 *1149:70 0.00060965
11 *1149:59 0.00143212
12 *1149:48 0.00151016
13 *1149:41 0.00128072
14 *1149:28 0.00175803
15 *1149:15 0.000772476
16 *1149:4 0.000551034
17 *2806:A1 *1153:31 7.9407e-05
18 *2672:B *1149:59 0
19 *2686:B *1149:41 0
20 *2686:A *1149:41 4.77425e-05
21 *2692:B *2806:A1 0
22 *2692:B *1149:41 0
23 *2716:A *1149:41 0
24 *2716:A *1149:48 0
25 *2742:B *2742:A 1.54556e-05
26 *2760:B *2760:A 4.78192e-05
27 *2803:B *2344:A 0
28 *3095:RESET_B *2760:A 0
29 *3438:A *2742:A 0
30 *183:12 *2344:A 0.00030522
31 *359:10 *2829:A 0
32 *359:10 *1149:59 0
33 *369:32 *1149:59 0
34 *378:22 *1149:59 0
35 *384:18 *1149:41 0
36 *384:18 *1149:48 0
37 *384:18 *1149:59 0
38 *384:24 *2806:A1 0
39 *395:49 *2742:A 0
40 *401:14 *1149:41 0
41 *407:32 *1149:41 0
42 *433:10 *1149:59 0.0002089
43 *450:21 *1149:70 0.00039332
44 *451:31 *2829:A 0.000553661
45 *664:38 *2806:A1 0
46 *664:51 *2806:A1 0
47 *688:8 *2829:A 0
48 *688:8 *1149:59 0
49 *688:8 *1149:70 0
50 *733:46 *1149:70 0.000287672
51 *761:27 *2829:A 0
52 *876:59 *1149:15 0.00194053
53 *876:59 *1149:28 0.000481001
54 *1067:10 *1149:41 0
55 *1077:12 *2760:A 0
56 *1124:89 *2806:A1 1.54446e-05
57 *1132:87 *2829:A 0
58 *1145:99 *1149:59 0
59 *1145:101 *1149:48 0
60 *1145:101 *1149:59 0
61 *1146:26 *1149:15 0
62 *1146:36 *1149:15 0.00124358
63 *1146:47 *1149:15 0.000425172
64 *1146:66 *1149:15 0.000159839
65 *1146:66 *1149:28 0.000501044
*RES
1 *3270:X *1149:4 20 
2 *1149:4 *2760:A 21.4008 
3 *1149:4 *1149:15 29.0022 
4 *1149:15 *2344:A 42.6986 
5 *1149:15 *1149:28 22.3278 
6 *1149:28 *2806:A1 25.7474 
7 *1149:28 *1149:41 8.3224 
8 *1149:41 *2716:B 20 
9 *1149:41 *1149:48 2.266 
10 *1149:48 *2718:B 20 
11 *1149:48 *1149:59 30.9592 
12 *1149:59 *2743:A 40 
13 *1149:59 *1149:70 3.0183 
14 *1149:70 *2829:A 43.3575 
15 *1149:70 *2742:A 40.3193 
*END

*D_NET *1150 0.0281139
*CONN
*I *2774:A I *D sg13cmos5l_xnor2_1
*I *2725:B I *D sg13cmos5l_xor2_1
*I *2673:B I *D sg13cmos5l_nand3b_1
*I *2674:B I *D sg13cmos5l_nor2_1
*I *2645:A I *D sg13cmos5l_nand3_1
*I *2641:A I *D sg13cmos5l_or4_1
*I *2647:B2 I *D sg13cmos5l_a22oi_1
*I *2796:A1 I *D sg13cmos5l_o21ai_1
*I *3271:X O *D sg13cmos5l_buf_1
*CAP
1 *2774:A 9.726e-05
2 *2725:B 0.000385102
3 *2673:B 0
4 *2674:B 0
5 *2645:A 4.82524e-05
6 *2641:A 0
7 *2647:B2 0
8 *2796:A1 0
9 *3271:X 0.000415447
10 *1150:126 0.00233396
11 *1150:106 0.000761137
12 *1150:96 0.000943842
13 *1150:94 0.00118061
14 *1150:86 0.00294676
15 *1150:84 0.000549241
16 *1150:80 0.00106291
17 *1150:65 0.000705401
18 *1150:40 0.00108042
19 *1150:32 0.0013703
20 *1150:18 0.00040384
21 *1150:10 0.000770154
22 *1150:40 *1151:73 0.000395396
23 *2641:B *1150:18 7.74783e-05
24 *2641:B *1150:32 2.07576e-05
25 *2647:A2 *1150:32 3.23417e-05
26 *2647:A2 *1150:40 4.77425e-05
27 *2648:B *1150:32 0.000176274
28 *2648:C *1150:40 0
29 *2673:C *1150:106 0.000305297
30 *2679:A2 *1150:96 1.54008e-05
31 *2679:A2 *1150:106 0.000305297
32 *2701:A *2725:B 4.77866e-05
33 *2702:B *2725:B 0.000112404
34 *2714:B *1150:126 0
35 *2714:A *1150:94 0.000128663
36 *2735:A *1150:126 0
37 *2739:A *1150:126 0.000402431
38 *2745:A2 *1150:126 0
39 *2746:B1 *1150:126 0
40 *2746:A1 *1150:126 0.000274463
41 *2771:B *1150:10 0
42 *2774:B *2774:A 0.0001609
43 *2774:B *1150:80 4.77153e-05
44 *2786:A *1150:94 0
45 *2786:B *1150:94 0
46 *2786:B *1150:126 0
47 *3097:CLK *1150:80 0.000241138
48 *154:10 *1150:10 0
49 *183:42 *1150:94 0
50 *352:30 *2774:A 0.0001758
51 *352:30 *1150:80 0.000594969
52 *354:18 *1150:32 0.00023464
53 *362:10 *1150:32 4.77425e-05
54 *362:10 *1150:40 4.77425e-05
55 *366:27 *1150:126 7.52158e-05
56 *369:10 *2725:B 0
57 *384:18 *1150:126 0
58 *389:10 *1150:106 0
59 *395:49 *1150:96 0
60 *417:8 *1150:126 0.000871022
61 *429:8 *1150:84 0.00267743
62 *429:31 *1150:126 0
63 *440:6 *2725:B 4.77866e-05
64 *450:8 *1150:126 0
65 *494:10 *1150:94 0
66 *688:8 *1150:126 0
67 *688:54 *1150:126 0
68 *733:40 *1150:126 0
69 *740:37 *1150:106 0.000499799
70 *740:77 *2725:B 0
71 *758:63 *1150:126 0
72 *759:27 *1150:94 0
73 *759:33 *1150:94 0
74 *790:10 *1150:40 8.0194e-05
75 *987:20 *1150:32 0.000235055
76 *987:36 *1150:40 0
77 *1079:8 *1150:126 0
78 *1085:8 *1150:106 0.00023464
79 *1092:32 *1150:94 0.000531707
80 *1092:32 *1150:96 0
81 *1092:32 *1150:126 0.000548016
82 *1117:10 *1150:65 0.000182023
83 *1118:28 *1150:40 0
84 *1125:12 *1150:40 0.000394981
85 *1125:25 *1150:40 0
86 *1126:39 *1150:80 0
87 *1130:83 *1150:126 0
88 *1132:16 *1150:80 0
89 *1136:42 *1150:94 0
90 *1145:99 *1150:84 0.00278904
91 *1146:36 *1150:106 0
92 *1148:28 *1150:40 0
*RES
1 *3271:X *1150:10 43.1415 
2 *1150:10 *1150:18 21.2051 
3 *1150:18 *1150:32 43.6977 
4 *1150:32 *1150:40 49.9395 
5 *1150:40 *2796:A1 20 
6 *1150:32 *2647:B2 20 
7 *1150:18 *2641:A 20 
8 *1150:10 *1150:65 22.3638 
9 *1150:65 *2645:A 20.5356 
10 *1150:65 *1150:80 4.7689 
11 *1150:80 *1150:84 32.9574 
12 *1150:84 *1150:86 20 
13 *1150:86 *1150:94 49.3524 
14 *1150:94 *1150:96 1.6171 
15 *1150:96 *1150:106 47.9104 
16 *1150:106 *2674:B 20 
17 *1150:96 *2673:B 20 
18 *1150:86 *1150:126 40.3961 
19 *1150:126 *2725:B 43.5638 
20 *1150:80 *2774:A 21.1845 
*END

*D_NET *1151 0.0157697
*CONN
*I *2779:A I *D sg13cmos5l_nand4_1
*I *2648:A I *D sg13cmos5l_nand4_1
*I *2796:B1 I *D sg13cmos5l_o21ai_1
*I *2769:B1 I *D sg13cmos5l_o21ai_1
*I *2783:B1 I *D sg13cmos5l_o21ai_1
*I *2761:B1 I *D sg13cmos5l_o21ai_1
*I *2765:B1 I *D sg13cmos5l_o21ai_1
*I *2408:A I *D sg13cmos5l_nand2_1
*I *3272:X O *D sg13cmos5l_buf_1
*CAP
1 *2779:A 0
2 *2648:A 0
3 *2796:B1 0
4 *2769:B1 0
5 *2783:B1 0.000305352
6 *2761:B1 0.000210893
7 *2765:B1 0.000283023
8 *2408:A 0.000216729
9 *3272:X 0.000594149
10 *1151:114 0.000734629
11 *1151:99 0.00167449
12 *1151:80 0.000964593
13 *1151:73 0.000344748
14 *1151:65 0.000744437
15 *1151:43 0.000777444
16 *1151:39 0.000910886
17 *1151:22 0.000935173
18 *1151:22 *3272:A 4.78662e-05
19 *2597:A *1151:22 0.000274028
20 *2642:B *1151:99 0.000175752
21 *2648:B *1151:114 0.000112651
22 *2648:C *1151:99 0.000112519
23 *2648:C *1151:114 0
24 *2750:B *1151:114 0.000467612
25 *2765:A2 *2765:B1 0
26 *2765:A2 *1151:43 0
27 *2769:A2 *2761:B1 1.54556e-05
28 *2769:A2 *1151:73 4.77537e-05
29 *3087:RESET_B *1151:99 8.0216e-05
30 *3103:D *1151:99 0
31 *152:8 *2765:B1 0
32 *354:18 *1151:114 0.000287672
33 *363:10 *1151:99 1.54556e-05
34 *363:10 *1151:114 6.48368e-05
35 *474:10 *2761:B1 0.000339317
36 *474:10 *2783:B1 0.000288502
37 *475:8 *1151:43 7.51285e-05
38 *476:12 *1151:39 0.00011159
39 *499:26 *1151:114 0
40 *757:14 *2783:B1 0
41 *757:14 *1151:43 0
42 *785:8 *1151:39 0.000341621
43 *790:10 *1151:73 0
44 *987:20 *1151:114 0.000924886
45 *1103:20 *1151:73 0
46 *1103:35 *1151:73 0
47 *1114:30 *2765:B1 0
48 *1116:28 *2783:B1 0
49 *1118:28 *1151:39 0
50 *1118:28 *1151:99 0
51 *1120:67 *2783:B1 7.51285e-05
52 *1120:69 *2783:B1 0.000797883
53 *1120:69 *1151:43 7.52158e-05
54 *1120:86 *2761:B1 0.000112426
55 *1120:94 *1151:65 0.000501069
56 *1120:94 *1151:80 4.77425e-05
57 *1120:94 *1151:99 1.54008e-05
58 *1120:101 *2761:B1 0.000274633
59 *1121:46 *2765:B1 0.000393821
60 *1121:46 *1151:39 0.000394151
61 *1125:12 *1151:73 0
62 *1136:42 *1151:114 0
63 *1146:26 *1151:99 7.9225e-05
64 *1148:8 *1151:43 0.00012816
65 *1148:16 *1151:39 0
66 *1148:28 *1151:73 0
67 *1150:40 *1151:73 0.000395396
*RES
1 *3272:X *2408:A 41.6171 
2 *3272:X *1151:22 43.6977 
3 *1151:22 *2765:B1 43.3887 
4 *1151:22 *1151:39 23.6668 
5 *1151:39 *1151:43 22.575 
6 *1151:43 *2761:B1 42.4823 
7 *1151:43 *2783:B1 44.3775 
8 *1151:39 *1151:65 3.9964 
9 *1151:65 *1151:73 43.8831 
10 *1151:73 *2769:B1 20 
11 *1151:65 *1151:80 0.3193 
12 *1151:80 *2796:B1 20 
13 *1151:80 *1151:99 9.3112 
14 *1151:99 *2648:A 20 
15 *1151:99 *1151:114 48.4048 
16 *1151:114 *2779:A 20 
*END

*D_NET *1152 0.0133512
*CONN
*I *2757:B1 I *D sg13cmos5l_o21ai_1
*I *2636:A I *D sg13cmos5l_and2_1
*I *2811:A I *D sg13cmos5l_and2_1
*I *2630:A I *D sg13cmos5l_and2_1
*I *2628:A I *D sg13cmos5l_and2_1
*I *2626:A I *D sg13cmos5l_and2_1
*I *2632:A I *D sg13cmos5l_and2_1
*I *2634:A I *D sg13cmos5l_and2_1
*I *3273:X O *D sg13cmos5l_buf_1
*CAP
1 *2757:B1 0.00041627
2 *2636:A 0
3 *2811:A 3.38976e-05
4 *2630:A 0.000475494
5 *2628:A 0
6 *2626:A 0.000148214
7 *2632:A 0.000639883
8 *2634:A 3.04493e-05
9 *3273:X 0
10 *1152:98 0.000712055
11 *1152:92 0.00123321
12 *1152:68 0.000661711
13 *1152:64 0.00031982
14 *1152:37 0.00132681
15 *1152:31 0.00101959
16 *1152:14 0.00096237
17 *1152:4 0.000513661
18 *2757:B1 *3273:A 0.000453879
19 *2757:B1 *1153:60 0
20 *1152:64 *3273:A 8.0276e-05
21 *1152:92 *3273:A 0.000161905
22 *2393:A *2632:A 0
23 *2393:A *1152:37 0
24 *2625:A1 *1152:37 0
25 *2625:S *1152:31 0
26 *2626:B *2626:A 8.02267e-05
27 *2628:B *1152:31 0.000177082
28 *2631:A1 *2632:A 0
29 *2632:B *2632:A 0.000177576
30 *2634:B *1152:14 8.00842e-05
31 *2757:A2 *2757:B1 1.54556e-05
32 *2758:A2 *2757:B1 0
33 *2758:B1 *2757:B1 8.01424e-05
34 *2811:B *2811:A 4.77425e-05
35 *3075:RESET_B *2626:A 0.000241136
36 *3075:RESET_B *1152:14 0
37 *3075:D *2626:A 0
38 *3075:CLK *1152:37 0
39 *3083:RESET_B *2634:A 0
40 *3083:RESET_B *1152:31 0
41 *3109:RESET_B *2757:B1 0.000274769
42 *3211:A *1152:98 0
43 *5:6 *2632:A 0
44 *331:24 *1152:14 0
45 *331:24 *1152:64 0
46 *514:10 *2630:A 0.000660226
47 *514:10 *1152:68 7.51285e-05
48 *664:60 *2630:A 0
49 *664:72 *2630:A 0
50 *664:72 *1152:68 0
51 *672:8 *1152:98 0
52 *672:16 *1152:31 0
53 *672:16 *1152:37 0
54 *703:8 *1152:31 0
55 *703:8 *1152:37 0
56 *721:22 *2630:A 0
57 *721:22 *1152:68 0
58 *721:22 *1152:98 0
59 *722:18 *1152:14 0.000446767
60 *730:12 *2632:A 0.00114227
61 *730:12 *1152:37 0.000663122
62 *853:8 *1152:98 0
63 *985:8 *1152:37 0
64 *1120:67 *2757:B1 0
65 *1141:49 *1152:14 0
66 *1141:49 *1152:64 0
67 *1141:49 *1152:98 0
68 *1141:81 *1152:98 0
*RES
1 *3273:X *1152:4 20 
2 *1152:4 *1152:14 44.4496 
3 *1152:14 *2634:A 20.3502 
4 *1152:14 *1152:31 4.9028 
5 *1152:31 *1152:37 25.5517 
6 *1152:37 *2632:A 48.3945 
7 *1152:37 *2626:A 41.6171 
8 *1152:31 *2628:A 20 
9 *1152:4 *1152:64 0.7519 
10 *1152:64 *1152:68 21.8334 
11 *1152:68 *2630:A 46.4581 
12 *1152:68 *2811:A 40.3193 
13 *1152:64 *1152:92 1.1845 
14 *1152:92 *1152:98 46.7774 
15 *1152:98 *2636:A 20 
16 *1152:92 *2757:B1 24.8822 
*END

*D_NET *1153 0.0201805
*CONN
*I *2896:A I *D sg13cmos5l_and2_1
*I *2842:B1 I *D sg13cmos5l_o21ai_1
*I *2801:B1 I *D sg13cmos5l_o21ai_1
*I *3273:A I *D sg13cmos5l_buf_1
*I *2847:B1 I *D sg13cmos5l_o21ai_1
*I *2806:B1 I *D sg13cmos5l_o21ai_1
*I *3274:X O *D sg13cmos5l_buf_1
*CAP
1 *2896:A 0
2 *2842:B1 2.96211e-05
3 *2801:B1 0
4 *3273:A 0.000536715
5 *2847:B1 0.00029413
6 *2806:B1 0
7 *3274:X 0.00128185
8 *1153:93 0.00155338
9 *1153:78 0.00182019
10 *1153:60 0.00103022
11 *1153:48 0.000861876
12 *1153:46 0.000871189
13 *1153:31 0.00129035
14 *1153:20 0.000864505
15 *1153:12 0.00141577
16 *1153:12 *1156:63 0
17 *2688:B *1153:93 0
18 *2691:A0 *1153:93 0
19 *2691:A1 *1153:93 8.03253e-05
20 *2754:B *1153:60 0
21 *2755:B *1153:60 0
22 *2757:B1 *3273:A 0.000453879
23 *2757:B1 *1153:60 0
24 *2757:A1 *1153:60 8.01938e-05
25 *2757:A2 *1153:60 0
26 *2800:B *1153:48 0
27 *2802:B1 *1153:48 0
28 *2806:A1 *1153:31 7.9407e-05
29 *2808:B *1153:12 0.000306662
30 *2808:A *1153:12 0
31 *2839:B *2847:B1 0
32 *2896:B *1153:93 8.00954e-05
33 *3109:D *3273:A 0
34 *3121:RESET_B *1153:93 0.000111837
35 *3123:CLK *1153:93 0
36 *3237:A *1153:93 0
37 *3413:A *1153:48 8.01064e-05
38 *3424:A *1153:31 0
39 *183:18 *1153:31 0.00172294
40 *183:18 *1153:46 0.000532309
41 *219:24 *1153:93 0
42 *331:24 *3273:A 0
43 *384:24 *1153:12 0
44 *384:24 *1153:20 0
45 *384:24 *1153:31 0
46 *397:16 *2847:B1 0
47 *399:18 *1153:12 0.000724974
48 *402:10 *1153:93 8.01773e-05
49 *405:16 *1153:93 0
50 *466:23 *1153:48 0
51 *467:44 *1153:46 0
52 *538:12 *1153:31 0.00012816
53 *538:12 *1153:46 0.000447685
54 *544:10 *2847:B1 8.0216e-05
55 *664:51 *1153:12 0
56 *732:37 *1153:78 0
57 *733:16 *1153:31 0
58 *734:101 *1153:93 0.000181695
59 *740:14 *1153:46 7.52149e-05
60 *743:18 *1153:93 0
61 *743:33 *1153:93 0.000240405
62 *758:110 *1153:46 0.000208615
63 *758:110 *1153:78 7.52158e-05
64 *816:10 *1153:12 0
65 *1069:10 *1153:93 0.000447597
66 *1075:10 *1153:93 0.000208063
67 *1114:30 *1153:60 0
68 *1120:46 *1153:93 0
69 *1120:67 *1153:60 0
70 *1121:8 *1153:60 7.52158e-05
71 *1121:28 *1153:48 0
72 *1121:28 *1153:78 0
73 *1121:32 *1153:20 0
74 *1124:62 *2842:B1 4.77425e-05
75 *1124:62 *1153:48 3.23417e-05
76 *1124:68 *1153:48 1.54008e-05
77 *1124:68 *1153:60 0.000494926
78 *1124:89 *1153:12 0.000660758
79 *1124:89 *1153:20 0.000112689
80 *1124:89 *1153:31 1.54446e-05
81 *1124:119 *2847:B1 0.000208183
82 *1125:27 *1153:31 0
83 *1125:27 *1153:46 0
84 *1152:64 *3273:A 8.0276e-05
85 *1152:92 *3273:A 0.000161905
*RES
1 *3274:X *1153:12 33.9462 
2 *1153:12 *1153:20 41.3493 
3 *1153:20 *2806:B1 20 
4 *1153:20 *1153:31 29.4142 
5 *1153:31 *2847:B1 42.6986 
6 *1153:31 *1153:46 24.1921 
7 *1153:46 *1153:48 2.4865 
8 *1153:48 *1153:60 45.2324 
9 *1153:60 *3273:A 25.8607 
10 *1153:48 *2801:B1 20 
11 *1153:46 *1153:78 22.3278 
12 *1153:78 *2842:B1 40.3193 
13 *1153:78 *1153:93 35.0071 
14 *1153:93 *2896:A 20 
*END

*D_NET *1154 0.0238885
*CONN
*I *2868:A I *D sg13cmos5l_nand4_1
*I *2877:A I *D sg13cmos5l_nand4_1
*I *2816:A I *D sg13cmos5l_nand4_1
*I *2838:A I *D sg13cmos5l_nand4_1
*I *2861:A I *D sg13cmos5l_nand4_1
*I *2833:A I *D sg13cmos5l_nand4_1
*I *2822:A I *D sg13cmos5l_nand3_1
*I *2791:A I *D sg13cmos5l_nand4_1
*I *3275:X O *D sg13cmos5l_buf_1
*CAP
1 *2868:A 0
2 *2877:A 0
3 *2816:A 0
4 *2838:A 0
5 *2861:A 0
6 *2833:A 0
7 *2822:A 0
8 *2791:A 0
9 *3275:X 0
10 *1154:128 0.00114708
11 *1154:111 0.00176591
12 *1154:100 0.000140178
13 *1154:94 0.00151388
14 *1154:83 0.000432343
15 *1154:71 0.00187644
16 *1154:61 0.00151913
17 *1154:46 0.00105134
18 *1154:29 0.000778023
19 *1154:16 0.000454364
20 *1154:4 0.00101095
21 *1154:16 *1155:16 0.000447182
22 *1154:71 *1155:32 0
23 *1154:111 *1155:49 0.000659726
24 *1154:128 *1155:49 0.000499887
25 *1154:128 *1155:59 0
26 *2789:A1 *1154:16 0
27 *2789:B1 *1154:16 0.000237772
28 *2814:A2 *1154:111 0.000305598
29 *2833:C *1154:29 0.000145
30 *2833:C *1154:46 3.23965e-05
31 *2838:B *1154:100 0.000212456
32 *2859:A2 *1154:83 0
33 *2861:B *1154:83 0
34 *2863:A *1154:94 0.000495391
35 *2863:A *1154:111 0
36 *2865:C *1154:83 0.000144833
37 *2865:C *1154:94 1.54008e-05
38 *2865:D *1154:71 0
39 *2867:A2 *1154:71 0.000340288
40 *2868:B *1154:61 0.000530612
41 *2872:B *1154:128 0
42 *2877:B *1154:128 0.000306887
43 *2877:C *1154:128 0
44 *3137:RESET_B *1154:128 0
45 *162:12 *1154:46 0.000144052
46 *162:12 *1154:61 0.00025851
47 *170:10 *1154:71 0.000712342
48 *172:10 *1154:128 4.79124e-05
49 *209:45 *1154:61 0
50 *352:32 *1154:83 0
51 *352:32 *1154:111 0
52 *358:84 *1154:83 0
53 *358:96 *1154:83 0
54 *410:33 *1154:111 0
55 *427:24 *1154:100 7.51285e-05
56 *463:22 *1154:128 0.00040217
57 *463:29 *1154:128 0.000241639
58 *483:22 *1154:29 4.79124e-05
59 *483:22 *1154:46 4.78521e-05
60 *483:22 *1154:61 0
61 *487:52 *1154:94 0
62 *487:52 *1154:111 0
63 *496:8 *1154:16 0.000394653
64 *497:14 *1154:16 0.000112404
65 *499:26 *1154:29 1.54008e-05
66 *523:10 *1154:46 2.20966e-05
67 *550:8 *1154:83 0
68 *556:10 *1154:71 0
69 *559:10 *1154:94 0.000336945
70 *561:10 *1154:71 0.00023464
71 *567:10 *1154:128 0.000273392
72 *735:18 *1154:128 0
73 *745:22 *1154:100 0.00039332
74 *762:59 *1154:61 0.000112048
75 *766:12 *1154:16 0
76 *890:12 *1154:16 0.0002421
77 *1073:56 *1154:111 0.000661265
78 *1073:56 *1154:128 0.000159096
79 *1078:12 *1154:71 0.000181608
80 *1113:14 *1154:100 0.000393407
81 *1113:22 *1154:61 0.000744881
82 *1113:24 *1154:46 0.000144041
83 *1113:24 *1154:61 4.79124e-05
84 *1113:46 *1154:16 0
85 *1113:46 *1154:29 1.54008e-05
86 *1113:52 *1154:16 3.20292e-06
87 *1114:16 *1154:16 0
88 *1117:108 *1154:128 0
89 *1118:137 *1154:94 0
90 *1118:137 *1154:111 0
91 *1123:31 *1154:71 0.000765375
92 *1123:51 *1154:83 0
93 *1130:10 *1154:94 8.00842e-05
94 *1130:10 *1154:111 0.000128641
95 *1130:20 *1154:61 0.000274769
96 *1130:46 *1154:16 0
97 *1130:111 *1154:111 0.000111234
98 *1143:14 *1154:128 0
*RES
1 *3275:X *1154:4 20 
2 *1154:4 *1154:16 45.9251 
3 *1154:16 *2791:A 20 
4 *1154:4 *1154:29 5.2324 
5 *1154:29 *2822:A 20 
6 *1154:29 *1154:46 42.4514 
7 *1154:46 *2833:A 20 
8 *1154:46 *1154:61 49.579 
9 *1154:61 *1154:71 49.4245 
10 *1154:71 *1154:83 43.9655 
11 *1154:83 *2861:A 20 
12 *1154:71 *1154:94 7.2615 
13 *1154:94 *1154:100 42.8222 
14 *1154:100 *2838:A 20 
15 *1154:94 *1154:111 27.931 
16 *1154:111 *2816:A 40 
17 *1154:111 *1154:128 32.3394 
18 *1154:128 *2877:A 20 
19 *1154:61 *2868:A 20 
*END

*D_NET *1155 0.03009
*CONN
*I *3275:A I *D sg13cmos5l_buf_1
*I *2888:A I *D sg13cmos5l_nand4_1
*I *2914:B1 I *D sg13cmos5l_o21ai_1
*I *2905:A I *D sg13cmos5l_and2_1
*I *2881:B1 I *D sg13cmos5l_o21ai_1
*I *2892:B1 I *D sg13cmos5l_o21ai_1
*I *2909:B1 I *D sg13cmos5l_o21ai_1
*I *2902:A I *D sg13cmos5l_nand4_1
*I *3276:X O *D sg13cmos5l_buf_1
*CAP
1 *3275:A 0
2 *2888:A 0
3 *2914:B1 6.83072e-05
4 *2905:A 3.70498e-05
5 *2881:B1 0
6 *2892:B1 0.000670142
7 *2909:B1 8.5033e-05
8 *2902:A 0.000809547
9 *3276:X 0.000196625
10 *1155:96 0.00125679
11 *1155:80 0.00107682
12 *1155:72 0.000982429
13 *1155:59 0.00289686
14 *1155:53 0.00237345
15 *1155:49 0.00117151
16 *1155:34 0.00276616
17 *1155:32 0.00141881
18 *1155:16 0.00175157
19 *1155:10 0.00133711
20 *2708:B_N *2902:A 0
21 *2708:B_N *1155:34 3.23965e-05
22 *2817:A *1155:49 0.00026599
23 *2821:B1 *1155:16 0.000598997
24 *2821:A2 *1155:16 0
25 *2867:B1 *1155:32 0
26 *2868:B *1155:32 0
27 *2876:A1 *1155:53 4.78521e-05
28 *2876:A1 *1155:59 1.54556e-05
29 *2882:B1 *2892:B1 0
30 *2882:B1 *1155:96 0
31 *2892:A2 *2892:B1 4.77863e-05
32 *2893:B1 *2892:B1 0
33 *2901:A1 *2902:A 0
34 *2902:B *2902:A 0.000274769
35 *2902:C *2902:A 0
36 *2905:B *2905:A 0
37 *2905:B *1155:80 0
38 *2905:B *1155:96 0
39 *2906:B *1155:59 0
40 *2909:A1 *2909:B1 0
41 *2909:A2 *2909:B1 4.77866e-05
42 *2910:B1 *2909:B1 0
43 *2913:B *2914:B1 0
44 *2913:B *1155:80 0
45 *2914:A2 *2914:B1 4.77425e-05
46 *2914:A2 *1155:72 0
47 *2915:B1 *2914:B1 1.54008e-05
48 *3244:A *2914:B1 0
49 *3244:A *1155:80 0
50 *3337:A *2892:B1 0
51 *3449:A *1155:32 0
52 *170:10 *1155:32 0.000122981
53 *175:10 *2892:B1 0
54 *185:16 *2892:B1 0.000112453
55 *359:43 *1155:96 0.000443224
56 *381:14 *1155:59 0
57 *381:20 *1155:59 0
58 *411:14 *2902:A 0
59 *411:14 *1155:49 0
60 *411:41 *1155:59 0
61 *411:47 *1155:59 0
62 *421:8 *1155:49 0.000713258
63 *421:17 *1155:49 0.000265159
64 *423:10 *1155:49 0
65 *463:22 *1155:53 1.54008e-05
66 *465:30 *1155:59 0
67 *470:14 *1155:80 0
68 *487:58 *1155:49 0
69 *496:8 *1155:10 0
70 *496:8 *1155:16 0
71 *499:14 *1155:16 0.00131231
72 *499:14 *1155:34 0
73 *518:14 *1155:49 0
74 *518:14 *1155:59 0
75 *565:12 *1155:59 0
76 *566:10 *1155:59 0.000718206
77 *573:8 *1155:49 0.000128247
78 *589:10 *1155:96 4.78359e-05
79 *591:10 *1155:59 0
80 *595:30 *1155:96 0
81 *664:414 *1155:59 0
82 *733:52 *1155:59 0.000394248
83 *745:90 *1155:96 0.000501874
84 *746:42 *1155:80 0.000112826
85 *746:42 *1155:96 0.000177331
86 *762:59 *1155:32 0
87 *762:59 *1155:34 0
88 *762:63 *1155:32 2.20968e-05
89 *762:63 *1155:34 0.00137526
90 *762:71 *1155:49 0.000447182
91 *766:12 *2902:A 0
92 *766:12 *1155:16 0.000209725
93 *766:12 *1155:34 0
94 *901:16 *2909:B1 0
95 *901:22 *1155:59 0
96 *901:22 *1155:72 0
97 *1005:10 *2892:B1 0
98 *1073:56 *1155:49 0
99 *1092:16 *1155:10 0
100 *1092:16 *1155:16 0
101 *1117:108 *1155:59 0
102 *1117:131 *1155:49 0
103 *1120:20 *2892:B1 0
104 *1120:32 *2892:B1 0
105 *1124:153 *2892:B1 0.000441127
106 *1130:20 *1155:16 0
107 *1130:20 *1155:32 0
108 *1130:20 *1155:34 0.000630032
109 *1130:36 *1155:16 0
110 *1142:90 *1155:59 0
111 *1143:71 *1155:59 0
112 *1143:88 *1155:59 0
113 *1144:31 *1155:59 0
114 *1154:16 *1155:16 0.000447182
115 *1154:71 *1155:32 0
116 *1154:111 *1155:49 0.000659726
117 *1154:128 *1155:49 0.000499887
118 *1154:128 *1155:59 0
*RES
1 *3276:X *1155:10 41.6583 
2 *1155:10 *1155:16 33.3076 
3 *1155:16 *1155:32 46.798 
4 *1155:32 *1155:34 9.6202 
5 *1155:34 *2902:A 27.7559 
6 *1155:34 *1155:49 34.935 
7 *1155:49 *1155:53 20.3193 
8 *1155:53 *1155:59 43.1647 
9 *1155:59 *2909:B1 40.7519 
10 *1155:59 *1155:72 23.5638 
11 *1155:72 *1155:80 4.4599 
12 *1155:80 *1155:96 46.9216 
13 *1155:96 *2892:B1 26.8392 
14 *1155:96 *2881:B1 20 
15 *1155:80 *2905:A 20.4738 
16 *1155:72 *2914:B1 20.7519 
17 *1155:53 *2888:A 20 
18 *1155:10 *3275:A 40 
*END

*D_NET *1156 0.0180365
*CONN
*I *3274:A I *D sg13cmos5l_buf_1
*I *3276:A I *D sg13cmos5l_buf_1
*I *2854:A I *D sg13cmos5l_nand4_1
*I *3272:A I *D sg13cmos5l_buf_1
*I *3277:X O *D sg13cmos5l_buf_1
*CAP
1 *3274:A 0
2 *3276:A 0.00064563
3 *2854:A 0
4 *3272:A 0.000547313
5 *3277:X 3.19222e-05
6 *1156:63 0.00165364
7 *1156:46 0.00133641
8 *1156:31 0.00273663
9 *1156:23 0.0043552
10 *1156:8 0.00123495
11 *2760:B *1156:31 0
12 *2784:A2 *1156:31 0
13 *2808:A *1156:63 0
14 *2856:B *1156:31 0
15 *3095:RESET_B *1156:31 0
16 *3099:RESET_B *1156:31 0
17 *3099:CLK *1156:31 0.000112436
18 *3125:D *1156:46 0
19 *3242:A *1156:23 0
20 *3267:A *3276:A 8.00842e-05
21 *3268:A *3276:A 0.000209544
22 *3268:A *1156:46 0.00166899
23 *155:10 *1156:23 0
24 *187:10 *3272:A 0
25 *187:14 *1156:63 0
26 *208:6 *1156:31 0
27 *208:25 *1156:31 0
28 *209:10 *1156:23 0
29 *209:33 *1156:31 0
30 *331:8 *3272:A 0
31 *331:8 *1156:23 0.000236081
32 *473:10 *1156:31 0
33 *479:14 *1156:31 0
34 *707:20 *1156:31 0
35 *708:12 *1156:31 0
36 *708:36 *1156:31 0
37 *732:31 *1156:31 0
38 *757:72 *1156:46 0.000112558
39 *788:22 *1156:23 0
40 *788:22 *1156:63 0
41 *967:8 *3272:A 0.000393736
42 *1077:12 *1156:31 0
43 *1113:82 *1156:31 4.77425e-05
44 *1113:82 *1156:46 0.00223343
45 *1118:28 *1156:8 4.77251e-05
46 *1119:8 *1156:31 0
47 *1119:12 *1156:31 0
48 *1119:14 *1156:31 0
49 *1121:38 *1156:31 0
50 *1145:10 *3276:A 8.00522e-05
51 *1146:30 *1156:31 0.000176708
52 *1146:36 *1156:31 4.78524e-05
53 *1151:22 *3272:A 4.78662e-05
54 *1153:12 *1156:63 0
*RES
1 *3277:X *1156:8 40.3193 
2 *1156:8 *3272:A 45.3148 
3 *1156:8 *1156:23 6.0358 
4 *1156:23 *1156:31 39.3743 
5 *1156:31 *2854:A 20 
6 *1156:31 *1156:46 31.7832 
7 *1156:46 *3276:A 45.8607 
8 *1156:23 *1156:63 36.274 
9 *1156:63 *3274:A 20 
*END

*D_NET *1157 0.0131655
*CONN
*I *2614:A I *D sg13cmos5l_and2_1
*I *2610:A I *D sg13cmos5l_and2_1
*I *2612:A I *D sg13cmos5l_and2_1
*I *2531:A I *D sg13cmos5l_and2_1
*I *2533:A I *D sg13cmos5l_and2_1
*I *2545:A I *D sg13cmos5l_and2_1
*I *2541:A I *D sg13cmos5l_and2_1
*I *2543:A I *D sg13cmos5l_and2_1
*I *3278:X O *D sg13cmos5l_buf_1
*CAP
1 *2614:A 0
2 *2610:A 0
3 *2612:A 0.000399402
4 *2531:A 0
5 *2533:A 8.20175e-05
6 *2545:A 0
7 *2541:A 0
8 *2543:A 2.77263e-05
9 *3278:X 0.000204843
10 *1157:100 0.000134547
11 *1157:87 0.000644947
12 *1157:85 0.000407465
13 *1157:76 0.000941759
14 *1157:61 0.00191127
15 *1157:41 0.00023745
16 *1157:31 0.000935255
17 *1157:18 0.000998852
18 *1157:12 0.00132259
19 *1157:8 0.000663093
20 *2532:A1 *1157:76 0
21 *2533:B *2533:A 8.01609e-05
22 *2541:B *1157:41 0
23 *2545:B *1157:31 0
24 *2601:A0 *2533:A 0.000144899
25 *2601:A0 *1157:61 0
26 *2609:A0 *2612:A 0
27 *2609:A0 *1157:12 0
28 *2609:A0 *1157:18 0
29 *2609:A0 *1157:31 0.000468083
30 *2612:B *2612:A 0.000434516
31 *2613:A0 *1157:12 0
32 *2613:S *1157:8 0
33 *2613:S *1157:12 0
34 *2985:CLK *1157:76 0
35 *2997:D *1157:31 0.00024211
36 *3061:D *2612:A 0
37 *3278:A *1157:8 0
38 *3278:A *1157:85 0
39 *5:18 *1157:18 0
40 *5:18 *1157:31 0
41 *302:10 *1157:18 0
42 *305:8 *1157:76 0
43 *643:8 *1157:76 0
44 *663:12 *1157:76 0
45 *743:51 *1157:41 0
46 *767:27 *1157:61 0
47 *815:10 *1157:76 0
48 *1031:36 *1157:18 0
49 *1031:36 *1157:61 0
50 *1052:40 *1157:41 1.65559e-05
51 *1105:14 *1157:61 0.000235055
52 *1105:14 *1157:76 0.00229042
53 *1133:26 *1157:100 0.00034245
54 *1137:63 *1157:61 0
55 *1147:30 *1157:41 0
56 *1147:65 *1157:41 0
57 *1147:75 *2612:A 0
58 *1147:75 *1157:12 0
59 *1147:75 *1157:85 0
60 *1147:75 *1157:87 0
*RES
1 *3278:X *1157:8 21.7819 
2 *1157:8 *1157:12 21.4008 
3 *1157:12 *1157:18 22.369 
4 *1157:18 *2543:A 20.3502 
5 *1157:18 *1157:31 7.4778 
6 *1157:31 *1157:41 42.0471 
7 *1157:41 *2541:A 20 
8 *1157:31 *2545:A 20 
9 *1157:12 *1157:61 48.7756 
10 *1157:61 *2533:A 40.9682 
11 *1157:61 *1157:76 32.9986 
12 *1157:76 *2531:A 20 
13 *1157:8 *1157:85 2.8634 
14 *1157:85 *1157:87 0.9682 
15 *1157:87 *2612:A 23.9964 
16 *1157:87 *1157:100 41.5862 
17 *1157:100 *2610:A 20 
18 *1157:85 *2614:A 20 
*END

*D_NET *1158 0.00339679
*CONN
*I *2395:A2 I *D sg13cmos5l_o21ai_1
*I *3279:A I *D sg13cmos5l_dlygate4sd3_1
*I *3151:Q O *D sg13cmos5l_dfrbpq_1
*CAP
1 *2395:A2 0.000640912
2 *3279:A 0.000623287
3 *3151:Q 0
4 *1158:6 0.0012642
5 *2395:A2 *1161:39 0.000660142
6 *2395:A1 *2395:A2 8.00954e-05
7 *63:10 *3279:A 0
8 *213:10 *3279:A 0.00012816
9 *665:29 *2395:A2 0
10 *681:10 *2395:A2 0
11 *681:18 *2395:A2 0
12 *972:10 *3279:A 0
*RES
1 *3151:Q *1158:6 40 
2 *1158:6 *3279:A 46.1388 
3 *1158:6 *2395:A2 47.313 
*END

*D_NET *1159 0.00398671
*CONN
*I *2391:B_N I *D sg13cmos5l_nor2b_1
*I *2394:A_N I *D sg13cmos5l_nand2b_1
*I *3329:A I *D sg13cmos5l_dlygate4sd3_1
*I *3153:Q O *D sg13cmos5l_dfrbpq_1
*CAP
1 *2391:B_N 0.000201299
2 *2394:A_N 0.000197731
3 *3329:A 0
4 *3153:Q 0
5 *1159:19 0.000693416
6 *1159:12 0.000987989
7 *1159:6 0.00128237
8 *2394:A_N *1161:10 1.54008e-05
9 *2391:A *2391:B_N 0
10 *2391:A *2394:A_N 0
11 *2394:B *2394:A_N 1.54008e-05
12 *2396:B1 *2394:A_N 0
13 *2917:B *1159:12 0.000305346
14 *3153:RESET_B *1159:12 0
15 *5:6 *2391:B_N 0
16 *5:6 *1159:12 0
17 *5:6 *1159:19 0
18 *182:8 *1159:12 0.000287757
19 *194:16 *2391:B_N 0
20 *211:10 *1159:12 0
21 *599:8 *1159:12 0
*RES
1 *3153:Q *1159:6 40 
2 *1159:6 *1159:12 31.2991 
3 *1159:12 *3329:A 20 
4 *1159:6 *1159:19 3.811 
5 *1159:19 *2394:A_N 42.0497 
6 *1159:19 *2391:B_N 42.3999 
*END

*D_NET *1160 0.0064543
*CONN
*I *2386:A_N I *D sg13cmos5l_nand2b_1
*I *2392:A2 I *D sg13cmos5l_a221oi_1
*I *3332:A I *D sg13cmos5l_dlygate4sd3_1
*I *2412:C I *D sg13cmos5l_nand3_1
*I *3155:Q O *D sg13cmos5l_dfrbpq_1
*CAP
1 *2386:A_N 0.000172987
2 *2392:A2 8.33362e-05
3 *3332:A 0.000564201
4 *2412:C 0
5 *3155:Q 3.61014e-05
6 *1160:38 0.000901843
7 *1160:14 0.000943505
8 *1160:8 0.00106092
9 *1160:38 *2389:A1 0
10 *1160:38 *3330:A 0
11 *2386:B *2386:A_N 3.09112e-05
12 *2389:B1 *1160:38 0.000129089
13 *2392:A1 *2386:A_N 0.000111853
14 *2392:A1 *2392:A2 1.27224e-05
15 *2394:B *1160:38 0.000501241
16 *2412:B *1160:14 0.000177032
17 *3151:CLK *3332:A 0
18 *3157:RESET_B *1160:8 0
19 *3157:D *3332:A 2.21754e-05
20 *5:6 *1160:14 0
21 *5:6 *1160:38 0
22 *189:16 *1160:38 0.000340288
23 *190:10 *1160:38 0.000234418
24 *194:16 *2386:A_N 0
25 *194:16 *2392:A2 6.49243e-05
26 *213:10 *3332:A 0
27 *681:18 *3332:A 0.000177082
28 *681:18 *1160:14 0.000177032
29 *718:12 *1160:38 0.000530319
30 *719:10 *2386:A_N 0
31 *970:14 *1160:14 0
32 *970:14 *1160:38 0.000182313
*RES
1 *3155:Q *1160:8 40.3193 
2 *1160:8 *1160:14 24.2539 
3 *1160:14 *2412:C 20 
4 *1160:14 *3332:A 25.5414 
5 *1160:8 *1160:38 29.2906 
6 *1160:38 *2392:A2 20.9708 
7 *1160:38 *2386:A_N 21.7819 
*END

*D_NET *1161 0.0045119
*CONN
*I *2392:B1 I *D sg13cmos5l_a221oi_1
*I *2387:A I *D sg13cmos5l_nand2_1
*I *2389:A1 I *D sg13cmos5l_o21ai_1
*I *3330:A I *D sg13cmos5l_dlygate4sd3_1
*I *3157:Q O *D sg13cmos5l_dfrbpq_1
*CAP
1 *2392:B1 0.000278528
2 *2387:A 4.06209e-05
3 *2389:A1 0.000490577
4 *3330:A 0.000117126
5 *3157:Q 0.000580355
6 *1161:39 0.000710938
7 *1161:10 0.000796269
8 *2387:B *2387:A 0
9 *2387:B *2392:B1 0.000300035
10 *2388:A *2392:B1 0
11 *2389:B1 *2389:A1 0
12 *2392:A1 *2392:B1 7.43089e-05
13 *2394:B *1161:10 0
14 *2394:A_N *1161:10 1.54008e-05
15 *2395:A1 *2387:A 0
16 *2395:A2 *1161:39 0.000660142
17 *5:6 *2389:A1 0
18 *5:6 *3330:A 0
19 *195:18 *2392:B1 0
20 *195:18 *1161:39 0
21 *196:10 *1161:39 0.000447598
22 *204:12 *1161:39 0
23 *719:10 *2392:B1 0
24 *1160:38 *2389:A1 0
25 *1160:38 *3330:A 0
*RES
1 *3157:Q *1161:10 41.751 
2 *1161:10 *3330:A 41.0918 
3 *1161:10 *2389:A1 44.3054 
4 *3157:Q *1161:39 45.2118 
5 *1161:39 *2387:A 40.3193 
6 *1161:39 *2392:B1 42.8557 
*END

*D_NET *1162 0.00248736
*CONN
*I *3335:A I *D sg13cmos5l_dlygate4sd3_1
*I *2400:A2 I *D sg13cmos5l_a22oi_1
*I *3159:Q O *D sg13cmos5l_dfrbpq_1
*CAP
1 *3335:A 0
2 *2400:A2 0
3 *3159:Q 0.000216783
4 *1162:16 0.00016731
5 *1162:10 0.000384093
6 *1162:10 *1163:10 0
7 *1162:16 *2400:B1 0.00037297
8 *1162:16 *1163:10 0.000288589
9 *1162:16 *1163:32 0.000213701
10 *2400:B2 *1162:16 0.000342035
11 *199:8 *1162:10 0
12 *201:10 *1162:16 0.000501874
13 *204:27 *1162:16 0
*RES
1 *3159:Q *1162:10 22.3484 
2 *1162:10 *1162:16 44.0582 
3 *1162:16 *2400:A2 20 
4 *1162:10 *3335:A 20 
*END

*D_NET *1163 0.00388174
*CONN
*I *2400:B1 I *D sg13cmos5l_a22oi_1
*I *2404:A2 I *D sg13cmos5l_a21o_1
*I *2397:A I *D sg13cmos5l_inv_1
*I *3327:A I *D sg13cmos5l_dlygate4sd3_1
*I *3161:Q O *D sg13cmos5l_dfrbpq_1
*CAP
1 *2400:B1 0.000208909
2 *2404:A2 1.73418e-05
3 *2397:A 0
4 *3327:A 0
5 *3161:Q 0.00020674
6 *1163:32 0.000291816
7 *1163:20 0.000169014
8 *1163:14 0.000558549
9 *1163:10 0.000661842
10 *2400:B2 *2400:B1 0
11 *2400:A1 *2400:B1 4.78524e-05
12 *2406:A *2404:A2 0
13 *2406:A *1163:14 0
14 *3099:CLK *1163:14 0
15 *3197:A *2400:B1 0
16 *187:10 *1163:20 0.000608855
17 *199:8 *1163:10 0
18 *199:8 *1163:14 0
19 *201:10 *1163:10 0
20 *207:8 *2400:B1 0.000235556
21 *208:6 *1163:14 0
22 *215:24 *1163:10 0
23 *331:24 *1163:10 0
24 *331:24 *1163:20 0
25 *331:24 *1163:32 0
26 *665:29 *2400:B1 0
27 *692:8 *1163:10 0
28 *1162:10 *1163:10 0
29 *1162:16 *2400:B1 0.00037297
30 *1162:16 *1163:10 0.000288589
31 *1162:16 *1163:32 0.000213701
*RES
1 *3161:Q *1163:10 42.6162 
2 *1163:10 *1163:14 23.7801 
3 *1163:14 *1163:20 42.8222 
4 *1163:20 *3327:A 20 
5 *1163:14 *2397:A 20 
6 *1163:10 *1163:32 1.0918 
7 *1163:32 *2404:A2 40.3296 
8 *1163:32 *2400:B1 43.1106 
*END
