*SPEF "ieee 1481-1999"
*DESIGN "config_ro"
*DATE "15:02:05 Friday August 07, 2026"
*VENDOR "The OpenROAD Project"
*PROGRAM "OpenROAD"
*VERSION "dcf36133a369abc8f3c5e5738cd4d82e4903c0e0"
*DESIGN_FLOW "NAME_SCOPE LOCAL" "PIN_CAP NONE"
*DIVIDER /
*DELIMITER :
*BUS_DELIMITER []
*T_UNIT 1 NS
*C_UNIT 1 PF
*R_UNIT 1 OHM
*L_UNIT 1 HENRY

*NAME_MAP
*3 enable
*4 osc
*5 stage_en[0]
*6 stage_en[1]
*7 stage_en[2]
*8 stage_en[3]
*9 _00_
*10 _01_
*11 _02_
*12 _03_
*13 _04_
*14 _05_
*15 _06_
*16 _07_
*17 genblk2\[0\]\.load\.ini_buffer\.input_buffer
*18 genblk2\[0\]\.load\.ini_buffer\.out_inv1
*19 genblk2\[0\]\.load\.ini_buffer\.out_inv2
*20 genblk2\[0\]\.load\.ini_buffer\.out_inv4
*21 genblk2\[0\]\.load\.ini_buffer\.output_buffer
*22 genblk2\[0\]\.load\.loads_parallel\[0\]\.sw_buffer\.out_inv1
*23 genblk2\[0\]\.load\.loads_parallel\[0\]\.sw_buffer\.out_inv2
*24 genblk2\[0\]\.load\.loads_parallel\[0\]\.sw_buffer\.out_inv4
*25 genblk2\[0\]\.load\.loads_parallel\[0\]\.sw_buffer\.out_inv8
*26 genblk2\[0\]\.load\.loads_parallel\[0\]\.sw_buffer\.out_nand1
*27 genblk2\[0\]\.load\.output_buffer\[0\]
*28 genblk2\[128\]\.load\.ini_buffer\.input_buffer
*29 genblk2\[128\]\.load\.ini_buffer\.out_inv1
*30 genblk2\[128\]\.load\.ini_buffer\.out_inv2
*31 genblk2\[128\]\.load\.ini_buffer\.out_inv4
*32 genblk2\[128\]\.load\.ini_buffer\.output_buffer
*33 genblk2\[128\]\.load\.loads_parallel\[0\]\.sw_buffer\.out_inv1
*34 genblk2\[128\]\.load\.loads_parallel\[0\]\.sw_buffer\.out_inv2
*35 genblk2\[128\]\.load\.loads_parallel\[0\]\.sw_buffer\.out_inv4
*36 genblk2\[128\]\.load\.loads_parallel\[0\]\.sw_buffer\.out_inv8
*37 genblk2\[128\]\.load\.loads_parallel\[0\]\.sw_buffer\.out_nand1
*38 genblk2\[128\]\.load\.output_buffer\[0\]
*39 genblk2\[160\]\.load\.ini_buffer\.input_buffer
*40 genblk2\[160\]\.load\.ini_buffer\.out_inv1
*41 genblk2\[160\]\.load\.ini_buffer\.out_inv2
*42 genblk2\[160\]\.load\.ini_buffer\.out_inv4
*43 genblk2\[160\]\.load\.ini_buffer\.output_buffer
*44 genblk2\[160\]\.load\.loads_parallel\[0\]\.sw_buffer\.out_inv1
*45 genblk2\[160\]\.load\.loads_parallel\[0\]\.sw_buffer\.out_inv2
*46 genblk2\[160\]\.load\.loads_parallel\[0\]\.sw_buffer\.out_inv4
*47 genblk2\[160\]\.load\.loads_parallel\[0\]\.sw_buffer\.out_inv8
*48 genblk2\[160\]\.load\.loads_parallel\[0\]\.sw_buffer\.out_nand1
*49 genblk2\[160\]\.load\.output_buffer\[0\]
*50 genblk2\[192\]\.load\.ini_buffer\.input_buffer
*51 genblk2\[192\]\.load\.ini_buffer\.out_inv1
*52 genblk2\[192\]\.load\.ini_buffer\.out_inv2
*53 genblk2\[192\]\.load\.ini_buffer\.out_inv4
*54 genblk2\[192\]\.load\.ini_buffer\.output_buffer
*55 genblk2\[192\]\.load\.loads_parallel\[0\]\.sw_buffer\.out_inv1
*56 genblk2\[192\]\.load\.loads_parallel\[0\]\.sw_buffer\.out_inv2
*57 genblk2\[192\]\.load\.loads_parallel\[0\]\.sw_buffer\.out_inv4
*58 genblk2\[192\]\.load\.loads_parallel\[0\]\.sw_buffer\.out_inv8
*59 genblk2\[192\]\.load\.loads_parallel\[0\]\.sw_buffer\.out_nand1
*60 genblk2\[192\]\.load\.output_buffer\[0\]
*61 genblk2\[224\]\.load\.ini_buffer\.input_buffer
*62 genblk2\[224\]\.load\.ini_buffer\.out_inv1
*63 genblk2\[224\]\.load\.ini_buffer\.out_inv2
*64 genblk2\[224\]\.load\.ini_buffer\.out_inv4
*65 genblk2\[224\]\.load\.ini_buffer\.output_buffer
*66 genblk2\[224\]\.load\.loads_parallel\[0\]\.sw_buffer\.out_inv1
*67 genblk2\[224\]\.load\.loads_parallel\[0\]\.sw_buffer\.out_inv2
*68 genblk2\[224\]\.load\.loads_parallel\[0\]\.sw_buffer\.out_inv4
*69 genblk2\[224\]\.load\.loads_parallel\[0\]\.sw_buffer\.out_inv8
*70 genblk2\[224\]\.load\.loads_parallel\[0\]\.sw_buffer\.out_nand1
*71 genblk2\[224\]\.load\.output_buffer\[0\]
*72 genblk2\[256\]\.load\.ini_buffer\.input_buffer
*73 genblk2\[256\]\.load\.ini_buffer\.out_inv1
*74 genblk2\[256\]\.load\.ini_buffer\.out_inv2
*75 genblk2\[256\]\.load\.ini_buffer\.out_inv4
*76 genblk2\[256\]\.load\.ini_buffer\.output_buffer
*77 genblk2\[256\]\.load\.loads_parallel\[0\]\.sw_buffer\.out_inv1
*78 genblk2\[256\]\.load\.loads_parallel\[0\]\.sw_buffer\.out_inv2
*79 genblk2\[256\]\.load\.loads_parallel\[0\]\.sw_buffer\.out_inv4
*80 genblk2\[256\]\.load\.loads_parallel\[0\]\.sw_buffer\.out_inv8
*81 genblk2\[256\]\.load\.loads_parallel\[0\]\.sw_buffer\.out_nand1
*82 genblk2\[256\]\.load\.output_buffer\[0\]
*83 genblk2\[288\]\.load\.ini_buffer\.input_buffer
*84 genblk2\[288\]\.load\.ini_buffer\.out_inv1
*85 genblk2\[288\]\.load\.ini_buffer\.out_inv2
*86 genblk2\[288\]\.load\.ini_buffer\.out_inv4
*87 genblk2\[288\]\.load\.ini_buffer\.output_buffer
*88 genblk2\[288\]\.load\.loads_parallel\[0\]\.sw_buffer\.out_inv1
*89 genblk2\[288\]\.load\.loads_parallel\[0\]\.sw_buffer\.out_inv2
*90 genblk2\[288\]\.load\.loads_parallel\[0\]\.sw_buffer\.out_inv4
*91 genblk2\[288\]\.load\.loads_parallel\[0\]\.sw_buffer\.out_inv8
*92 genblk2\[288\]\.load\.loads_parallel\[0\]\.sw_buffer\.out_nand1
*93 genblk2\[288\]\.load\.output_buffer\[0\]
*94 genblk2\[320\]\.load\.ini_buffer\.input_buffer
*95 genblk2\[320\]\.load\.ini_buffer\.out_inv1
*96 genblk2\[320\]\.load\.ini_buffer\.out_inv2
*97 genblk2\[320\]\.load\.ini_buffer\.out_inv4
*98 genblk2\[320\]\.load\.ini_buffer\.output_buffer
*99 genblk2\[320\]\.load\.loads_parallel\[0\]\.sw_buffer\.out_inv1
*100 genblk2\[320\]\.load\.loads_parallel\[0\]\.sw_buffer\.out_inv2
*101 genblk2\[320\]\.load\.loads_parallel\[0\]\.sw_buffer\.out_inv4
*102 genblk2\[320\]\.load\.loads_parallel\[0\]\.sw_buffer\.out_inv8
*103 genblk2\[320\]\.load\.loads_parallel\[0\]\.sw_buffer\.out_nand1
*104 genblk2\[320\]\.load\.output_buffer\[0\]
*105 genblk2\[32\]\.load\.ini_buffer\.input_buffer
*106 genblk2\[32\]\.load\.ini_buffer\.out_inv1
*107 genblk2\[32\]\.load\.ini_buffer\.out_inv2
*108 genblk2\[32\]\.load\.ini_buffer\.out_inv4
*109 genblk2\[32\]\.load\.ini_buffer\.output_buffer
*110 genblk2\[32\]\.load\.loads_parallel\[0\]\.sw_buffer\.out_inv1
*111 genblk2\[32\]\.load\.loads_parallel\[0\]\.sw_buffer\.out_inv2
*112 genblk2\[32\]\.load\.loads_parallel\[0\]\.sw_buffer\.out_inv4
*113 genblk2\[32\]\.load\.loads_parallel\[0\]\.sw_buffer\.out_inv8
*114 genblk2\[32\]\.load\.loads_parallel\[0\]\.sw_buffer\.out_nand1
*115 genblk2\[32\]\.load\.output_buffer\[0\]
*116 genblk2\[352\]\.load\.ini_buffer\.input_buffer
*117 genblk2\[352\]\.load\.ini_buffer\.out_inv1
*118 genblk2\[352\]\.load\.ini_buffer\.out_inv2
*119 genblk2\[352\]\.load\.ini_buffer\.out_inv4
*120 genblk2\[352\]\.load\.ini_buffer\.output_buffer
*121 genblk2\[352\]\.load\.loads_parallel\[0\]\.sw_buffer\.out_inv1
*122 genblk2\[352\]\.load\.loads_parallel\[0\]\.sw_buffer\.out_inv2
*123 genblk2\[352\]\.load\.loads_parallel\[0\]\.sw_buffer\.out_inv4
*124 genblk2\[352\]\.load\.loads_parallel\[0\]\.sw_buffer\.out_inv8
*125 genblk2\[352\]\.load\.loads_parallel\[0\]\.sw_buffer\.out_nand1
*126 genblk2\[352\]\.load\.output_buffer\[0\]
*127 genblk2\[384\]\.load\.ini_buffer\.input_buffer
*128 genblk2\[384\]\.load\.ini_buffer\.out_inv1
*129 genblk2\[384\]\.load\.ini_buffer\.out_inv2
*130 genblk2\[384\]\.load\.ini_buffer\.out_inv4
*131 genblk2\[384\]\.load\.ini_buffer\.output_buffer
*132 genblk2\[384\]\.load\.loads_parallel\[0\]\.sw_buffer\.out_inv1
*133 genblk2\[384\]\.load\.loads_parallel\[0\]\.sw_buffer\.out_inv2
*134 genblk2\[384\]\.load\.loads_parallel\[0\]\.sw_buffer\.out_inv4
*135 genblk2\[384\]\.load\.loads_parallel\[0\]\.sw_buffer\.out_inv8
*136 genblk2\[384\]\.load\.loads_parallel\[0\]\.sw_buffer\.out_nand1
*137 genblk2\[384\]\.load\.output_buffer\[0\]
*138 genblk2\[416\]\.load\.ini_buffer\.input_buffer
*139 genblk2\[416\]\.load\.ini_buffer\.out_inv1
*140 genblk2\[416\]\.load\.ini_buffer\.out_inv2
*141 genblk2\[416\]\.load\.ini_buffer\.out_inv4
*142 genblk2\[416\]\.load\.ini_buffer\.output_buffer
*143 genblk2\[416\]\.load\.loads_parallel\[0\]\.sw_buffer\.out_inv1
*144 genblk2\[416\]\.load\.loads_parallel\[0\]\.sw_buffer\.out_inv2
*145 genblk2\[416\]\.load\.loads_parallel\[0\]\.sw_buffer\.out_inv4
*146 genblk2\[416\]\.load\.loads_parallel\[0\]\.sw_buffer\.out_inv8
*147 genblk2\[416\]\.load\.loads_parallel\[0\]\.sw_buffer\.out_nand1
*148 genblk2\[416\]\.load\.output_buffer\[0\]
*149 genblk2\[448\]\.load\.ini_buffer\.input_buffer
*150 genblk2\[448\]\.load\.ini_buffer\.out_inv1
*151 genblk2\[448\]\.load\.ini_buffer\.out_inv2
*152 genblk2\[448\]\.load\.ini_buffer\.out_inv4
*153 genblk2\[448\]\.load\.ini_buffer\.output_buffer
*154 genblk2\[448\]\.load\.loads_parallel\[0\]\.sw_buffer\.out_inv1
*155 genblk2\[448\]\.load\.loads_parallel\[0\]\.sw_buffer\.out_inv2
*156 genblk2\[448\]\.load\.loads_parallel\[0\]\.sw_buffer\.out_inv4
*157 genblk2\[448\]\.load\.loads_parallel\[0\]\.sw_buffer\.out_inv8
*158 genblk2\[448\]\.load\.loads_parallel\[0\]\.sw_buffer\.out_nand1
*159 genblk2\[448\]\.load\.output_buffer\[0\]
*160 genblk2\[480\]\.load\.ini_buffer\.input_buffer
*161 genblk2\[480\]\.load\.ini_buffer\.out_inv1
*162 genblk2\[480\]\.load\.ini_buffer\.out_inv2
*163 genblk2\[480\]\.load\.ini_buffer\.out_inv4
*164 genblk2\[480\]\.load\.ini_buffer\.output_buffer
*165 genblk2\[480\]\.load\.loads_parallel\[0\]\.sw_buffer\.out_inv1
*166 genblk2\[480\]\.load\.loads_parallel\[0\]\.sw_buffer\.out_inv2
*167 genblk2\[480\]\.load\.loads_parallel\[0\]\.sw_buffer\.out_inv4
*168 genblk2\[480\]\.load\.loads_parallel\[0\]\.sw_buffer\.out_inv8
*169 genblk2\[480\]\.load\.loads_parallel\[0\]\.sw_buffer\.out_nand1
*170 genblk2\[480\]\.load\.output_buffer\[0\]
*171 genblk2\[512\]\.load\.ini_buffer\.input_buffer
*172 genblk2\[512\]\.load\.ini_buffer\.out_inv1
*173 genblk2\[512\]\.load\.ini_buffer\.out_inv2
*174 genblk2\[512\]\.load\.ini_buffer\.out_inv4
*175 genblk2\[512\]\.load\.ini_buffer\.output_buffer
*176 genblk2\[512\]\.load\.loads_parallel\[0\]\.sw_buffer\.out_inv1
*177 genblk2\[512\]\.load\.loads_parallel\[0\]\.sw_buffer\.out_inv2
*178 genblk2\[512\]\.load\.loads_parallel\[0\]\.sw_buffer\.out_inv4
*179 genblk2\[512\]\.load\.loads_parallel\[0\]\.sw_buffer\.out_inv8
*180 genblk2\[512\]\.load\.loads_parallel\[0\]\.sw_buffer\.out_nand1
*181 genblk2\[512\]\.load\.output_buffer\[0\]
*182 genblk2\[64\]\.load\.ini_buffer\.input_buffer
*183 genblk2\[64\]\.load\.ini_buffer\.out_inv1
*184 genblk2\[64\]\.load\.ini_buffer\.out_inv2
*185 genblk2\[64\]\.load\.ini_buffer\.out_inv4
*186 genblk2\[64\]\.load\.ini_buffer\.output_buffer
*187 genblk2\[64\]\.load\.loads_parallel\[0\]\.sw_buffer\.out_inv1
*188 genblk2\[64\]\.load\.loads_parallel\[0\]\.sw_buffer\.out_inv2
*189 genblk2\[64\]\.load\.loads_parallel\[0\]\.sw_buffer\.out_inv4
*190 genblk2\[64\]\.load\.loads_parallel\[0\]\.sw_buffer\.out_inv8
*191 genblk2\[64\]\.load\.loads_parallel\[0\]\.sw_buffer\.out_nand1
*192 genblk2\[64\]\.load\.output_buffer\[0\]
*193 genblk2\[96\]\.load\.ini_buffer\.input_buffer
*194 genblk2\[96\]\.load\.ini_buffer\.out_inv1
*195 genblk2\[96\]\.load\.ini_buffer\.out_inv2
*196 genblk2\[96\]\.load\.ini_buffer\.out_inv4
*197 genblk2\[96\]\.load\.ini_buffer\.output_buffer
*198 genblk2\[96\]\.load\.loads_parallel\[0\]\.sw_buffer\.out_inv1
*199 genblk2\[96\]\.load\.loads_parallel\[0\]\.sw_buffer\.out_inv2
*200 genblk2\[96\]\.load\.loads_parallel\[0\]\.sw_buffer\.out_inv4
*201 genblk2\[96\]\.load\.loads_parallel\[0\]\.sw_buffer\.out_inv8
*202 genblk2\[96\]\.load\.loads_parallel\[0\]\.sw_buffer\.out_nand1
*203 genblk2\[96\]\.load\.output_buffer\[0\]
*204 inverter_out\[100\]
*205 inverter_out\[101\]
*206 inverter_out\[102\]
*207 inverter_out\[103\]
*208 inverter_out\[104\]
*209 inverter_out\[105\]
*210 inverter_out\[106\]
*211 inverter_out\[107\]
*212 inverter_out\[108\]
*213 inverter_out\[109\]
*214 inverter_out\[10\]
*215 inverter_out\[110\]
*216 inverter_out\[111\]
*217 inverter_out\[112\]
*218 inverter_out\[113\]
*219 inverter_out\[114\]
*220 inverter_out\[115\]
*221 inverter_out\[116\]
*222 inverter_out\[117\]
*223 inverter_out\[118\]
*224 inverter_out\[119\]
*225 inverter_out\[11\]
*226 inverter_out\[120\]
*227 inverter_out\[121\]
*228 inverter_out\[122\]
*229 inverter_out\[123\]
*230 inverter_out\[124\]
*231 inverter_out\[125\]
*232 inverter_out\[126\]
*233 inverter_out\[127\]
*234 inverter_out\[128\]
*235 inverter_out\[129\]
*236 inverter_out\[12\]
*237 inverter_out\[130\]
*238 inverter_out\[131\]
*239 inverter_out\[132\]
*240 inverter_out\[133\]
*241 inverter_out\[134\]
*242 inverter_out\[135\]
*243 inverter_out\[136\]
*244 inverter_out\[137\]
*245 inverter_out\[138\]
*246 inverter_out\[139\]
*247 inverter_out\[13\]
*248 inverter_out\[140\]
*249 inverter_out\[141\]
*250 inverter_out\[142\]
*251 inverter_out\[143\]
*252 inverter_out\[144\]
*253 inverter_out\[145\]
*254 inverter_out\[146\]
*255 inverter_out\[147\]
*256 inverter_out\[148\]
*257 inverter_out\[149\]
*258 inverter_out\[14\]
*259 inverter_out\[150\]
*260 inverter_out\[151\]
*261 inverter_out\[152\]
*262 inverter_out\[153\]
*263 inverter_out\[154\]
*264 inverter_out\[155\]
*265 inverter_out\[156\]
*266 inverter_out\[157\]
*267 inverter_out\[158\]
*268 inverter_out\[159\]
*269 inverter_out\[15\]
*270 inverter_out\[161\]
*271 inverter_out\[162\]
*272 inverter_out\[163\]
*273 inverter_out\[164\]
*274 inverter_out\[165\]
*275 inverter_out\[166\]
*276 inverter_out\[167\]
*277 inverter_out\[168\]
*278 inverter_out\[169\]
*279 inverter_out\[16\]
*280 inverter_out\[170\]
*281 inverter_out\[171\]
*282 inverter_out\[172\]
*283 inverter_out\[173\]
*284 inverter_out\[174\]
*285 inverter_out\[175\]
*286 inverter_out\[176\]
*287 inverter_out\[177\]
*288 inverter_out\[178\]
*289 inverter_out\[179\]
*290 inverter_out\[17\]
*291 inverter_out\[180\]
*292 inverter_out\[181\]
*293 inverter_out\[182\]
*294 inverter_out\[183\]
*295 inverter_out\[184\]
*296 inverter_out\[185\]
*297 inverter_out\[186\]
*298 inverter_out\[187\]
*299 inverter_out\[188\]
*300 inverter_out\[189\]
*301 inverter_out\[18\]
*302 inverter_out\[190\]
*303 inverter_out\[191\]
*304 inverter_out\[193\]
*305 inverter_out\[194\]
*306 inverter_out\[195\]
*307 inverter_out\[196\]
*308 inverter_out\[197\]
*309 inverter_out\[198\]
*310 inverter_out\[199\]
*311 inverter_out\[19\]
*312 inverter_out\[1\]
*313 inverter_out\[200\]
*314 inverter_out\[201\]
*315 inverter_out\[202\]
*316 inverter_out\[203\]
*317 inverter_out\[204\]
*318 inverter_out\[205\]
*319 inverter_out\[206\]
*320 inverter_out\[207\]
*321 inverter_out\[208\]
*322 inverter_out\[209\]
*323 inverter_out\[20\]
*324 inverter_out\[210\]
*325 inverter_out\[211\]
*326 inverter_out\[212\]
*327 inverter_out\[213\]
*328 inverter_out\[214\]
*329 inverter_out\[215\]
*330 inverter_out\[216\]
*331 inverter_out\[217\]
*332 inverter_out\[218\]
*333 inverter_out\[219\]
*334 inverter_out\[21\]
*335 inverter_out\[220\]
*336 inverter_out\[221\]
*337 inverter_out\[222\]
*338 inverter_out\[223\]
*339 inverter_out\[225\]
*340 inverter_out\[226\]
*341 inverter_out\[227\]
*342 inverter_out\[228\]
*343 inverter_out\[229\]
*344 inverter_out\[22\]
*345 inverter_out\[230\]
*346 inverter_out\[231\]
*347 inverter_out\[232\]
*348 inverter_out\[233\]
*349 inverter_out\[234\]
*350 inverter_out\[235\]
*351 inverter_out\[236\]
*352 inverter_out\[237\]
*353 inverter_out\[238\]
*354 inverter_out\[239\]
*355 inverter_out\[23\]
*356 inverter_out\[240\]
*357 inverter_out\[241\]
*358 inverter_out\[242\]
*359 inverter_out\[243\]
*360 inverter_out\[244\]
*361 inverter_out\[245\]
*362 inverter_out\[246\]
*363 inverter_out\[247\]
*364 inverter_out\[248\]
*365 inverter_out\[249\]
*366 inverter_out\[24\]
*367 inverter_out\[250\]
*368 inverter_out\[251\]
*369 inverter_out\[252\]
*370 inverter_out\[253\]
*371 inverter_out\[254\]
*372 inverter_out\[255\]
*373 inverter_out\[256\]
*374 inverter_out\[257\]
*375 inverter_out\[258\]
*376 inverter_out\[259\]
*377 inverter_out\[25\]
*378 inverter_out\[260\]
*379 inverter_out\[261\]
*380 inverter_out\[262\]
*381 inverter_out\[263\]
*382 inverter_out\[264\]
*383 inverter_out\[265\]
*384 inverter_out\[266\]
*385 inverter_out\[267\]
*386 inverter_out\[268\]
*387 inverter_out\[269\]
*388 inverter_out\[26\]
*389 inverter_out\[270\]
*390 inverter_out\[271\]
*391 inverter_out\[272\]
*392 inverter_out\[273\]
*393 inverter_out\[274\]
*394 inverter_out\[275\]
*395 inverter_out\[276\]
*396 inverter_out\[277\]
*397 inverter_out\[278\]
*398 inverter_out\[279\]
*399 inverter_out\[27\]
*400 inverter_out\[280\]
*401 inverter_out\[281\]
*402 inverter_out\[282\]
*403 inverter_out\[283\]
*404 inverter_out\[284\]
*405 inverter_out\[285\]
*406 inverter_out\[286\]
*407 inverter_out\[287\]
*408 inverter_out\[289\]
*409 inverter_out\[28\]
*410 inverter_out\[290\]
*411 inverter_out\[291\]
*412 inverter_out\[292\]
*413 inverter_out\[293\]
*414 inverter_out\[294\]
*415 inverter_out\[295\]
*416 inverter_out\[296\]
*417 inverter_out\[297\]
*418 inverter_out\[298\]
*419 inverter_out\[299\]
*420 inverter_out\[29\]
*421 inverter_out\[2\]
*422 inverter_out\[300\]
*423 inverter_out\[301\]
*424 inverter_out\[302\]
*425 inverter_out\[303\]
*426 inverter_out\[304\]
*427 inverter_out\[305\]
*428 inverter_out\[306\]
*429 inverter_out\[307\]
*430 inverter_out\[308\]
*431 inverter_out\[309\]
*432 inverter_out\[30\]
*433 inverter_out\[310\]
*434 inverter_out\[311\]
*435 inverter_out\[312\]
*436 inverter_out\[313\]
*437 inverter_out\[314\]
*438 inverter_out\[315\]
*439 inverter_out\[316\]
*440 inverter_out\[317\]
*441 inverter_out\[318\]
*442 inverter_out\[319\]
*443 inverter_out\[31\]
*444 inverter_out\[321\]
*445 inverter_out\[322\]
*446 inverter_out\[323\]
*447 inverter_out\[324\]
*448 inverter_out\[325\]
*449 inverter_out\[326\]
*450 inverter_out\[327\]
*451 inverter_out\[328\]
*452 inverter_out\[329\]
*453 inverter_out\[330\]
*454 inverter_out\[331\]
*455 inverter_out\[332\]
*456 inverter_out\[333\]
*457 inverter_out\[334\]
*458 inverter_out\[335\]
*459 inverter_out\[336\]
*460 inverter_out\[337\]
*461 inverter_out\[338\]
*462 inverter_out\[339\]
*463 inverter_out\[33\]
*464 inverter_out\[340\]
*465 inverter_out\[341\]
*466 inverter_out\[342\]
*467 inverter_out\[343\]
*468 inverter_out\[344\]
*469 inverter_out\[345\]
*470 inverter_out\[346\]
*471 inverter_out\[347\]
*472 inverter_out\[348\]
*473 inverter_out\[349\]
*474 inverter_out\[34\]
*475 inverter_out\[350\]
*476 inverter_out\[351\]
*477 inverter_out\[353\]
*478 inverter_out\[354\]
*479 inverter_out\[355\]
*480 inverter_out\[356\]
*481 inverter_out\[357\]
*482 inverter_out\[358\]
*483 inverter_out\[359\]
*484 inverter_out\[35\]
*485 inverter_out\[360\]
*486 inverter_out\[361\]
*487 inverter_out\[362\]
*488 inverter_out\[363\]
*489 inverter_out\[364\]
*490 inverter_out\[365\]
*491 inverter_out\[366\]
*492 inverter_out\[367\]
*493 inverter_out\[368\]
*494 inverter_out\[369\]
*495 inverter_out\[36\]
*496 inverter_out\[370\]
*497 inverter_out\[371\]
*498 inverter_out\[372\]
*499 inverter_out\[373\]
*500 inverter_out\[374\]
*501 inverter_out\[375\]
*502 inverter_out\[376\]
*503 inverter_out\[377\]
*504 inverter_out\[378\]
*505 inverter_out\[379\]
*506 inverter_out\[37\]
*507 inverter_out\[380\]
*508 inverter_out\[381\]
*509 inverter_out\[382\]
*510 inverter_out\[383\]
*511 inverter_out\[384\]
*512 inverter_out\[385\]
*513 inverter_out\[386\]
*514 inverter_out\[387\]
*515 inverter_out\[388\]
*516 inverter_out\[389\]
*517 inverter_out\[38\]
*518 inverter_out\[390\]
*519 inverter_out\[391\]
*520 inverter_out\[392\]
*521 inverter_out\[393\]
*522 inverter_out\[394\]
*523 inverter_out\[395\]
*524 inverter_out\[396\]
*525 inverter_out\[397\]
*526 inverter_out\[398\]
*527 inverter_out\[399\]
*528 inverter_out\[39\]
*529 inverter_out\[3\]
*530 inverter_out\[400\]
*531 inverter_out\[401\]
*532 inverter_out\[402\]
*533 inverter_out\[403\]
*534 inverter_out\[404\]
*535 inverter_out\[405\]
*536 inverter_out\[406\]
*537 inverter_out\[407\]
*538 inverter_out\[408\]
*539 inverter_out\[409\]
*540 inverter_out\[40\]
*541 inverter_out\[410\]
*542 inverter_out\[411\]
*543 inverter_out\[412\]
*544 inverter_out\[413\]
*545 inverter_out\[414\]
*546 inverter_out\[415\]
*547 inverter_out\[417\]
*548 inverter_out\[418\]
*549 inverter_out\[419\]
*550 inverter_out\[41\]
*551 inverter_out\[420\]
*552 inverter_out\[421\]
*553 inverter_out\[422\]
*554 inverter_out\[423\]
*555 inverter_out\[424\]
*556 inverter_out\[425\]
*557 inverter_out\[426\]
*558 inverter_out\[427\]
*559 inverter_out\[428\]
*560 inverter_out\[429\]
*561 inverter_out\[42\]
*562 inverter_out\[430\]
*563 inverter_out\[431\]
*564 inverter_out\[432\]
*565 inverter_out\[433\]
*566 inverter_out\[434\]
*567 inverter_out\[435\]
*568 inverter_out\[436\]
*569 inverter_out\[437\]
*570 inverter_out\[438\]
*571 inverter_out\[439\]
*572 inverter_out\[43\]
*573 inverter_out\[440\]
*574 inverter_out\[441\]
*575 inverter_out\[442\]
*576 inverter_out\[443\]
*577 inverter_out\[444\]
*578 inverter_out\[445\]
*579 inverter_out\[446\]
*580 inverter_out\[447\]
*581 inverter_out\[449\]
*582 inverter_out\[44\]
*583 inverter_out\[450\]
*584 inverter_out\[451\]
*585 inverter_out\[452\]
*586 inverter_out\[453\]
*587 inverter_out\[454\]
*588 inverter_out\[455\]
*589 inverter_out\[456\]
*590 inverter_out\[457\]
*591 inverter_out\[458\]
*592 inverter_out\[459\]
*593 inverter_out\[45\]
*594 inverter_out\[460\]
*595 inverter_out\[461\]
*596 inverter_out\[462\]
*597 inverter_out\[463\]
*598 inverter_out\[464\]
*599 inverter_out\[465\]
*600 inverter_out\[466\]
*601 inverter_out\[467\]
*602 inverter_out\[468\]
*603 inverter_out\[469\]
*604 inverter_out\[46\]
*605 inverter_out\[470\]
*606 inverter_out\[471\]
*607 inverter_out\[472\]
*608 inverter_out\[473\]
*609 inverter_out\[474\]
*610 inverter_out\[475\]
*611 inverter_out\[476\]
*612 inverter_out\[477\]
*613 inverter_out\[478\]
*614 inverter_out\[479\]
*615 inverter_out\[47\]
*616 inverter_out\[481\]
*617 inverter_out\[482\]
*618 inverter_out\[483\]
*619 inverter_out\[484\]
*620 inverter_out\[485\]
*621 inverter_out\[486\]
*622 inverter_out\[487\]
*623 inverter_out\[488\]
*624 inverter_out\[489\]
*625 inverter_out\[48\]
*626 inverter_out\[490\]
*627 inverter_out\[491\]
*628 inverter_out\[492\]
*629 inverter_out\[493\]
*630 inverter_out\[494\]
*631 inverter_out\[495\]
*632 inverter_out\[496\]
*633 inverter_out\[497\]
*634 inverter_out\[498\]
*635 inverter_out\[499\]
*636 inverter_out\[49\]
*637 inverter_out\[4\]
*638 inverter_out\[500\]
*639 inverter_out\[501\]
*640 inverter_out\[502\]
*641 inverter_out\[503\]
*642 inverter_out\[504\]
*643 inverter_out\[505\]
*644 inverter_out\[506\]
*645 inverter_out\[507\]
*646 inverter_out\[508\]
*647 inverter_out\[509\]
*648 inverter_out\[50\]
*649 inverter_out\[510\]
*650 inverter_out\[511\]
*651 inverter_out\[512\]
*652 inverter_out\[51\]
*653 inverter_out\[52\]
*654 inverter_out\[53\]
*655 inverter_out\[54\]
*656 inverter_out\[55\]
*657 inverter_out\[56\]
*658 inverter_out\[57\]
*659 inverter_out\[58\]
*660 inverter_out\[59\]
*661 inverter_out\[5\]
*662 inverter_out\[60\]
*663 inverter_out\[61\]
*664 inverter_out\[62\]
*665 inverter_out\[63\]
*666 inverter_out\[65\]
*667 inverter_out\[66\]
*668 inverter_out\[67\]
*669 inverter_out\[68\]
*670 inverter_out\[69\]
*671 inverter_out\[6\]
*672 inverter_out\[70\]
*673 inverter_out\[71\]
*674 inverter_out\[72\]
*675 inverter_out\[73\]
*676 inverter_out\[74\]
*677 inverter_out\[75\]
*678 inverter_out\[76\]
*679 inverter_out\[77\]
*680 inverter_out\[78\]
*681 inverter_out\[79\]
*682 inverter_out\[7\]
*683 inverter_out\[80\]
*684 inverter_out\[81\]
*685 inverter_out\[82\]
*686 inverter_out\[83\]
*687 inverter_out\[84\]
*688 inverter_out\[85\]
*689 inverter_out\[86\]
*690 inverter_out\[87\]
*691 inverter_out\[88\]
*692 inverter_out\[89\]
*693 inverter_out\[8\]
*694 inverter_out\[90\]
*695 inverter_out\[91\]
*696 inverter_out\[92\]
*697 inverter_out\[93\]
*698 inverter_out\[94\]
*699 inverter_out\[95\]
*700 inverter_out\[97\]
*701 inverter_out\[98\]
*702 inverter_out\[99\]
*703 inverter_out\[9\]
*704 net
*705 net1
*706 net10
*707 net11
*708 net12
*709 net13
*710 net14
*711 net15
*712 net16
*713 net17
*714 net18
*715 net19
*716 net2
*717 net20
*718 net21
*719 net22
*720 net3
*721 net4
*722 net5
*723 net6
*724 net7
*725 net8
*726 net9
*727 FILLER_0_0
*728 FILLER_0_123
*729 FILLER_0_130
*730 FILLER_0_134
*731 FILLER_0_166
*732 FILLER_0_168
*733 FILLER_0_17
*734 FILLER_0_209
*735 FILLER_0_227
*736 FILLER_0_234
*737 FILLER_0_236
*738 FILLER_0_24
*739 FILLER_0_307
*740 FILLER_0_31
*741 FILLER_0_332
*742 FILLER_0_334
*743 FILLER_0_338
*744 FILLER_0_340
*745 FILLER_0_391
*746 FILLER_0_398
*747 FILLER_0_52
*748 FILLER_10_123
*749 FILLER_10_130
*750 FILLER_10_137
*751 FILLER_10_178
*752 FILLER_10_185
*753 FILLER_10_189
*754 FILLER_10_19
*755 FILLER_10_21
*756 FILLER_10_220
*757 FILLER_10_227
*758 FILLER_10_234
*759 FILLER_10_236
*760 FILLER_10_247
*761 FILLER_10_258
*762 FILLER_10_26
*763 FILLER_10_269
*764 FILLER_10_28
*765 FILLER_10_317
*766 FILLER_10_329
*767 FILLER_10_336
*768 FILLER_10_340
*769 FILLER_10_351
*770 FILLER_10_355
*771 FILLER_10_78
*772 FILLER_10_92
*773 FILLER_11_0
*774 FILLER_11_123
*775 FILLER_11_130
*776 FILLER_11_137
*777 FILLER_11_17
*778 FILLER_11_198
*779 FILLER_11_205
*780 FILLER_11_21
*781 FILLER_11_212
*782 FILLER_11_226
*783 FILLER_11_230
*784 FILLER_11_234
*785 FILLER_11_236
*786 FILLER_11_26
*787 FILLER_11_28
*788 FILLER_11_327
*789 FILLER_11_334
*790 FILLER_11_351
*791 FILLER_11_355
*792 FILLER_11_376
*793 FILLER_11_398
*794 FILLER_12_123
*795 FILLER_12_130
*796 FILLER_12_132
*797 FILLER_12_153
*798 FILLER_12_160
*799 FILLER_12_171
*800 FILLER_12_18
*801 FILLER_12_195
*802 FILLER_12_222
*803 FILLER_12_229
*804 FILLER_12_236
*805 FILLER_12_26
*806 FILLER_12_261
*807 FILLER_12_268
*808 FILLER_12_275
*809 FILLER_12_287
*810 FILLER_12_291
*811 FILLER_12_302
*812 FILLER_12_319
*813 FILLER_12_321
*814 FILLER_12_332
*815 FILLER_12_339
*816 FILLER_12_351
*817 FILLER_12_355
*818 FILLER_12_367
*819 FILLER_12_394
*820 FILLER_13_0
*821 FILLER_13_123
*822 FILLER_13_130
*823 FILLER_13_137
*824 FILLER_13_139
*825 FILLER_13_17
*826 FILLER_13_190
*827 FILLER_13_202
*828 FILLER_13_21
*829 FILLER_13_216
*830 FILLER_13_228
*831 FILLER_13_230
*832 FILLER_13_234
*833 FILLER_13_236
*834 FILLER_13_26
*835 FILLER_13_268
*836 FILLER_13_28
*837 FILLER_13_330
*838 FILLER_13_337
*839 FILLER_13_351
*840 FILLER_13_355
*841 FILLER_13_377
*842 FILLER_13_381
*843 FILLER_13_393
*844 FILLER_14_0
*845 FILLER_14_102
*846 FILLER_14_123
*847 FILLER_14_130
*848 FILLER_14_137
*849 FILLER_14_151
*850 FILLER_14_162
*851 FILLER_14_169
*852 FILLER_14_18
*853 FILLER_14_186
*854 FILLER_14_213
*855 FILLER_14_228
*856 FILLER_14_235
*857 FILLER_14_26
*858 FILLER_14_276
*859 FILLER_14_280
*860 FILLER_14_291
*861 FILLER_14_30
*862 FILLER_14_318
*863 FILLER_14_332
*864 FILLER_14_339
*865 FILLER_14_351
*866 FILLER_14_355
*867 FILLER_14_377
*868 FILLER_14_381
*869 FILLER_14_393
*870 FILLER_14_7
*871 FILLER_14_81
*872 FILLER_15_123
*873 FILLER_15_130
*874 FILLER_15_132
*875 FILLER_15_153
*876 FILLER_15_157
*877 FILLER_15_179
*878 FILLER_15_183
*879 FILLER_15_19
*880 FILLER_15_194
*881 FILLER_15_205
*882 FILLER_15_207
*883 FILLER_15_21
*884 FILLER_15_228
*885 FILLER_15_230
*886 FILLER_15_234
*887 FILLER_15_236
*888 FILLER_15_247
*889 FILLER_15_26
*890 FILLER_15_269
*891 FILLER_15_274
*892 FILLER_15_28
*893 FILLER_15_286
*894 FILLER_15_332
*895 FILLER_15_339
*896 FILLER_15_381
*897 FILLER_15_393
*898 FILLER_15_4
*899 FILLER_15_8
*900 FILLER_15_80
*901 FILLER_15_91
*902 FILLER_16_0
*903 FILLER_16_123
*904 FILLER_16_130
*905 FILLER_16_137
*906 FILLER_16_19
*907 FILLER_16_21
*908 FILLER_16_228
*909 FILLER_16_235
*910 FILLER_16_26
*911 FILLER_16_28
*912 FILLER_16_297
*913 FILLER_16_329
*914 FILLER_16_336
*915 FILLER_16_340
*916 FILLER_16_371
*917 FILLER_16_39
*918 FILLER_16_393
*919 FILLER_16_50
*920 FILLER_16_7
*921 FILLER_16_71
*922 FILLER_17_0
*923 FILLER_17_123
*924 FILLER_17_130
*925 FILLER_17_132
*926 FILLER_17_137
*927 FILLER_17_139
*928 FILLER_17_160
*929 FILLER_17_184
*930 FILLER_17_19
*931 FILLER_17_198
*932 FILLER_17_210
*933 FILLER_17_214
*934 FILLER_17_226
*935 FILLER_17_233
*936 FILLER_17_240
*937 FILLER_17_244
*938 FILLER_17_255
*939 FILLER_17_26
*940 FILLER_17_271
*941 FILLER_17_28
*942 FILLER_17_282
*943 FILLER_17_294
*944 FILLER_17_325
*945 FILLER_17_332
*946 FILLER_17_339
*947 FILLER_17_381
*948 FILLER_17_393
*949 FILLER_17_58
*950 FILLER_17_7
*951 FILLER_18_0
*952 FILLER_18_123
*953 FILLER_18_130
*954 FILLER_18_132
*955 FILLER_18_143
*956 FILLER_18_19
*957 FILLER_18_225
*958 FILLER_18_232
*959 FILLER_18_239
*960 FILLER_18_241
*961 FILLER_18_26
*962 FILLER_18_329
*963 FILLER_18_33
*964 FILLER_18_336
*965 FILLER_18_340
*966 FILLER_18_37
*967 FILLER_18_391
*968 FILLER_18_398
*969 FILLER_18_7
*970 FILLER_19_123
*971 FILLER_19_130
*972 FILLER_19_132
*973 FILLER_19_153
*974 FILLER_19_164
*975 FILLER_19_171
*976 FILLER_19_178
*977 FILLER_19_19
*978 FILLER_19_205
*979 FILLER_19_212
*980 FILLER_19_216
*981 FILLER_19_228
*982 FILLER_19_235
*983 FILLER_19_257
*984 FILLER_19_26
*985 FILLER_19_267
*986 FILLER_19_320
*987 FILLER_19_33
*988 FILLER_19_332
*989 FILLER_19_334
*990 FILLER_19_338
*991 FILLER_19_340
*992 FILLER_19_380
*993 FILLER_19_391
*994 FILLER_19_398
*995 FILLER_19_4
*996 FILLER_19_45
*997 FILLER_19_62
*998 FILLER_19_8
*999 FILLER_1_123
*1000 FILLER_1_130
*1001 FILLER_1_134
*1002 FILLER_1_145
*1003 FILLER_1_147
*1004 FILLER_1_17
*1005 FILLER_1_21
*1006 FILLER_1_228
*1007 FILLER_1_235
*1008 FILLER_1_26
*1009 FILLER_1_277
*1010 FILLER_1_28
*1011 FILLER_1_332
*1012 FILLER_1_334
*1013 FILLER_1_338
*1014 FILLER_1_342
*1015 FILLER_1_393
*1016 FILLER_1_4
*1017 FILLER_1_6
*1018 FILLER_2_0
*1019 FILLER_2_123
*1020 FILLER_2_130
*1021 FILLER_2_132
*1022 FILLER_2_153
*1023 FILLER_2_17
*1024 FILLER_2_170
*1025 FILLER_2_174
*1026 FILLER_2_21
*1027 FILLER_2_216
*1028 FILLER_2_228
*1029 FILLER_2_230
*1030 FILLER_2_234
*1031 FILLER_2_236
*1032 FILLER_2_26
*1033 FILLER_2_271
*1034 FILLER_2_28
*1035 FILLER_2_313
*1036 FILLER_2_330
*1037 FILLER_2_337
*1038 FILLER_2_371
*1039 FILLER_2_373
*1040 FILLER_2_394
*1041 FILLER_2_398
*1042 FILLER_2_62
*1043 FILLER_3_0
*1044 FILLER_3_123
*1045 FILLER_3_130
*1046 FILLER_3_132
*1047 FILLER_3_137
*1048 FILLER_3_17
*1049 FILLER_3_181
*1050 FILLER_3_185
*1051 FILLER_3_206
*1052 FILLER_3_21
*1053 FILLER_3_227
*1054 FILLER_3_234
*1055 FILLER_3_26
*1056 FILLER_3_294
*1057 FILLER_3_332
*1058 FILLER_3_339
*1059 FILLER_3_381
*1060 FILLER_3_383
*1061 FILLER_3_394
*1062 FILLER_3_398
*1063 FILLER_3_46
*1064 FILLER_3_76
*1065 FILLER_4_0
*1066 FILLER_4_123
*1067 FILLER_4_130
*1068 FILLER_4_144
*1069 FILLER_4_17
*1070 FILLER_4_191
*1071 FILLER_4_198
*1072 FILLER_4_21
*1073 FILLER_4_228
*1074 FILLER_4_230
*1075 FILLER_4_234
*1076 FILLER_4_236
*1077 FILLER_4_26
*1078 FILLER_4_261
*1079 FILLER_4_28
*1080 FILLER_4_319
*1081 FILLER_4_321
*1082 FILLER_4_332
*1083 FILLER_4_339
*1084 FILLER_4_347
*1085 FILLER_4_349
*1086 FILLER_4_370
*1087 FILLER_4_381
*1088 FILLER_4_392
*1089 FILLER_4_399
*1090 FILLER_4_59
*1091 FILLER_4_92
*1092 FILLER_5_123
*1093 FILLER_5_130
*1094 FILLER_5_137
*1095 FILLER_5_169
*1096 FILLER_5_176
*1097 FILLER_5_19
*1098 FILLER_5_208
*1099 FILLER_5_21
*1100 FILLER_5_222
*1101 FILLER_5_228
*1102 FILLER_5_235
*1103 FILLER_5_26
*1104 FILLER_5_28
*1105 FILLER_5_332
*1106 FILLER_5_339
*1107 FILLER_5_341
*1108 FILLER_5_392
*1109 FILLER_5_399
*1110 FILLER_5_52
*1111 FILLER_6_123
*1112 FILLER_6_130
*1113 FILLER_6_137
*1114 FILLER_6_16
*1115 FILLER_6_20
*1116 FILLER_6_228
*1117 FILLER_6_235
*1118 FILLER_6_26
*1119 FILLER_6_267
*1120 FILLER_6_274
*1121 FILLER_6_278
*1122 FILLER_6_28
*1123 FILLER_6_332
*1124 FILLER_6_339
*1125 FILLER_6_371
*1126 FILLER_6_4
*1127 FILLER_6_45
*1128 FILLER_6_68
*1129 FILLER_7_0
*1130 FILLER_7_102
*1131 FILLER_7_123
*1132 FILLER_7_130
*1133 FILLER_7_16
*1134 FILLER_7_167
*1135 FILLER_7_189
*1136 FILLER_7_193
*1137 FILLER_7_20
*1138 FILLER_7_217
*1139 FILLER_7_228
*1140 FILLER_7_235
*1141 FILLER_7_257
*1142 FILLER_7_26
*1143 FILLER_7_268
*1144 FILLER_7_28
*1145 FILLER_7_290
*1146 FILLER_7_294
*1147 FILLER_7_329
*1148 FILLER_7_336
*1149 FILLER_7_340
*1150 FILLER_7_361
*1151 FILLER_7_4
*1152 FILLER_7_91
*1153 FILLER_8_123
*1154 FILLER_8_130
*1155 FILLER_8_157
*1156 FILLER_8_168
*1157 FILLER_8_19
*1158 FILLER_8_21
*1159 FILLER_8_217
*1160 FILLER_8_228
*1161 FILLER_8_235
*1162 FILLER_8_26
*1163 FILLER_8_277
*1164 FILLER_8_28
*1165 FILLER_8_284
*1166 FILLER_8_329
*1167 FILLER_8_336
*1168 FILLER_8_340
*1169 FILLER_8_4
*1170 FILLER_8_69
*1171 FILLER_8_80
*1172 FILLER_8_84
*1173 FILLER_8_99
*1174 FILLER_9_0
*1175 FILLER_9_111
*1176 FILLER_9_123
*1177 FILLER_9_130
*1178 FILLER_9_132
*1179 FILLER_9_143
*1180 FILLER_9_147
*1181 FILLER_9_17
*1182 FILLER_9_202
*1183 FILLER_9_204
*1184 FILLER_9_209
*1185 FILLER_9_21
*1186 FILLER_9_226
*1187 FILLER_9_233
*1188 FILLER_9_257
*1189 FILLER_9_26
*1190 FILLER_9_262
*1191 FILLER_9_28
*1192 FILLER_9_287
*1193 FILLER_9_307
*1194 FILLER_9_332
*1195 FILLER_9_339
*1196 FILLER_9_351
*1197 FILLER_9_355
*1198 FILLER_9_367
*1199 FILLER_9_398
*1200 _25_
*1201 _26_
*1202 _27_
*1203 _28_
*1204 _29_
*1205 _30_
*1206 _31_
*1207 _32_
*1208 _33_
*1209 _34_
*1210 _35_
*1211 _36_
*1212 _37_
*1213 genblk1\[0\]\.genblk1\.inverter_inst
*1214 genblk1\[100\]\.genblk1\.genblk1\.inverter_inst
*1215 genblk1\[101\]\.genblk1\.genblk1\.inverter_inst
*1216 genblk1\[102\]\.genblk1\.genblk1\.inverter_inst
*1217 genblk1\[103\]\.genblk1\.genblk1\.inverter_inst
*1218 genblk1\[104\]\.genblk1\.genblk1\.inverter_inst
*1219 genblk1\[105\]\.genblk1\.genblk1\.inverter_inst
*1220 genblk1\[106\]\.genblk1\.genblk1\.inverter_inst
*1221 genblk1\[107\]\.genblk1\.genblk1\.inverter_inst
*1222 genblk1\[108\]\.genblk1\.genblk1\.inverter_inst
*1223 genblk1\[109\]\.genblk1\.genblk1\.inverter_inst
*1224 genblk1\[10\]\.genblk1\.genblk1\.inverter_inst
*1225 genblk1\[110\]\.genblk1\.genblk1\.inverter_inst
*1226 genblk1\[111\]\.genblk1\.genblk1\.inverter_inst
*1227 genblk1\[112\]\.genblk1\.genblk1\.inverter_inst
*1228 genblk1\[113\]\.genblk1\.genblk1\.inverter_inst
*1229 genblk1\[114\]\.genblk1\.genblk1\.inverter_inst
*1230 genblk1\[115\]\.genblk1\.genblk1\.inverter_inst
*1231 genblk1\[116\]\.genblk1\.genblk1\.inverter_inst
*1232 genblk1\[117\]\.genblk1\.genblk1\.inverter_inst
*1233 genblk1\[118\]\.genblk1\.genblk1\.inverter_inst
*1234 genblk1\[119\]\.genblk1\.genblk1\.inverter_inst
*1235 genblk1\[11\]\.genblk1\.genblk1\.inverter_inst
*1236 genblk1\[120\]\.genblk1\.genblk1\.inverter_inst
*1237 genblk1\[121\]\.genblk1\.genblk1\.inverter_inst
*1238 genblk1\[122\]\.genblk1\.genblk1\.inverter_inst
*1239 genblk1\[123\]\.genblk1\.genblk1\.inverter_inst
*1240 genblk1\[124\]\.genblk1\.genblk1\.inverter_inst
*1241 genblk1\[125\]\.genblk1\.genblk1\.inverter_inst
*1242 genblk1\[126\]\.genblk1\.genblk1\.inverter_inst
*1243 genblk1\[127\]\.genblk1\.genblk1\.inverter_inst
*1244 genblk1\[128\]\.genblk1\.genblk1\.inverter_inst
*1245 genblk1\[129\]\.genblk1\.genblk1\.inverter_inst
*1246 genblk1\[12\]\.genblk1\.genblk1\.inverter_inst
*1247 genblk1\[130\]\.genblk1\.genblk1\.inverter_inst
*1248 genblk1\[131\]\.genblk1\.genblk1\.inverter_inst
*1249 genblk1\[132\]\.genblk1\.genblk1\.inverter_inst
*1250 genblk1\[133\]\.genblk1\.genblk1\.inverter_inst
*1251 genblk1\[134\]\.genblk1\.genblk1\.inverter_inst
*1252 genblk1\[135\]\.genblk1\.genblk1\.inverter_inst
*1253 genblk1\[136\]\.genblk1\.genblk1\.inverter_inst
*1254 genblk1\[137\]\.genblk1\.genblk1\.inverter_inst
*1255 genblk1\[138\]\.genblk1\.genblk1\.inverter_inst
*1256 genblk1\[139\]\.genblk1\.genblk1\.inverter_inst
*1257 genblk1\[13\]\.genblk1\.genblk1\.inverter_inst
*1258 genblk1\[140\]\.genblk1\.genblk1\.inverter_inst
*1259 genblk1\[141\]\.genblk1\.genblk1\.inverter_inst
*1260 genblk1\[142\]\.genblk1\.genblk1\.inverter_inst
*1261 genblk1\[143\]\.genblk1\.genblk1\.inverter_inst
*1262 genblk1\[144\]\.genblk1\.genblk1\.inverter_inst
*1263 genblk1\[145\]\.genblk1\.genblk1\.inverter_inst
*1264 genblk1\[146\]\.genblk1\.genblk1\.inverter_inst
*1265 genblk1\[147\]\.genblk1\.genblk1\.inverter_inst
*1266 genblk1\[148\]\.genblk1\.genblk1\.inverter_inst
*1267 genblk1\[149\]\.genblk1\.genblk1\.inverter_inst
*1268 genblk1\[14\]\.genblk1\.genblk1\.inverter_inst
*1269 genblk1\[150\]\.genblk1\.genblk1\.inverter_inst
*1270 genblk1\[151\]\.genblk1\.genblk1\.inverter_inst
*1271 genblk1\[152\]\.genblk1\.genblk1\.inverter_inst
*1272 genblk1\[153\]\.genblk1\.genblk1\.inverter_inst
*1273 genblk1\[154\]\.genblk1\.genblk1\.inverter_inst
*1274 genblk1\[155\]\.genblk1\.genblk1\.inverter_inst
*1275 genblk1\[156\]\.genblk1\.genblk1\.inverter_inst
*1276 genblk1\[157\]\.genblk1\.genblk1\.inverter_inst
*1277 genblk1\[158\]\.genblk1\.genblk1\.inverter_inst
*1278 genblk1\[159\]\.genblk1\.genblk1\.inverter_inst
*1279 genblk1\[15\]\.genblk1\.genblk1\.inverter_inst
*1280 genblk1\[160\]\.genblk1\.genblk1\.inverter_inst
*1281 genblk1\[161\]\.genblk1\.genblk1\.inverter_inst
*1282 genblk1\[162\]\.genblk1\.genblk1\.inverter_inst
*1283 genblk1\[163\]\.genblk1\.genblk1\.inverter_inst
*1284 genblk1\[164\]\.genblk1\.genblk1\.inverter_inst
*1285 genblk1\[165\]\.genblk1\.genblk1\.inverter_inst
*1286 genblk1\[166\]\.genblk1\.genblk1\.inverter_inst
*1287 genblk1\[167\]\.genblk1\.genblk1\.inverter_inst
*1288 genblk1\[168\]\.genblk1\.genblk1\.inverter_inst
*1289 genblk1\[169\]\.genblk1\.genblk1\.inverter_inst
*1290 genblk1\[16\]\.genblk1\.genblk1\.inverter_inst
*1291 genblk1\[170\]\.genblk1\.genblk1\.inverter_inst
*1292 genblk1\[171\]\.genblk1\.genblk1\.inverter_inst
*1293 genblk1\[172\]\.genblk1\.genblk1\.inverter_inst
*1294 genblk1\[173\]\.genblk1\.genblk1\.inverter_inst
*1295 genblk1\[174\]\.genblk1\.genblk1\.inverter_inst
*1296 genblk1\[175\]\.genblk1\.genblk1\.inverter_inst
*1297 genblk1\[176\]\.genblk1\.genblk1\.inverter_inst
*1298 genblk1\[177\]\.genblk1\.genblk1\.inverter_inst
*1299 genblk1\[178\]\.genblk1\.genblk1\.inverter_inst
*1300 genblk1\[179\]\.genblk1\.genblk1\.inverter_inst
*1301 genblk1\[17\]\.genblk1\.genblk1\.inverter_inst
*1302 genblk1\[180\]\.genblk1\.genblk1\.inverter_inst
*1303 genblk1\[181\]\.genblk1\.genblk1\.inverter_inst
*1304 genblk1\[182\]\.genblk1\.genblk1\.inverter_inst
*1305 genblk1\[183\]\.genblk1\.genblk1\.inverter_inst
*1306 genblk1\[184\]\.genblk1\.genblk1\.inverter_inst
*1307 genblk1\[185\]\.genblk1\.genblk1\.inverter_inst
*1308 genblk1\[186\]\.genblk1\.genblk1\.inverter_inst
*1309 genblk1\[187\]\.genblk1\.genblk1\.inverter_inst
*1310 genblk1\[188\]\.genblk1\.genblk1\.inverter_inst
*1311 genblk1\[189\]\.genblk1\.genblk1\.inverter_inst
*1312 genblk1\[18\]\.genblk1\.genblk1\.inverter_inst
*1313 genblk1\[190\]\.genblk1\.genblk1\.inverter_inst
*1314 genblk1\[191\]\.genblk1\.genblk1\.inverter_inst
*1315 genblk1\[192\]\.genblk1\.genblk1\.inverter_inst
*1316 genblk1\[193\]\.genblk1\.genblk1\.inverter_inst
*1317 genblk1\[194\]\.genblk1\.genblk1\.inverter_inst
*1318 genblk1\[195\]\.genblk1\.genblk1\.inverter_inst
*1319 genblk1\[196\]\.genblk1\.genblk1\.inverter_inst
*1320 genblk1\[197\]\.genblk1\.genblk1\.inverter_inst
*1321 genblk1\[198\]\.genblk1\.genblk1\.inverter_inst
*1322 genblk1\[199\]\.genblk1\.genblk1\.inverter_inst
*1323 genblk1\[19\]\.genblk1\.genblk1\.inverter_inst
*1324 genblk1\[1\]\.genblk1\.genblk1\.inverter_inst
*1325 genblk1\[200\]\.genblk1\.genblk1\.inverter_inst
*1326 genblk1\[201\]\.genblk1\.genblk1\.inverter_inst
*1327 genblk1\[202\]\.genblk1\.genblk1\.inverter_inst
*1328 genblk1\[203\]\.genblk1\.genblk1\.inverter_inst
*1329 genblk1\[204\]\.genblk1\.genblk1\.inverter_inst
*1330 genblk1\[205\]\.genblk1\.genblk1\.inverter_inst
*1331 genblk1\[206\]\.genblk1\.genblk1\.inverter_inst
*1332 genblk1\[207\]\.genblk1\.genblk1\.inverter_inst
*1333 genblk1\[208\]\.genblk1\.genblk1\.inverter_inst
*1334 genblk1\[209\]\.genblk1\.genblk1\.inverter_inst
*1335 genblk1\[20\]\.genblk1\.genblk1\.inverter_inst
*1336 genblk1\[210\]\.genblk1\.genblk1\.inverter_inst
*1337 genblk1\[211\]\.genblk1\.genblk1\.inverter_inst
*1338 genblk1\[212\]\.genblk1\.genblk1\.inverter_inst
*1339 genblk1\[213\]\.genblk1\.genblk1\.inverter_inst
*1340 genblk1\[214\]\.genblk1\.genblk1\.inverter_inst
*1341 genblk1\[215\]\.genblk1\.genblk1\.inverter_inst
*1342 genblk1\[216\]\.genblk1\.genblk1\.inverter_inst
*1343 genblk1\[217\]\.genblk1\.genblk1\.inverter_inst
*1344 genblk1\[218\]\.genblk1\.genblk1\.inverter_inst
*1345 genblk1\[219\]\.genblk1\.genblk1\.inverter_inst
*1346 genblk1\[21\]\.genblk1\.genblk1\.inverter_inst
*1347 genblk1\[220\]\.genblk1\.genblk1\.inverter_inst
*1348 genblk1\[221\]\.genblk1\.genblk1\.inverter_inst
*1349 genblk1\[222\]\.genblk1\.genblk1\.inverter_inst
*1350 genblk1\[223\]\.genblk1\.genblk1\.inverter_inst
*1351 genblk1\[224\]\.genblk1\.genblk1\.inverter_inst
*1352 genblk1\[225\]\.genblk1\.genblk1\.inverter_inst
*1353 genblk1\[226\]\.genblk1\.genblk1\.inverter_inst
*1354 genblk1\[227\]\.genblk1\.genblk1\.inverter_inst
*1355 genblk1\[228\]\.genblk1\.genblk1\.inverter_inst
*1356 genblk1\[229\]\.genblk1\.genblk1\.inverter_inst
*1357 genblk1\[22\]\.genblk1\.genblk1\.inverter_inst
*1358 genblk1\[230\]\.genblk1\.genblk1\.inverter_inst
*1359 genblk1\[231\]\.genblk1\.genblk1\.inverter_inst
*1360 genblk1\[232\]\.genblk1\.genblk1\.inverter_inst
*1361 genblk1\[233\]\.genblk1\.genblk1\.inverter_inst
*1362 genblk1\[234\]\.genblk1\.genblk1\.inverter_inst
*1363 genblk1\[235\]\.genblk1\.genblk1\.inverter_inst
*1364 genblk1\[236\]\.genblk1\.genblk1\.inverter_inst
*1365 genblk1\[237\]\.genblk1\.genblk1\.inverter_inst
*1366 genblk1\[238\]\.genblk1\.genblk1\.inverter_inst
*1367 genblk1\[239\]\.genblk1\.genblk1\.inverter_inst
*1368 genblk1\[23\]\.genblk1\.genblk1\.inverter_inst
*1369 genblk1\[240\]\.genblk1\.genblk1\.inverter_inst
*1370 genblk1\[241\]\.genblk1\.genblk1\.inverter_inst
*1371 genblk1\[242\]\.genblk1\.genblk1\.inverter_inst
*1372 genblk1\[243\]\.genblk1\.genblk1\.inverter_inst
*1373 genblk1\[244\]\.genblk1\.genblk1\.inverter_inst
*1374 genblk1\[245\]\.genblk1\.genblk1\.inverter_inst
*1375 genblk1\[246\]\.genblk1\.genblk1\.inverter_inst
*1376 genblk1\[247\]\.genblk1\.genblk1\.inverter_inst
*1377 genblk1\[248\]\.genblk1\.genblk1\.inverter_inst
*1378 genblk1\[249\]\.genblk1\.genblk1\.inverter_inst
*1379 genblk1\[24\]\.genblk1\.genblk1\.inverter_inst
*1380 genblk1\[250\]\.genblk1\.genblk1\.inverter_inst
*1381 genblk1\[251\]\.genblk1\.genblk1\.inverter_inst
*1382 genblk1\[252\]\.genblk1\.genblk1\.inverter_inst
*1383 genblk1\[253\]\.genblk1\.genblk1\.inverter_inst
*1384 genblk1\[254\]\.genblk1\.genblk1\.inverter_inst
*1385 genblk1\[255\]\.genblk1\.genblk1\.inverter_inst
*1386 genblk1\[256\]\.genblk1\.genblk1\.inverter_inst
*1387 genblk1\[257\]\.genblk1\.genblk1\.inverter_inst
*1388 genblk1\[258\]\.genblk1\.genblk1\.inverter_inst
*1389 genblk1\[259\]\.genblk1\.genblk1\.inverter_inst
*1390 genblk1\[25\]\.genblk1\.genblk1\.inverter_inst
*1391 genblk1\[260\]\.genblk1\.genblk1\.inverter_inst
*1392 genblk1\[261\]\.genblk1\.genblk1\.inverter_inst
*1393 genblk1\[262\]\.genblk1\.genblk1\.inverter_inst
*1394 genblk1\[263\]\.genblk1\.genblk1\.inverter_inst
*1395 genblk1\[264\]\.genblk1\.genblk1\.inverter_inst
*1396 genblk1\[265\]\.genblk1\.genblk1\.inverter_inst
*1397 genblk1\[266\]\.genblk1\.genblk1\.inverter_inst
*1398 genblk1\[267\]\.genblk1\.genblk1\.inverter_inst
*1399 genblk1\[268\]\.genblk1\.genblk1\.inverter_inst
*1400 genblk1\[269\]\.genblk1\.genblk1\.inverter_inst
*1401 genblk1\[26\]\.genblk1\.genblk1\.inverter_inst
*1402 genblk1\[270\]\.genblk1\.genblk1\.inverter_inst
*1403 genblk1\[271\]\.genblk1\.genblk1\.inverter_inst
*1404 genblk1\[272\]\.genblk1\.genblk1\.inverter_inst
*1405 genblk1\[273\]\.genblk1\.genblk1\.inverter_inst
*1406 genblk1\[274\]\.genblk1\.genblk1\.inverter_inst
*1407 genblk1\[275\]\.genblk1\.genblk1\.inverter_inst
*1408 genblk1\[276\]\.genblk1\.genblk1\.inverter_inst
*1409 genblk1\[277\]\.genblk1\.genblk1\.inverter_inst
*1410 genblk1\[278\]\.genblk1\.genblk1\.inverter_inst
*1411 genblk1\[279\]\.genblk1\.genblk1\.inverter_inst
*1412 genblk1\[27\]\.genblk1\.genblk1\.inverter_inst
*1413 genblk1\[280\]\.genblk1\.genblk1\.inverter_inst
*1414 genblk1\[281\]\.genblk1\.genblk1\.inverter_inst
*1415 genblk1\[282\]\.genblk1\.genblk1\.inverter_inst
*1416 genblk1\[283\]\.genblk1\.genblk1\.inverter_inst
*1417 genblk1\[284\]\.genblk1\.genblk1\.inverter_inst
*1418 genblk1\[285\]\.genblk1\.genblk1\.inverter_inst
*1419 genblk1\[286\]\.genblk1\.genblk1\.inverter_inst
*1420 genblk1\[287\]\.genblk1\.genblk1\.inverter_inst
*1421 genblk1\[288\]\.genblk1\.genblk1\.inverter_inst
*1422 genblk1\[289\]\.genblk1\.genblk1\.inverter_inst
*1423 genblk1\[28\]\.genblk1\.genblk1\.inverter_inst
*1424 genblk1\[290\]\.genblk1\.genblk1\.inverter_inst
*1425 genblk1\[291\]\.genblk1\.genblk1\.inverter_inst
*1426 genblk1\[292\]\.genblk1\.genblk1\.inverter_inst
*1427 genblk1\[293\]\.genblk1\.genblk1\.inverter_inst
*1428 genblk1\[294\]\.genblk1\.genblk1\.inverter_inst
*1429 genblk1\[295\]\.genblk1\.genblk1\.inverter_inst
*1430 genblk1\[296\]\.genblk1\.genblk1\.inverter_inst
*1431 genblk1\[297\]\.genblk1\.genblk1\.inverter_inst
*1432 genblk1\[298\]\.genblk1\.genblk1\.inverter_inst
*1433 genblk1\[299\]\.genblk1\.genblk1\.inverter_inst
*1434 genblk1\[29\]\.genblk1\.genblk1\.inverter_inst
*1435 genblk1\[2\]\.genblk1\.genblk1\.inverter_inst
*1436 genblk1\[300\]\.genblk1\.genblk1\.inverter_inst
*1437 genblk1\[301\]\.genblk1\.genblk1\.inverter_inst
*1438 genblk1\[302\]\.genblk1\.genblk1\.inverter_inst
*1439 genblk1\[303\]\.genblk1\.genblk1\.inverter_inst
*1440 genblk1\[304\]\.genblk1\.genblk1\.inverter_inst
*1441 genblk1\[305\]\.genblk1\.genblk1\.inverter_inst
*1442 genblk1\[306\]\.genblk1\.genblk1\.inverter_inst
*1443 genblk1\[307\]\.genblk1\.genblk1\.inverter_inst
*1444 genblk1\[308\]\.genblk1\.genblk1\.inverter_inst
*1445 genblk1\[309\]\.genblk1\.genblk1\.inverter_inst
*1446 genblk1\[30\]\.genblk1\.genblk1\.inverter_inst
*1447 genblk1\[310\]\.genblk1\.genblk1\.inverter_inst
*1448 genblk1\[311\]\.genblk1\.genblk1\.inverter_inst
*1449 genblk1\[312\]\.genblk1\.genblk1\.inverter_inst
*1450 genblk1\[313\]\.genblk1\.genblk1\.inverter_inst
*1451 genblk1\[314\]\.genblk1\.genblk1\.inverter_inst
*1452 genblk1\[315\]\.genblk1\.genblk1\.inverter_inst
*1453 genblk1\[316\]\.genblk1\.genblk1\.inverter_inst
*1454 genblk1\[317\]\.genblk1\.genblk1\.inverter_inst
*1455 genblk1\[318\]\.genblk1\.genblk1\.inverter_inst
*1456 genblk1\[319\]\.genblk1\.genblk1\.inverter_inst
*1457 genblk1\[31\]\.genblk1\.genblk1\.inverter_inst
*1458 genblk1\[320\]\.genblk1\.genblk1\.inverter_inst
*1459 genblk1\[321\]\.genblk1\.genblk1\.inverter_inst
*1460 genblk1\[322\]\.genblk1\.genblk1\.inverter_inst
*1461 genblk1\[323\]\.genblk1\.genblk1\.inverter_inst
*1462 genblk1\[324\]\.genblk1\.genblk1\.inverter_inst
*1463 genblk1\[325\]\.genblk1\.genblk1\.inverter_inst
*1464 genblk1\[326\]\.genblk1\.genblk1\.inverter_inst
*1465 genblk1\[327\]\.genblk1\.genblk1\.inverter_inst
*1466 genblk1\[328\]\.genblk1\.genblk1\.inverter_inst
*1467 genblk1\[329\]\.genblk1\.genblk1\.inverter_inst
*1468 genblk1\[32\]\.genblk1\.genblk1\.inverter_inst
*1469 genblk1\[330\]\.genblk1\.genblk1\.inverter_inst
*1470 genblk1\[331\]\.genblk1\.genblk1\.inverter_inst
*1471 genblk1\[332\]\.genblk1\.genblk1\.inverter_inst
*1472 genblk1\[333\]\.genblk1\.genblk1\.inverter_inst
*1473 genblk1\[334\]\.genblk1\.genblk1\.inverter_inst
*1474 genblk1\[335\]\.genblk1\.genblk1\.inverter_inst
*1475 genblk1\[336\]\.genblk1\.genblk1\.inverter_inst
*1476 genblk1\[337\]\.genblk1\.genblk1\.inverter_inst
*1477 genblk1\[338\]\.genblk1\.genblk1\.inverter_inst
*1478 genblk1\[339\]\.genblk1\.genblk1\.inverter_inst
*1479 genblk1\[33\]\.genblk1\.genblk1\.inverter_inst
*1480 genblk1\[340\]\.genblk1\.genblk1\.inverter_inst
*1481 genblk1\[341\]\.genblk1\.genblk1\.inverter_inst
*1482 genblk1\[342\]\.genblk1\.genblk1\.inverter_inst
*1483 genblk1\[343\]\.genblk1\.genblk1\.inverter_inst
*1484 genblk1\[344\]\.genblk1\.genblk1\.inverter_inst
*1485 genblk1\[345\]\.genblk1\.genblk1\.inverter_inst
*1486 genblk1\[346\]\.genblk1\.genblk1\.inverter_inst
*1487 genblk1\[347\]\.genblk1\.genblk1\.inverter_inst
*1488 genblk1\[348\]\.genblk1\.genblk1\.inverter_inst
*1489 genblk1\[349\]\.genblk1\.genblk1\.inverter_inst
*1490 genblk1\[34\]\.genblk1\.genblk1\.inverter_inst
*1491 genblk1\[350\]\.genblk1\.genblk1\.inverter_inst
*1492 genblk1\[351\]\.genblk1\.genblk1\.inverter_inst
*1493 genblk1\[352\]\.genblk1\.genblk1\.inverter_inst
*1494 genblk1\[353\]\.genblk1\.genblk1\.inverter_inst
*1495 genblk1\[354\]\.genblk1\.genblk1\.inverter_inst
*1496 genblk1\[355\]\.genblk1\.genblk1\.inverter_inst
*1497 genblk1\[356\]\.genblk1\.genblk1\.inverter_inst
*1498 genblk1\[357\]\.genblk1\.genblk1\.inverter_inst
*1499 genblk1\[358\]\.genblk1\.genblk1\.inverter_inst
*1500 genblk1\[359\]\.genblk1\.genblk1\.inverter_inst
*1501 genblk1\[35\]\.genblk1\.genblk1\.inverter_inst
*1502 genblk1\[360\]\.genblk1\.genblk1\.inverter_inst
*1503 genblk1\[361\]\.genblk1\.genblk1\.inverter_inst
*1504 genblk1\[362\]\.genblk1\.genblk1\.inverter_inst
*1505 genblk1\[363\]\.genblk1\.genblk1\.inverter_inst
*1506 genblk1\[364\]\.genblk1\.genblk1\.inverter_inst
*1507 genblk1\[365\]\.genblk1\.genblk1\.inverter_inst
*1508 genblk1\[366\]\.genblk1\.genblk1\.inverter_inst
*1509 genblk1\[367\]\.genblk1\.genblk1\.inverter_inst
*1510 genblk1\[368\]\.genblk1\.genblk1\.inverter_inst
*1511 genblk1\[369\]\.genblk1\.genblk1\.inverter_inst
*1512 genblk1\[36\]\.genblk1\.genblk1\.inverter_inst
*1513 genblk1\[370\]\.genblk1\.genblk1\.inverter_inst
*1514 genblk1\[371\]\.genblk1\.genblk1\.inverter_inst
*1515 genblk1\[372\]\.genblk1\.genblk1\.inverter_inst
*1516 genblk1\[373\]\.genblk1\.genblk1\.inverter_inst
*1517 genblk1\[374\]\.genblk1\.genblk1\.inverter_inst
*1518 genblk1\[375\]\.genblk1\.genblk1\.inverter_inst
*1519 genblk1\[376\]\.genblk1\.genblk1\.inverter_inst
*1520 genblk1\[377\]\.genblk1\.genblk1\.inverter_inst
*1521 genblk1\[378\]\.genblk1\.genblk1\.inverter_inst
*1522 genblk1\[379\]\.genblk1\.genblk1\.inverter_inst
*1523 genblk1\[37\]\.genblk1\.genblk1\.inverter_inst
*1524 genblk1\[380\]\.genblk1\.genblk1\.inverter_inst
*1525 genblk1\[381\]\.genblk1\.genblk1\.inverter_inst
*1526 genblk1\[382\]\.genblk1\.genblk1\.inverter_inst
*1527 genblk1\[383\]\.genblk1\.genblk1\.inverter_inst
*1528 genblk1\[384\]\.genblk1\.genblk1\.inverter_inst
*1529 genblk1\[385\]\.genblk1\.genblk1\.inverter_inst
*1530 genblk1\[386\]\.genblk1\.genblk1\.inverter_inst
*1531 genblk1\[387\]\.genblk1\.genblk1\.inverter_inst
*1532 genblk1\[388\]\.genblk1\.genblk1\.inverter_inst
*1533 genblk1\[389\]\.genblk1\.genblk1\.inverter_inst
*1534 genblk1\[38\]\.genblk1\.genblk1\.inverter_inst
*1535 genblk1\[390\]\.genblk1\.genblk1\.inverter_inst
*1536 genblk1\[391\]\.genblk1\.genblk1\.inverter_inst
*1537 genblk1\[392\]\.genblk1\.genblk1\.inverter_inst
*1538 genblk1\[393\]\.genblk1\.genblk1\.inverter_inst
*1539 genblk1\[394\]\.genblk1\.genblk1\.inverter_inst
*1540 genblk1\[395\]\.genblk1\.genblk1\.inverter_inst
*1541 genblk1\[396\]\.genblk1\.genblk1\.inverter_inst
*1542 genblk1\[397\]\.genblk1\.genblk1\.inverter_inst
*1543 genblk1\[398\]\.genblk1\.genblk1\.inverter_inst
*1544 genblk1\[399\]\.genblk1\.genblk1\.inverter_inst
*1545 genblk1\[39\]\.genblk1\.genblk1\.inverter_inst
*1546 genblk1\[3\]\.genblk1\.genblk1\.inverter_inst
*1547 genblk1\[400\]\.genblk1\.genblk1\.inverter_inst
*1548 genblk1\[401\]\.genblk1\.genblk1\.inverter_inst
*1549 genblk1\[402\]\.genblk1\.genblk1\.inverter_inst
*1550 genblk1\[403\]\.genblk1\.genblk1\.inverter_inst
*1551 genblk1\[404\]\.genblk1\.genblk1\.inverter_inst
*1552 genblk1\[405\]\.genblk1\.genblk1\.inverter_inst
*1553 genblk1\[406\]\.genblk1\.genblk1\.inverter_inst
*1554 genblk1\[407\]\.genblk1\.genblk1\.inverter_inst
*1555 genblk1\[408\]\.genblk1\.genblk1\.inverter_inst
*1556 genblk1\[409\]\.genblk1\.genblk1\.inverter_inst
*1557 genblk1\[40\]\.genblk1\.genblk1\.inverter_inst
*1558 genblk1\[410\]\.genblk1\.genblk1\.inverter_inst
*1559 genblk1\[411\]\.genblk1\.genblk1\.inverter_inst
*1560 genblk1\[412\]\.genblk1\.genblk1\.inverter_inst
*1561 genblk1\[413\]\.genblk1\.genblk1\.inverter_inst
*1562 genblk1\[414\]\.genblk1\.genblk1\.inverter_inst
*1563 genblk1\[415\]\.genblk1\.genblk1\.inverter_inst
*1564 genblk1\[416\]\.genblk1\.genblk1\.inverter_inst
*1565 genblk1\[417\]\.genblk1\.genblk1\.inverter_inst
*1566 genblk1\[418\]\.genblk1\.genblk1\.inverter_inst
*1567 genblk1\[419\]\.genblk1\.genblk1\.inverter_inst
*1568 genblk1\[41\]\.genblk1\.genblk1\.inverter_inst
*1569 genblk1\[420\]\.genblk1\.genblk1\.inverter_inst
*1570 genblk1\[421\]\.genblk1\.genblk1\.inverter_inst
*1571 genblk1\[422\]\.genblk1\.genblk1\.inverter_inst
*1572 genblk1\[423\]\.genblk1\.genblk1\.inverter_inst
*1573 genblk1\[424\]\.genblk1\.genblk1\.inverter_inst
*1574 genblk1\[425\]\.genblk1\.genblk1\.inverter_inst
*1575 genblk1\[426\]\.genblk1\.genblk1\.inverter_inst
*1576 genblk1\[427\]\.genblk1\.genblk1\.inverter_inst
*1577 genblk1\[428\]\.genblk1\.genblk1\.inverter_inst
*1578 genblk1\[429\]\.genblk1\.genblk1\.inverter_inst
*1579 genblk1\[42\]\.genblk1\.genblk1\.inverter_inst
*1580 genblk1\[430\]\.genblk1\.genblk1\.inverter_inst
*1581 genblk1\[431\]\.genblk1\.genblk1\.inverter_inst
*1582 genblk1\[432\]\.genblk1\.genblk1\.inverter_inst
*1583 genblk1\[433\]\.genblk1\.genblk1\.inverter_inst
*1584 genblk1\[434\]\.genblk1\.genblk1\.inverter_inst
*1585 genblk1\[435\]\.genblk1\.genblk1\.inverter_inst
*1586 genblk1\[436\]\.genblk1\.genblk1\.inverter_inst
*1587 genblk1\[437\]\.genblk1\.genblk1\.inverter_inst
*1588 genblk1\[438\]\.genblk1\.genblk1\.inverter_inst
*1589 genblk1\[439\]\.genblk1\.genblk1\.inverter_inst
*1590 genblk1\[43\]\.genblk1\.genblk1\.inverter_inst
*1591 genblk1\[440\]\.genblk1\.genblk1\.inverter_inst
*1592 genblk1\[441\]\.genblk1\.genblk1\.inverter_inst
*1593 genblk1\[442\]\.genblk1\.genblk1\.inverter_inst
*1594 genblk1\[443\]\.genblk1\.genblk1\.inverter_inst
*1595 genblk1\[444\]\.genblk1\.genblk1\.inverter_inst
*1596 genblk1\[445\]\.genblk1\.genblk1\.inverter_inst
*1597 genblk1\[446\]\.genblk1\.genblk1\.inverter_inst
*1598 genblk1\[447\]\.genblk1\.genblk1\.inverter_inst
*1599 genblk1\[448\]\.genblk1\.genblk1\.inverter_inst
*1600 genblk1\[449\]\.genblk1\.genblk1\.inverter_inst
*1601 genblk1\[44\]\.genblk1\.genblk1\.inverter_inst
*1602 genblk1\[450\]\.genblk1\.genblk1\.inverter_inst
*1603 genblk1\[451\]\.genblk1\.genblk1\.inverter_inst
*1604 genblk1\[452\]\.genblk1\.genblk1\.inverter_inst
*1605 genblk1\[453\]\.genblk1\.genblk1\.inverter_inst
*1606 genblk1\[454\]\.genblk1\.genblk1\.inverter_inst
*1607 genblk1\[455\]\.genblk1\.genblk1\.inverter_inst
*1608 genblk1\[456\]\.genblk1\.genblk1\.inverter_inst
*1609 genblk1\[457\]\.genblk1\.genblk1\.inverter_inst
*1610 genblk1\[458\]\.genblk1\.genblk1\.inverter_inst
*1611 genblk1\[459\]\.genblk1\.genblk1\.inverter_inst
*1612 genblk1\[45\]\.genblk1\.genblk1\.inverter_inst
*1613 genblk1\[460\]\.genblk1\.genblk1\.inverter_inst
*1614 genblk1\[461\]\.genblk1\.genblk1\.inverter_inst
*1615 genblk1\[462\]\.genblk1\.genblk1\.inverter_inst
*1616 genblk1\[463\]\.genblk1\.genblk1\.inverter_inst
*1617 genblk1\[464\]\.genblk1\.genblk1\.inverter_inst
*1618 genblk1\[465\]\.genblk1\.genblk1\.inverter_inst
*1619 genblk1\[466\]\.genblk1\.genblk1\.inverter_inst
*1620 genblk1\[467\]\.genblk1\.genblk1\.inverter_inst
*1621 genblk1\[468\]\.genblk1\.genblk1\.inverter_inst
*1622 genblk1\[469\]\.genblk1\.genblk1\.inverter_inst
*1623 genblk1\[46\]\.genblk1\.genblk1\.inverter_inst
*1624 genblk1\[470\]\.genblk1\.genblk1\.inverter_inst
*1625 genblk1\[471\]\.genblk1\.genblk1\.inverter_inst
*1626 genblk1\[472\]\.genblk1\.genblk1\.inverter_inst
*1627 genblk1\[473\]\.genblk1\.genblk1\.inverter_inst
*1628 genblk1\[474\]\.genblk1\.genblk1\.inverter_inst
*1629 genblk1\[475\]\.genblk1\.genblk1\.inverter_inst
*1630 genblk1\[476\]\.genblk1\.genblk1\.inverter_inst
*1631 genblk1\[477\]\.genblk1\.genblk1\.inverter_inst
*1632 genblk1\[478\]\.genblk1\.genblk1\.inverter_inst
*1633 genblk1\[479\]\.genblk1\.genblk1\.inverter_inst
*1634 genblk1\[47\]\.genblk1\.genblk1\.inverter_inst
*1635 genblk1\[480\]\.genblk1\.genblk1\.inverter_inst
*1636 genblk1\[481\]\.genblk1\.genblk1\.inverter_inst
*1637 genblk1\[482\]\.genblk1\.genblk1\.inverter_inst
*1638 genblk1\[483\]\.genblk1\.genblk1\.inverter_inst
*1639 genblk1\[484\]\.genblk1\.genblk1\.inverter_inst
*1640 genblk1\[485\]\.genblk1\.genblk1\.inverter_inst
*1641 genblk1\[486\]\.genblk1\.genblk1\.inverter_inst
*1642 genblk1\[487\]\.genblk1\.genblk1\.inverter_inst
*1643 genblk1\[488\]\.genblk1\.genblk1\.inverter_inst
*1644 genblk1\[489\]\.genblk1\.genblk1\.inverter_inst
*1645 genblk1\[48\]\.genblk1\.genblk1\.inverter_inst
*1646 genblk1\[490\]\.genblk1\.genblk1\.inverter_inst
*1647 genblk1\[491\]\.genblk1\.genblk1\.inverter_inst
*1648 genblk1\[492\]\.genblk1\.genblk1\.inverter_inst
*1649 genblk1\[493\]\.genblk1\.genblk1\.inverter_inst
*1650 genblk1\[494\]\.genblk1\.genblk1\.inverter_inst
*1651 genblk1\[495\]\.genblk1\.genblk1\.inverter_inst
*1652 genblk1\[496\]\.genblk1\.genblk1\.inverter_inst
*1653 genblk1\[497\]\.genblk1\.genblk1\.inverter_inst
*1654 genblk1\[498\]\.genblk1\.genblk1\.inverter_inst
*1655 genblk1\[499\]\.genblk1\.genblk1\.inverter_inst
*1656 genblk1\[49\]\.genblk1\.genblk1\.inverter_inst
*1657 genblk1\[4\]\.genblk1\.genblk1\.inverter_inst
*1658 genblk1\[500\]\.genblk1\.genblk1\.inverter_inst
*1659 genblk1\[501\]\.genblk1\.genblk1\.inverter_inst
*1660 genblk1\[502\]\.genblk1\.genblk1\.inverter_inst
*1661 genblk1\[503\]\.genblk1\.genblk1\.inverter_inst
*1662 genblk1\[504\]\.genblk1\.genblk1\.inverter_inst
*1663 genblk1\[505\]\.genblk1\.genblk1\.inverter_inst
*1664 genblk1\[506\]\.genblk1\.genblk1\.inverter_inst
*1665 genblk1\[507\]\.genblk1\.genblk1\.inverter_inst
*1666 genblk1\[508\]\.genblk1\.genblk1\.inverter_inst
*1667 genblk1\[509\]\.genblk1\.genblk1\.inverter_inst
*1668 genblk1\[50\]\.genblk1\.genblk1\.inverter_inst
*1669 genblk1\[510\]\.genblk1\.genblk1\.inverter_inst
*1670 genblk1\[511\]\.genblk1\.genblk1\.inverter_inst
*1671 genblk1\[512\]\.genblk1\.genblk1\.inverter_inst
*1672 genblk1\[51\]\.genblk1\.genblk1\.inverter_inst
*1673 genblk1\[52\]\.genblk1\.genblk1\.inverter_inst
*1674 genblk1\[53\]\.genblk1\.genblk1\.inverter_inst
*1675 genblk1\[54\]\.genblk1\.genblk1\.inverter_inst
*1676 genblk1\[55\]\.genblk1\.genblk1\.inverter_inst
*1677 genblk1\[56\]\.genblk1\.genblk1\.inverter_inst
*1678 genblk1\[57\]\.genblk1\.genblk1\.inverter_inst
*1679 genblk1\[58\]\.genblk1\.genblk1\.inverter_inst
*1680 genblk1\[59\]\.genblk1\.genblk1\.inverter_inst
*1681 genblk1\[5\]\.genblk1\.genblk1\.inverter_inst
*1682 genblk1\[60\]\.genblk1\.genblk1\.inverter_inst
*1683 genblk1\[61\]\.genblk1\.genblk1\.inverter_inst
*1684 genblk1\[62\]\.genblk1\.genblk1\.inverter_inst
*1685 genblk1\[63\]\.genblk1\.genblk1\.inverter_inst
*1686 genblk1\[64\]\.genblk1\.genblk1\.inverter_inst
*1687 genblk1\[65\]\.genblk1\.genblk1\.inverter_inst
*1688 genblk1\[66\]\.genblk1\.genblk1\.inverter_inst
*1689 genblk1\[67\]\.genblk1\.genblk1\.inverter_inst
*1690 genblk1\[68\]\.genblk1\.genblk1\.inverter_inst
*1691 genblk1\[69\]\.genblk1\.genblk1\.inverter_inst
*1692 genblk1\[6\]\.genblk1\.genblk1\.inverter_inst
*1693 genblk1\[70\]\.genblk1\.genblk1\.inverter_inst
*1694 genblk1\[71\]\.genblk1\.genblk1\.inverter_inst
*1695 genblk1\[72\]\.genblk1\.genblk1\.inverter_inst
*1696 genblk1\[73\]\.genblk1\.genblk1\.inverter_inst
*1697 genblk1\[74\]\.genblk1\.genblk1\.inverter_inst
*1698 genblk1\[75\]\.genblk1\.genblk1\.inverter_inst
*1699 genblk1\[76\]\.genblk1\.genblk1\.inverter_inst
*1700 genblk1\[77\]\.genblk1\.genblk1\.inverter_inst
*1701 genblk1\[78\]\.genblk1\.genblk1\.inverter_inst
*1702 genblk1\[79\]\.genblk1\.genblk1\.inverter_inst
*1703 genblk1\[7\]\.genblk1\.genblk1\.inverter_inst
*1704 genblk1\[80\]\.genblk1\.genblk1\.inverter_inst
*1705 genblk1\[81\]\.genblk1\.genblk1\.inverter_inst
*1706 genblk1\[82\]\.genblk1\.genblk1\.inverter_inst
*1707 genblk1\[83\]\.genblk1\.genblk1\.inverter_inst
*1708 genblk1\[84\]\.genblk1\.genblk1\.inverter_inst
*1709 genblk1\[85\]\.genblk1\.genblk1\.inverter_inst
*1710 genblk1\[86\]\.genblk1\.genblk1\.inverter_inst
*1711 genblk1\[87\]\.genblk1\.genblk1\.inverter_inst
*1712 genblk1\[88\]\.genblk1\.genblk1\.inverter_inst
*1713 genblk1\[89\]\.genblk1\.genblk1\.inverter_inst
*1714 genblk1\[8\]\.genblk1\.genblk1\.inverter_inst
*1715 genblk1\[90\]\.genblk1\.genblk1\.inverter_inst
*1716 genblk1\[91\]\.genblk1\.genblk1\.inverter_inst
*1717 genblk1\[92\]\.genblk1\.genblk1\.inverter_inst
*1718 genblk1\[93\]\.genblk1\.genblk1\.inverter_inst
*1719 genblk1\[94\]\.genblk1\.genblk1\.inverter_inst
*1720 genblk1\[95\]\.genblk1\.genblk1\.inverter_inst
*1721 genblk1\[96\]\.genblk1\.genblk1\.inverter_inst
*1722 genblk1\[97\]\.genblk1\.genblk1\.inverter_inst
*1723 genblk1\[98\]\.genblk1\.genblk1\.inverter_inst
*1724 genblk1\[99\]\.genblk1\.genblk1\.inverter_inst
*1725 genblk1\[9\]\.genblk1\.genblk1\.inverter_inst
*1726 genblk2\[0\]\.load\.ini_buffer\.inv1
*1727 genblk2\[0\]\.load\.ini_buffer\.inv2
*1728 genblk2\[0\]\.load\.ini_buffer\.inv4
*1729 genblk2\[0\]\.load\.ini_buffer\.inv8
*1730 genblk2\[0\]\.load\.loads_parallel\[0\]\.sw_buffer\.inv1
*1731 genblk2\[0\]\.load\.loads_parallel\[0\]\.sw_buffer\.inv16
*1732 genblk2\[0\]\.load\.loads_parallel\[0\]\.sw_buffer\.inv2
*1733 genblk2\[0\]\.load\.loads_parallel\[0\]\.sw_buffer\.inv4
*1734 genblk2\[0\]\.load\.loads_parallel\[0\]\.sw_buffer\.inv8
*1735 genblk2\[0\]\.load\.loads_parallel\[0\]\.sw_buffer\.nand1
*1736 genblk2\[0\]\.load\.loads_parallel\[0\]\.sw_buffer\.nand1_7
*1737 genblk2\[128\]\.load\.ini_buffer\.inv1
*1738 genblk2\[128\]\.load\.ini_buffer\.inv2
*1739 genblk2\[128\]\.load\.ini_buffer\.inv4
*1740 genblk2\[128\]\.load\.ini_buffer\.inv8
*1741 genblk2\[128\]\.load\.loads_parallel\[0\]\.sw_buffer\.inv1
*1742 genblk2\[128\]\.load\.loads_parallel\[0\]\.sw_buffer\.inv16
*1743 genblk2\[128\]\.load\.loads_parallel\[0\]\.sw_buffer\.inv2
*1744 genblk2\[128\]\.load\.loads_parallel\[0\]\.sw_buffer\.inv4
*1745 genblk2\[128\]\.load\.loads_parallel\[0\]\.sw_buffer\.inv8
*1746 genblk2\[128\]\.load\.loads_parallel\[0\]\.sw_buffer\.nand1
*1747 genblk2\[128\]\.load\.loads_parallel\[0\]\.sw_buffer\.nand1_8
*1748 genblk2\[160\]\.load\.ini_buffer\.inv1
*1749 genblk2\[160\]\.load\.ini_buffer\.inv2
*1750 genblk2\[160\]\.load\.ini_buffer\.inv4
*1751 genblk2\[160\]\.load\.ini_buffer\.inv8
*1752 genblk2\[160\]\.load\.loads_parallel\[0\]\.sw_buffer\.inv1
*1753 genblk2\[160\]\.load\.loads_parallel\[0\]\.sw_buffer\.inv16
*1754 genblk2\[160\]\.load\.loads_parallel\[0\]\.sw_buffer\.inv2
*1755 genblk2\[160\]\.load\.loads_parallel\[0\]\.sw_buffer\.inv4
*1756 genblk2\[160\]\.load\.loads_parallel\[0\]\.sw_buffer\.inv8
*1757 genblk2\[160\]\.load\.loads_parallel\[0\]\.sw_buffer\.nand1
*1758 genblk2\[160\]\.load\.loads_parallel\[0\]\.sw_buffer\.nand1_9
*1759 genblk2\[192\]\.load\.ini_buffer\.inv1
*1760 genblk2\[192\]\.load\.ini_buffer\.inv2
*1761 genblk2\[192\]\.load\.ini_buffer\.inv4
*1762 genblk2\[192\]\.load\.ini_buffer\.inv8
*1763 genblk2\[192\]\.load\.loads_parallel\[0\]\.sw_buffer\.inv1
*1764 genblk2\[192\]\.load\.loads_parallel\[0\]\.sw_buffer\.inv16
*1765 genblk2\[192\]\.load\.loads_parallel\[0\]\.sw_buffer\.inv2
*1766 genblk2\[192\]\.load\.loads_parallel\[0\]\.sw_buffer\.inv4
*1767 genblk2\[192\]\.load\.loads_parallel\[0\]\.sw_buffer\.inv8
*1768 genblk2\[192\]\.load\.loads_parallel\[0\]\.sw_buffer\.nand1
*1769 genblk2\[192\]\.load\.loads_parallel\[0\]\.sw_buffer\.nand1_10
*1770 genblk2\[224\]\.load\.ini_buffer\.inv1
*1771 genblk2\[224\]\.load\.ini_buffer\.inv2
*1772 genblk2\[224\]\.load\.ini_buffer\.inv4
*1773 genblk2\[224\]\.load\.ini_buffer\.inv8
*1774 genblk2\[224\]\.load\.loads_parallel\[0\]\.sw_buffer\.inv1
*1775 genblk2\[224\]\.load\.loads_parallel\[0\]\.sw_buffer\.inv16
*1776 genblk2\[224\]\.load\.loads_parallel\[0\]\.sw_buffer\.inv2
*1777 genblk2\[224\]\.load\.loads_parallel\[0\]\.sw_buffer\.inv4
*1778 genblk2\[224\]\.load\.loads_parallel\[0\]\.sw_buffer\.inv8
*1779 genblk2\[224\]\.load\.loads_parallel\[0\]\.sw_buffer\.nand1
*1780 genblk2\[224\]\.load\.loads_parallel\[0\]\.sw_buffer\.nand1_11
*1781 genblk2\[256\]\.load\.ini_buffer\.inv1
*1782 genblk2\[256\]\.load\.ini_buffer\.inv2
*1783 genblk2\[256\]\.load\.ini_buffer\.inv4
*1784 genblk2\[256\]\.load\.ini_buffer\.inv8
*1785 genblk2\[256\]\.load\.loads_parallel\[0\]\.sw_buffer\.inv1
*1786 genblk2\[256\]\.load\.loads_parallel\[0\]\.sw_buffer\.inv16
*1787 genblk2\[256\]\.load\.loads_parallel\[0\]\.sw_buffer\.inv2
*1788 genblk2\[256\]\.load\.loads_parallel\[0\]\.sw_buffer\.inv4
*1789 genblk2\[256\]\.load\.loads_parallel\[0\]\.sw_buffer\.inv8
*1790 genblk2\[256\]\.load\.loads_parallel\[0\]\.sw_buffer\.nand1
*1791 genblk2\[256\]\.load\.loads_parallel\[0\]\.sw_buffer\.nand1_12
*1792 genblk2\[288\]\.load\.ini_buffer\.inv1
*1793 genblk2\[288\]\.load\.ini_buffer\.inv2
*1794 genblk2\[288\]\.load\.ini_buffer\.inv4
*1795 genblk2\[288\]\.load\.ini_buffer\.inv8
*1796 genblk2\[288\]\.load\.loads_parallel\[0\]\.sw_buffer\.inv1
*1797 genblk2\[288\]\.load\.loads_parallel\[0\]\.sw_buffer\.inv16
*1798 genblk2\[288\]\.load\.loads_parallel\[0\]\.sw_buffer\.inv2
*1799 genblk2\[288\]\.load\.loads_parallel\[0\]\.sw_buffer\.inv4
*1800 genblk2\[288\]\.load\.loads_parallel\[0\]\.sw_buffer\.inv8
*1801 genblk2\[288\]\.load\.loads_parallel\[0\]\.sw_buffer\.nand1
*1802 genblk2\[288\]\.load\.loads_parallel\[0\]\.sw_buffer\.nand1_13
*1803 genblk2\[320\]\.load\.ini_buffer\.inv1
*1804 genblk2\[320\]\.load\.ini_buffer\.inv2
*1805 genblk2\[320\]\.load\.ini_buffer\.inv4
*1806 genblk2\[320\]\.load\.ini_buffer\.inv8
*1807 genblk2\[320\]\.load\.loads_parallel\[0\]\.sw_buffer\.inv1
*1808 genblk2\[320\]\.load\.loads_parallel\[0\]\.sw_buffer\.inv16
*1809 genblk2\[320\]\.load\.loads_parallel\[0\]\.sw_buffer\.inv2
*1810 genblk2\[320\]\.load\.loads_parallel\[0\]\.sw_buffer\.inv4
*1811 genblk2\[320\]\.load\.loads_parallel\[0\]\.sw_buffer\.inv8
*1812 genblk2\[320\]\.load\.loads_parallel\[0\]\.sw_buffer\.nand1
*1813 genblk2\[320\]\.load\.loads_parallel\[0\]\.sw_buffer\.nand1_14
*1814 genblk2\[32\]\.load\.ini_buffer\.inv1
*1815 genblk2\[32\]\.load\.ini_buffer\.inv2
*1816 genblk2\[32\]\.load\.ini_buffer\.inv4
*1817 genblk2\[32\]\.load\.ini_buffer\.inv8
*1818 genblk2\[32\]\.load\.loads_parallel\[0\]\.sw_buffer\.inv1
*1819 genblk2\[32\]\.load\.loads_parallel\[0\]\.sw_buffer\.inv16
*1820 genblk2\[32\]\.load\.loads_parallel\[0\]\.sw_buffer\.inv2
*1821 genblk2\[32\]\.load\.loads_parallel\[0\]\.sw_buffer\.inv4
*1822 genblk2\[32\]\.load\.loads_parallel\[0\]\.sw_buffer\.inv8
*1823 genblk2\[32\]\.load\.loads_parallel\[0\]\.sw_buffer\.nand1
*1824 genblk2\[32\]\.load\.loads_parallel\[0\]\.sw_buffer\.nand1_15
*1825 genblk2\[352\]\.load\.ini_buffer\.inv1
*1826 genblk2\[352\]\.load\.ini_buffer\.inv2
*1827 genblk2\[352\]\.load\.ini_buffer\.inv4
*1828 genblk2\[352\]\.load\.ini_buffer\.inv8
*1829 genblk2\[352\]\.load\.loads_parallel\[0\]\.sw_buffer\.inv1
*1830 genblk2\[352\]\.load\.loads_parallel\[0\]\.sw_buffer\.inv16
*1831 genblk2\[352\]\.load\.loads_parallel\[0\]\.sw_buffer\.inv2
*1832 genblk2\[352\]\.load\.loads_parallel\[0\]\.sw_buffer\.inv4
*1833 genblk2\[352\]\.load\.loads_parallel\[0\]\.sw_buffer\.inv8
*1834 genblk2\[352\]\.load\.loads_parallel\[0\]\.sw_buffer\.nand1
*1835 genblk2\[352\]\.load\.loads_parallel\[0\]\.sw_buffer\.nand1_16
*1836 genblk2\[384\]\.load\.ini_buffer\.inv1
*1837 genblk2\[384\]\.load\.ini_buffer\.inv2
*1838 genblk2\[384\]\.load\.ini_buffer\.inv4
*1839 genblk2\[384\]\.load\.ini_buffer\.inv8
*1840 genblk2\[384\]\.load\.loads_parallel\[0\]\.sw_buffer\.inv1
*1841 genblk2\[384\]\.load\.loads_parallel\[0\]\.sw_buffer\.inv16
*1842 genblk2\[384\]\.load\.loads_parallel\[0\]\.sw_buffer\.inv2
*1843 genblk2\[384\]\.load\.loads_parallel\[0\]\.sw_buffer\.inv4
*1844 genblk2\[384\]\.load\.loads_parallel\[0\]\.sw_buffer\.inv8
*1845 genblk2\[384\]\.load\.loads_parallel\[0\]\.sw_buffer\.nand1
*1846 genblk2\[384\]\.load\.loads_parallel\[0\]\.sw_buffer\.nand1_17
*1847 genblk2\[416\]\.load\.ini_buffer\.inv1
*1848 genblk2\[416\]\.load\.ini_buffer\.inv2
*1849 genblk2\[416\]\.load\.ini_buffer\.inv4
*1850 genblk2\[416\]\.load\.ini_buffer\.inv8
*1851 genblk2\[416\]\.load\.loads_parallel\[0\]\.sw_buffer\.inv1
*1852 genblk2\[416\]\.load\.loads_parallel\[0\]\.sw_buffer\.inv16
*1853 genblk2\[416\]\.load\.loads_parallel\[0\]\.sw_buffer\.inv2
*1854 genblk2\[416\]\.load\.loads_parallel\[0\]\.sw_buffer\.inv4
*1855 genblk2\[416\]\.load\.loads_parallel\[0\]\.sw_buffer\.inv8
*1856 genblk2\[416\]\.load\.loads_parallel\[0\]\.sw_buffer\.nand1
*1857 genblk2\[416\]\.load\.loads_parallel\[0\]\.sw_buffer\.nand1_18
*1858 genblk2\[448\]\.load\.ini_buffer\.inv1
*1859 genblk2\[448\]\.load\.ini_buffer\.inv2
*1860 genblk2\[448\]\.load\.ini_buffer\.inv4
*1861 genblk2\[448\]\.load\.ini_buffer\.inv8
*1862 genblk2\[448\]\.load\.loads_parallel\[0\]\.sw_buffer\.inv1
*1863 genblk2\[448\]\.load\.loads_parallel\[0\]\.sw_buffer\.inv16
*1864 genblk2\[448\]\.load\.loads_parallel\[0\]\.sw_buffer\.inv2
*1865 genblk2\[448\]\.load\.loads_parallel\[0\]\.sw_buffer\.inv4
*1866 genblk2\[448\]\.load\.loads_parallel\[0\]\.sw_buffer\.inv8
*1867 genblk2\[448\]\.load\.loads_parallel\[0\]\.sw_buffer\.nand1
*1868 genblk2\[448\]\.load\.loads_parallel\[0\]\.sw_buffer\.nand1_19
*1869 genblk2\[480\]\.load\.ini_buffer\.inv1
*1870 genblk2\[480\]\.load\.ini_buffer\.inv2
*1871 genblk2\[480\]\.load\.ini_buffer\.inv4
*1872 genblk2\[480\]\.load\.ini_buffer\.inv8
*1873 genblk2\[480\]\.load\.loads_parallel\[0\]\.sw_buffer\.inv1
*1874 genblk2\[480\]\.load\.loads_parallel\[0\]\.sw_buffer\.inv16
*1875 genblk2\[480\]\.load\.loads_parallel\[0\]\.sw_buffer\.inv2
*1876 genblk2\[480\]\.load\.loads_parallel\[0\]\.sw_buffer\.inv4
*1877 genblk2\[480\]\.load\.loads_parallel\[0\]\.sw_buffer\.inv8
*1878 genblk2\[480\]\.load\.loads_parallel\[0\]\.sw_buffer\.nand1
*1879 genblk2\[480\]\.load\.loads_parallel\[0\]\.sw_buffer\.nand1_20
*1880 genblk2\[512\]\.load\.ini_buffer\.inv1
*1881 genblk2\[512\]\.load\.ini_buffer\.inv2
*1882 genblk2\[512\]\.load\.ini_buffer\.inv4
*1883 genblk2\[512\]\.load\.ini_buffer\.inv8
*1884 genblk2\[512\]\.load\.loads_parallel\[0\]\.sw_buffer\.inv1
*1885 genblk2\[512\]\.load\.loads_parallel\[0\]\.sw_buffer\.inv16
*1886 genblk2\[512\]\.load\.loads_parallel\[0\]\.sw_buffer\.inv2
*1887 genblk2\[512\]\.load\.loads_parallel\[0\]\.sw_buffer\.inv4
*1888 genblk2\[512\]\.load\.loads_parallel\[0\]\.sw_buffer\.inv8
*1889 genblk2\[512\]\.load\.loads_parallel\[0\]\.sw_buffer\.nand1
*1890 genblk2\[512\]\.load\.loads_parallel\[0\]\.sw_buffer\.nand1_21
*1891 genblk2\[64\]\.load\.ini_buffer\.inv1
*1892 genblk2\[64\]\.load\.ini_buffer\.inv2
*1893 genblk2\[64\]\.load\.ini_buffer\.inv4
*1894 genblk2\[64\]\.load\.ini_buffer\.inv8
*1895 genblk2\[64\]\.load\.loads_parallel\[0\]\.sw_buffer\.inv1
*1896 genblk2\[64\]\.load\.loads_parallel\[0\]\.sw_buffer\.inv16
*1897 genblk2\[64\]\.load\.loads_parallel\[0\]\.sw_buffer\.inv2
*1898 genblk2\[64\]\.load\.loads_parallel\[0\]\.sw_buffer\.inv4
*1899 genblk2\[64\]\.load\.loads_parallel\[0\]\.sw_buffer\.inv8
*1900 genblk2\[64\]\.load\.loads_parallel\[0\]\.sw_buffer\.nand1
*1901 genblk2\[64\]\.load\.loads_parallel\[0\]\.sw_buffer\.nand1_22
*1902 genblk2\[96\]\.load\.ini_buffer\.inv1
*1903 genblk2\[96\]\.load\.ini_buffer\.inv2
*1904 genblk2\[96\]\.load\.ini_buffer\.inv4
*1905 genblk2\[96\]\.load\.ini_buffer\.inv8
*1906 genblk2\[96\]\.load\.loads_parallel\[0\]\.sw_buffer\.inv1
*1907 genblk2\[96\]\.load\.loads_parallel\[0\]\.sw_buffer\.inv16
*1908 genblk2\[96\]\.load\.loads_parallel\[0\]\.sw_buffer\.inv2
*1909 genblk2\[96\]\.load\.loads_parallel\[0\]\.sw_buffer\.inv4
*1910 genblk2\[96\]\.load\.loads_parallel\[0\]\.sw_buffer\.inv8
*1911 genblk2\[96\]\.load\.loads_parallel\[0\]\.sw_buffer\.nand1
*1912 genblk2\[96\]\.load\.loads_parallel\[0\]\.sw_buffer\.nand1_23
*1913 input1
*1914 input2
*1915 input3
*1916 input4
*1917 input5
*1918 output6

*PORTS
enable I
osc O
stage_en[0] I
stage_en[1] I
stage_en[2] I
stage_en[3] I

*D_NET *3 0.000377772
*CONN
*P enable I
*I *1913:A I *D sg13cmos5l_buf_1
*CAP
1 enable 0.000188886
2 *1913:A 0.000188886
*RES
1 enable *1913:A 42.4926 
*END

*D_NET *4 0.00113814
*CONN
*P osc O
*I *1918:X O *D sg13cmos5l_buf_1
*CAP
1 osc 0.000569072
2 *1918:X 0.000569072
3 osc *1918:A 0
*RES
1 *1918:X osc 46.4375 
*END

*D_NET *5 0.000658542
*CONN
*P stage_en[0] I
*I *1914:A I *D sg13cmos5l_buf_1
*CAP
1 stage_en[0] 0.000329271
2 *1914:A 0.000329271
3 *1914:A *1739:A 0
4 *1914:A *716:8 0
*RES
1 stage_en[0] *1914:A 43.7904 
*END

*D_NET *6 0.00118388
*CONN
*P stage_en[1] I
*I *1915:A I *D sg13cmos5l_buf_1
*CAP
1 stage_en[1] 0.000487053
2 *1915:A 0.000487053
3 *1915:A *720:6 0
4 *1915:A *720:10 0.000209779
*RES
1 stage_en[1] *1915:A 45.5208 
*END

*D_NET *7 0.000861606
*CONN
*P stage_en[2] I
*I *1916:A I *D sg13cmos5l_buf_1
*CAP
1 stage_en[2] 0.000309702
2 *1916:A 0.000309702
3 *1916:A *722:8 0.000242203
*RES
1 stage_en[2] *1916:A 43.7904 
*END

*D_NET *8 0.000513662
*CONN
*P stage_en[3] I
*I *1917:A I *D sg13cmos5l_buf_1
*CAP
1 stage_en[3] 0.000232929
2 *1917:A 0.000232929
3 *1917:A *722:8 4.7803e-05
*RES
1 stage_en[3] *1917:A 42.9252 
*END

*D_NET *9 0.00287077
*CONN
*I *1207:A I *D sg13cmos5l_nand2_1
*I *1209:A1 I *D sg13cmos5l_a21oi_2
*I *1201:Y O *D sg13cmos5l_nand2_1
*CAP
1 *1207:A 0
2 *1209:A1 0.000187122
3 *1201:Y 0.000129045
4 *9:25 0.000150646
5 *9:12 0.000476551
6 *9:8 0.000267827
7 *1209:A1 *1209:A2 0
8 *1209:A1 *28:33 0.000274463
9 *9:8 *385:8 0
10 *9:8 *392:16 0.00034245
11 *9:12 *28:33 0.000161813
12 *9:12 *28:56 0
13 *9:12 *392:8 0.000144992
14 *9:25 *1207:B 0.000501131
15 *9:25 *13:14 0
16 *9:25 *171:8 0.000234726
*RES
1 *1201:Y *9:8 41.8334 
2 *9:8 *9:12 21.6171 
3 *9:12 *1209:A1 21.8334 
4 *9:12 *9:25 42.3278 
5 *9:25 *1207:A 20 
*END

*D_NET *10 0.00358552
*CONN
*I *1203:B_N I *D sg13cmos5l_nor2b_1
*I *1211:A I *D sg13cmos5l_nor2_1
*I *1202:Y O *D sg13cmos5l_nor2b_1
*CAP
1 *1203:B_N 0.000198235
2 *1211:A 0
3 *1202:Y 0.000402575
4 *10:20 0.000389523
5 *10:12 0.000990333
6 *1203:B_N *720:25 0.000209593
7 *1203:B_N *721:12 0
8 *10:12 *1205:B 4.79124e-05
9 *10:12 *720:10 0.000209856
10 *10:12 *720:25 0.000210026
11 *10:20 *1204:A 0.000927462
12 *10:20 *13:14 0
13 *10:20 *28:41 0
14 *10:20 *721:33 0
*RES
1 *1202:Y *10:12 24.3981 
2 *10:12 *10:20 45.1191 
3 *10:20 *1211:A 20 
4 *10:12 *1203:B_N 22.0497 
*END

*D_NET *11 0.00433487
*CONN
*I *1206:B I *D sg13cmos5l_or4_1
*I *1203:Y O *D sg13cmos5l_nor2b_1
*CAP
1 *1206:B 0
2 *1203:Y 0
3 *11:10 0.000718657
4 *11:6 0.000718657
5 *11:10 *1212:A0 0.000820982
6 *11:10 *1781:A 0.000288173
7 *11:10 *28:56 0.000287256
8 *11:10 *72:14 0.000660228
9 *11:10 *127:14 0.000553247
10 *11:10 *128:8 0
11 *11:10 *387:10 0
12 *11:10 *720:25 0
13 *11:10 *722:33 0.000287672
*RES
1 *1203:Y *11:6 40 
2 *11:6 *11:10 30.2382 
3 *11:10 *1206:B 20 
*END

*D_NET *12 0.00316922
*CONN
*I *1206:C I *D sg13cmos5l_or4_1
*I *1204:Y O *D sg13cmos5l_nor2b_1
*CAP
1 *1206:C 0
2 *1204:Y 0
3 *12:12 0.00135218
4 *12:6 0.00135218
5 *12:12 *1204:A 0
6 *12:12 *1212:A0 0
7 *12:12 *1404:A 0.00012816
8 *12:12 *1781:A 0
9 *12:12 *13:14 0.000208129
10 *12:12 *14:10 0
11 *12:12 *72:14 0
12 *12:12 *387:10 0
13 *12:12 *392:16 0
14 *12:12 *721:33 0.000128576
*RES
1 *1204:Y *12:6 40 
2 *12:6 *12:12 32.1385 
3 *12:12 *1206:C 20 
*END

*D_NET *13 0.00347157
*CONN
*I *1206:D I *D sg13cmos5l_or4_1
*I *1205:Y O *D sg13cmos5l_nor3_2
*CAP
1 *1206:D 0
2 *1205:Y 0
3 *13:14 0.00144751
4 *13:6 0.00144751
5 *13:14 *1207:B 0
6 *13:14 *1404:A 0
7 *13:14 *1526:A 0
8 *13:14 *1527:A 0
9 *13:14 *1528:A 0
10 *13:14 *1882:A 8.02598e-05
11 *13:14 *1883:A 0
12 *13:14 *14:10 0
13 *13:14 *28:41 0
14 *13:14 *171:8 0.000288172
15 *13:14 *174:8 0
16 *13:14 *373:10 0
17 *13:14 *385:8 0
18 *13:14 *723:12 0
19 *9:25 *13:14 0
20 *10:20 *13:14 0
21 *12:12 *13:14 0.000208129
*RES
1 *1205:Y *13:6 40 
2 *13:6 *13:14 35.759 
3 *13:14 *1206:D 20 
*END

*D_NET *14 0.00340948
*CONN
*I *1207:B I *D sg13cmos5l_nand2_1
*I *1209:A2 I *D sg13cmos5l_a21oi_2
*I *1206:X O *D sg13cmos5l_or4_1
*CAP
1 *1207:B 0.000382357
2 *1209:A2 0.000207574
3 *1206:X 0.000590288
4 *14:10 0.00118022
5 *1207:B *171:8 0
6 *1207:B *385:8 0
7 *1209:A2 *1883:A 0
8 *14:10 *1399:A 0.000435232
9 *14:10 *1404:A 0
10 *14:10 *1883:A 0.000112684
11 *14:10 *385:8 0
12 *1209:A1 *1209:A2 0
13 *9:25 *1207:B 0.000501131
14 *12:12 *14:10 0
15 *13:14 *1207:B 0
16 *13:14 *14:10 0
*RES
1 *1206:X *14:10 45.6444 
2 *14:10 *1209:A2 41.8334 
3 *14:10 *1207:B 43.9552 
*END

*D_NET *15 0.0069546
*CONN
*I *1209:B1 I *D sg13cmos5l_a21oi_2
*I *1208:Y O *D sg13cmos5l_inv_1
*CAP
1 *1209:B1 0
2 *1208:Y 0.000607719
3 *15:22 0.00196729
4 *15:10 0.002575
5 *15:10 *1208:A 0
6 *15:10 *1744:A 4.73096e-05
7 *15:10 *22:24 0.000235345
8 *15:10 *34:8 0
9 *15:22 *1377:A 0
10 *15:22 *1737:A 4.79124e-05
11 *15:22 *1887:A 0.000597084
12 *15:22 *28:33 0.000637291
13 *15:22 *29:10 7.92311e-05
14 *15:22 *32:16 0
15 *15:22 *171:14 0.000145035
16 *15:22 *723:12 1.53846e-05
*RES
1 *1208:Y *15:10 46.1079 
2 *15:10 *15:22 35.5324 
3 *15:22 *1209:B1 20 
*END

*D_NET *16 0.000481984
*CONN
*I *1211:B I *D sg13cmos5l_nor2_1
*I *1210:Y O *D sg13cmos5l_nor2_1
*CAP
1 *1211:B 0.000240992
2 *1210:Y 0.000240992
3 *1211:B *1210:A 0
4 *1211:B *72:12 0
*RES
1 *1210:Y *1211:B 41.751 
*END

*D_NET *17 0.00361466
*CONN
*I *1324:A I *D sg13cmos5l_inv_8
*I *1726:A I *D sg13cmos5l_inv_1
*I *1200:A0 I *D sg13cmos5l_mux2_2
*I *1213:Y O *D sg13cmos5l_inv_8
*CAP
1 *1324:A 0.000215079
2 *1726:A 0.000545226
3 *1200:A0 7.47442e-05
4 *1213:Y 0.000569359
5 *17:10 0.00097425
6 *1200:A0 *1373:A 0
7 *1200:A0 *28:16 0.000128576
8 *1324:A *1213:A 0
9 *1324:A *1435:A 0
10 *1324:A *1881:A 0
11 *1324:A *1889:B 0
12 *1324:A *358:12 0
13 *1726:A *1245:A 0.000235141
14 *1726:A *18:8 0
15 *1726:A *28:16 0.000106064
16 *1726:A *237:10 0
17 *1726:A *238:10 0.000395068
18 *17:10 *1728:A 0.000371157
19 *17:10 *1881:A 0
20 *17:10 *1885:A 0
*RES
1 *1213:Y *17:10 43.6977 
2 *17:10 *1200:A0 40.9167 
3 *17:10 *1726:A 47.0967 
4 *1213:Y *1324:A 42.266 
*END

*D_NET *18 0.00197051
*CONN
*I *1727:A I *D sg13cmos5l_inv_2
*I *1726:Y O *D sg13cmos5l_inv_1
*CAP
1 *1727:A 0.000111143
2 *1726:Y 0.000606194
3 *18:8 0.000717337
4 *1727:A *1728:A 0.000144931
5 *1727:A *350:10 0.000209713
6 *18:8 *1245:A 0
7 *18:8 *232:8 0
8 *18:8 *233:8 0
9 *18:8 *234:10 0.000181192
10 *18:8 *238:10 0
11 *1726:A *18:8 0
*RES
1 *1726:Y *18:8 46.5302 
2 *18:8 *1727:A 41.4008 
*END

*D_NET *19 0.00202497
*CONN
*I *1728:A I *D sg13cmos5l_inv_4
*I *1727:Y O *D sg13cmos5l_inv_2
*CAP
1 *1728:A 0.000706632
2 *1727:Y 0.000706632
3 *1728:A *1213:A 1.54556e-05
4 *1728:A *1247:A 0
5 *1728:A *1435:A 0
6 *1728:A *1729:A 0
7 *1728:A *1889:B 0
8 *1728:A *28:8 8.01612e-05
9 *1728:A *237:10 0
10 *1728:A *350:10 0
11 *1728:A *358:12 0
12 *1727:A *1728:A 0.000144931
13 *17:10 *1728:A 0.000371157
*RES
1 *1727:Y *1728:A 47.828 
*END

*D_NET *20 0.00214659
*CONN
*I *1729:A I *D sg13cmos5l_inv_8
*I *1728:Y O *D sg13cmos5l_inv_4
*CAP
1 *1729:A 0.000863557
2 *1728:Y 0.000863557
3 *1729:A *1247:A 0
4 *1729:A *1371:A 0.00017729
5 *1729:A *234:10 0
6 *1729:A *238:10 0.000242181
7 *1729:A *350:10 0
8 *1729:A *421:18 0
9 *1728:A *1729:A 0
*RES
1 *1728:Y *1729:A 48.755 
*END

*D_NET *21 0.00375688
*CONN
*I *1735:A I *D sg13cmos5l_nand2_1
*I *1729:Y O *D sg13cmos5l_inv_8
*CAP
1 *1735:A 0.000634641
2 *1729:Y 0.000155124
3 *21:8 0.000789765
4 *1735:A *24:10 0.00146368
5 *1735:A *26:12 0
6 *1735:A *35:10 0.000713673
7 *21:8 *1371:A 0
*RES
1 *1729:Y *21:8 41.4008 
2 *21:8 *1735:A 49.2494 
*END

*D_NET *22 0.00609125
*CONN
*I *1732:A I *D sg13cmos5l_inv_2
*I *1730:Y O *D sg13cmos5l_inv_1
*CAP
1 *1732:A 0
2 *1730:Y 0.000640918
3 *22:24 0.00128921
4 *22:18 0.00135804
5 *22:12 0.000709742
6 *22:12 *1354:A 0
7 *22:12 *1772:A 7.57164e-05
8 *22:12 *26:12 0.000338245
9 *22:12 *64:10 0.00043538
10 *22:12 *357:20 7.61542e-05
11 *22:24 *1743:A 0
12 *22:24 *63:12 0
13 *22:24 *706:16 0.000932501
14 *15:10 *22:24 0.000235345
*RES
1 *1730:Y *22:12 46.4581 
2 *22:12 *22:18 40.7519 
3 *22:18 *22:24 31.5154 
4 *22:24 *1732:A 20 
*END

*D_NET *23 0.00145856
*CONN
*I *1733:A I *D sg13cmos5l_inv_4
*I *1732:Y O *D sg13cmos5l_inv_2
*CAP
1 *1733:A 0.000133429
2 *1732:Y 0.000353321
3 *23:12 0.000486751
4 *1733:A *1377:A 0.000144768
5 *23:12 *363:10 0.000340288
*RES
1 *1732:Y *23:12 42.472 
2 *23:12 *1733:A 41.1845 
*END

*D_NET *24 0.00412305
*CONN
*I *1734:A I *D sg13cmos5l_inv_8
*I *1733:Y O *D sg13cmos5l_inv_4
*CAP
1 *1734:A 0
2 *1733:Y 0.000366039
3 *24:10 0.000366039
4 *24:10 *25:12 0.000143855
5 *24:10 *26:12 0.00178344
6 *1735:A *24:10 0.00146368
*RES
1 *1733:Y *24:10 48.5799 
2 *24:10 *1734:A 40 
*END

*D_NET *25 0.000553087
*CONN
*I *1731:A I *D sg13cmos5l_inv_16
*I *1734:Y O *D sg13cmos5l_inv_8
*CAP
1 *1731:A 0
2 *1734:Y 0.000204616
3 *25:12 0.000204616
4 *25:12 *64:10 0
5 *24:10 *25:12 0.000143855
*RES
1 *1734:Y *25:12 42.2557 
2 *25:12 *1731:A 40 
*END

*D_NET *26 0.00467067
*CONN
*I *1730:A I *D sg13cmos5l_inv_1
*I *1735:Y O *D sg13cmos5l_nand2_1
*CAP
1 *1730:A 0
2 *1735:Y 0
3 *26:12 0.00121037
4 *26:6 0.00121037
5 *26:12 *1772:A 0
6 *26:12 *35:10 0
7 *26:12 *64:10 0.000128248
8 *26:12 *349:10 0
9 *26:12 *363:10 0
10 *1735:A *26:12 0
11 *22:12 *26:12 0.000338245
12 *24:10 *26:12 0.00178344
*RES
1 *1735:Y *26:6 40 
2 *26:6 *26:12 33.9874 
3 *26:12 *1730:A 20 
*END

*D_NET *28 0.00956914
*CONN
*I *1245:A I *D sg13cmos5l_inv_8
*I *1210:B I *D sg13cmos5l_nor2_1
*I *1205:C I *D sg13cmos5l_nor3_2
*I *1737:A I *D sg13cmos5l_inv_1
*I *1200:X O *D sg13cmos5l_mux2_2
*CAP
1 *1245:A 5.38938e-05
2 *1210:B 0
3 *1205:C 0
4 *1737:A 0.000200576
5 *1200:X 4.30175e-05
6 *28:56 0.000500763
7 *28:41 0.000727132
8 *28:33 0.00217253
9 *28:16 0.00153179
10 *28:8 0.000483492
11 *1245:A *234:10 0.000159096
12 *1737:A *29:10 0
13 *1737:A *32:16 4.77863e-05
14 *28:8 *350:10 8.01612e-05
15 *28:16 *31:10 0
16 *28:16 *234:10 0.000181694
17 *28:16 *350:10 0
18 *28:16 *716:12 0.000929122
19 *28:33 *1364:A 0
20 *28:33 *32:16 0.000339398
21 *28:33 *171:14 0
22 *28:33 *175:10 0
23 *28:33 *723:12 0.000112267
24 *28:41 *1204:A 0
25 *28:41 *1205:B 0
26 *28:41 *1398:A 0
27 *28:41 *385:8 0
28 *28:56 *1210:A 4.77425e-05
29 *28:56 *1400:A 0
30 *28:56 *387:10 0
31 *28:56 *392:8 0
32 *1200:A0 *28:16 0.000128576
33 *1209:A1 *28:33 0.000274463
34 *1726:A *1245:A 0.000235141
35 *1726:A *28:16 0.000106064
36 *1728:A *28:8 8.01612e-05
37 *9:12 *28:33 0.000161813
38 *9:12 *28:56 0
39 *10:20 *28:41 0
40 *11:10 *28:56 0.000287256
41 *13:14 *28:41 0
42 *15:22 *1737:A 4.79124e-05
43 *15:22 *28:33 0.000637291
44 *18:8 *1245:A 0
*RES
1 *1200:X *28:8 40.5356 
2 *28:8 *28:16 26.4581 
3 *28:16 *1737:A 21.9673 
4 *28:16 *28:33 10.4854 
5 *28:33 *28:41 46.9731 
6 *28:41 *1205:C 20 
7 *28:33 *28:56 44.7895 
8 *28:56 *1210:B 20 
9 *28:8 *1245:A 41.0918 
*END

*D_NET *29 0.000770926
*CONN
*I *1738:A I *D sg13cmos5l_inv_2
*I *1737:Y O *D sg13cmos5l_inv_1
*CAP
1 *1738:A 0.000149049
2 *1737:Y 0.000196799
3 *29:10 0.000345848
4 *1738:A *1746:B 0
5 *29:10 *31:10 0
6 *1737:A *29:10 0
7 *15:22 *29:10 7.92311e-05
*RES
1 *1737:Y *29:10 41.8746 
2 *29:10 *1738:A 40.9682 
*END

*D_NET *30 0.00133611
*CONN
*I *1739:A I *D sg13cmos5l_inv_4
*I *1738:Y O *D sg13cmos5l_inv_2
*CAP
1 *1739:A 0.000139406
2 *1738:Y 0.000520949
3 *30:8 0.000660354
4 *1739:A *1383:A 0
5 *1739:A *31:10 1.54008e-05
6 *1739:A *716:8 0
7 *30:8 *31:10 0
8 *30:8 *716:12 0
9 *1914:A *1739:A 0
*RES
1 *1738:Y *30:8 44.7998 
2 *30:8 *1739:A 40.6616 
*END

*D_NET *31 0.0014686
*CONN
*I *1740:A I *D sg13cmos5l_inv_8
*I *1739:Y O *D sg13cmos5l_inv_4
*CAP
1 *1740:A 0
2 *1739:Y 0.000726599
3 *31:10 0.000726599
4 *31:10 *1382:A 0
5 *31:10 *716:12 0
6 *1739:A *31:10 1.54008e-05
7 *28:16 *31:10 0
8 *29:10 *31:10 0
9 *30:8 *31:10 0
*RES
1 *1739:Y *31:10 48.2709 
2 *31:10 *1740:A 40 
*END

*D_NET *32 0.00209711
*CONN
*I *1746:A I *D sg13cmos5l_nand2_1
*I *1740:Y O *D sg13cmos5l_inv_8
*CAP
1 *1746:A 4.51983e-05
2 *1740:Y 0.000692654
3 *32:16 0.000737852
4 *1746:A *1746:B 0
5 *32:16 *1364:A 0
6 *32:16 *1373:A 0
7 *32:16 *1880:A 0.000234224
8 *32:16 *1888:A 0
9 *32:16 *37:8 0
10 *1737:A *32:16 4.77863e-05
11 *15:22 *32:16 0
12 *28:33 *32:16 0.000339398
*RES
1 *1740:Y *32:16 47.8383 
2 *32:16 *1746:A 40.3193 
*END

*D_NET *33 0.00260881
*CONN
*I *1743:A I *D sg13cmos5l_inv_2
*I *1741:Y O *D sg13cmos5l_inv_1
*CAP
1 *1743:A 0.000417575
2 *1741:Y 0.000716223
3 *33:10 0.0011338
4 *33:10 *1378:A 0
5 *33:10 *1381:A 0
6 *33:10 *1382:A 0
7 *33:10 *363:10 0.000341216
8 *22:24 *1743:A 0
*RES
1 *1741:Y *33:10 46.0152 
2 *33:10 *1743:A 42.9149 
*END

*D_NET *34 0.00206517
*CONN
*I *1744:A I *D sg13cmos5l_inv_4
*I *1743:Y O *D sg13cmos5l_inv_2
*CAP
1 *1744:A 0.000602872
2 *1743:Y 0.000406055
3 *34:8 0.00100893
4 *1744:A *1208:A 0
5 *1744:A *1378:A 0
6 *1744:A *1380:A 0
7 *1744:A *1381:A 0
8 *1744:A *35:10 0
9 *1744:A *363:10 0
10 *15:10 *1744:A 4.73096e-05
11 *15:10 *34:8 0
*RES
1 *1743:Y *34:8 44.3054 
2 *34:8 *1744:A 43.7084 
*END

*D_NET *35 0.00335104
*CONN
*I *1745:A I *D sg13cmos5l_inv_8
*I *1744:Y O *D sg13cmos5l_inv_4
*CAP
1 *1745:A 3.77166e-05
2 *1744:Y 0.00073831
3 *35:10 0.000776027
4 *35:10 *363:10 0
5 *35:10 *364:10 0.00108531
6 *1735:A *35:10 0.000713673
7 *1744:A *35:10 0
8 *26:12 *35:10 0
*RES
1 *1744:Y *35:10 49.9395 
2 *35:10 *1745:A 40.3193 
*END

*D_NET *36 0.000452405
*CONN
*I *1742:A I *D sg13cmos5l_inv_16
*I *1745:Y O *D sg13cmos5l_inv_8
*CAP
1 *1742:A 0.000226203
2 *1745:Y 0.000226203
3 *1742:A *1363:A 0
4 *1742:A *361:10 0
*RES
1 *1745:Y *1742:A 42.2145 
*END

*D_NET *37 0.00105211
*CONN
*I *1741:A I *D sg13cmos5l_inv_1
*I *1746:Y O *D sg13cmos5l_nand2_1
*CAP
1 *1741:A 0.000372015
2 *1746:Y 0.00015404
3 *37:8 0.000526055
4 *1741:A *1383:A 0
5 *1741:A *1384:A 0
6 *37:8 *180:10 0
7 *32:16 *37:8 0
*RES
1 *1746:Y *37:8 41.5862 
2 *37:8 *1741:A 43.3475 
*END

*D_NET *39 0.0010027
*CONN
*I *1281:A I *D sg13cmos5l_inv_8
*I *1748:A I *D sg13cmos5l_inv_1
*I *1280:Y O *D sg13cmos5l_inv_8
*CAP
1 *1281:A 2.47956e-05
2 *1748:A 0
3 *1280:Y 0.00013538
4 *39:14 0.000269143
5 *39:6 0.000429318
6 *1281:A *1750:A 0
7 *39:14 *1749:A 0
8 *39:14 *1750:A 0
9 *39:14 *41:8 0.000128662
10 *39:14 *43:10 1.54008e-05
11 *39:14 *268:8 0
*RES
1 *1280:Y *39:6 21.4008 
2 *39:6 *39:14 43.3887 
3 *39:14 *1748:A 20 
4 *39:6 *1281:A 20.3193 
*END

*D_NET *40 0.000345829
*CONN
*I *1749:A I *D sg13cmos5l_inv_2
*I *1748:Y O *D sg13cmos5l_inv_1
*CAP
1 *1749:A 0.000172914
2 *1748:Y 0.000172914
3 *1749:A *1750:A 0
4 *1749:A *1754:A 0
5 *1749:A *1755:A 0
6 *1749:A *1757:B 0
7 *39:14 *1749:A 0
*RES
1 *1748:Y *1749:A 42.1218 
*END

*D_NET *41 0.00109708
*CONN
*I *1750:A I *D sg13cmos5l_inv_4
*I *1749:Y O *D sg13cmos5l_inv_2
*CAP
1 *1750:A 5.72595e-05
2 *1749:Y 0.000175556
3 *41:8 0.000232816
4 *41:8 *43:10 0
5 *41:8 *354:8 0.00050279
6 *1281:A *1750:A 0
7 *1749:A *1750:A 0
8 *39:14 *1750:A 0
9 *39:14 *41:8 0.000128662
*RES
1 *1749:Y *41:8 42.575 
2 *41:8 *1750:A 40.5356 
*END

*D_NET *42 0.000256557
*CONN
*I *1751:A I *D sg13cmos5l_inv_8
*I *1750:Y O *D sg13cmos5l_inv_4
*CAP
1 *1751:A 0.000128279
2 *1750:Y 0.000128279
3 *1751:A *1423:A 0
4 *1751:A *1757:B 0
5 *1751:A *43:10 0
*RES
1 *1750:Y *1751:A 41.4008 
*END

*D_NET *43 0.000557129
*CONN
*I *1757:A I *D sg13cmos5l_nand2_1
*I *1751:Y O *D sg13cmos5l_inv_8
*CAP
1 *1757:A 0
2 *1751:Y 0.000270864
3 *43:10 0.000270864
4 *43:10 *1757:B 0
5 *1751:A *43:10 0
6 *39:14 *43:10 1.54008e-05
7 *41:8 *43:10 0
*RES
1 *1751:Y *43:10 42.4926 
2 *43:10 *1757:A 40 
*END

*D_NET *44 0.000676838
*CONN
*I *1754:A I *D sg13cmos5l_inv_2
*I *1752:Y O *D sg13cmos5l_inv_1
*CAP
1 *1754:A 0.000330691
2 *1752:Y 0.000330691
3 *1754:A *1752:A 1.54556e-05
4 *1754:A *1755:A 0
5 *1754:A *1757:B 0
6 *1749:A *1754:A 0
*RES
1 *1752:Y *1754:A 43.4608 
*END

*D_NET *45 0.00080146
*CONN
*I *1755:A I *D sg13cmos5l_inv_4
*I *1754:Y O *D sg13cmos5l_inv_2
*CAP
1 *1755:A 0.00040073
2 *1754:Y 0.00040073
3 *1755:A *1752:A 0
4 *1755:A *1753:A 0
5 *1755:A *1756:A 0
6 *1755:A *1757:B 0
7 *1749:A *1755:A 0
8 *1754:A *1755:A 0
*RES
1 *1754:Y *1755:A 43.9964 
*END

*D_NET *46 0.000273614
*CONN
*I *1756:A I *D sg13cmos5l_inv_8
*I *1755:Y O *D sg13cmos5l_inv_4
*CAP
1 *1756:A 0.000136807
2 *1755:Y 0.000136807
3 *1756:A *1753:A 0
4 *1755:A *1756:A 0
*RES
1 *1755:Y *1756:A 41.4008 
*END

*D_NET *47 0.00032514
*CONN
*I *1753:A I *D sg13cmos5l_inv_16
*I *1756:Y O *D sg13cmos5l_inv_8
*CAP
1 *1753:A 0.00016257
2 *1756:Y 0.00016257
3 *1755:A *1753:A 0
4 *1756:A *1753:A 0
*RES
1 *1756:Y *1753:A 42.0806 
*END

*D_NET *48 0.000529386
*CONN
*I *1752:A I *D sg13cmos5l_inv_1
*I *1757:Y O *D sg13cmos5l_nand2_1
*CAP
1 *1752:A 0.000135809
2 *1757:Y 0.000135809
3 *1752:A *1757:B 0.000242313
4 *1754:A *1752:A 1.54556e-05
5 *1755:A *1752:A 0
*RES
1 *1757:Y *1752:A 41.6171 
*END

*D_NET *50 0.00179043
*CONN
*I *1316:A I *D sg13cmos5l_inv_8
*I *1759:A I *D sg13cmos5l_inv_1
*I *1315:Y O *D sg13cmos5l_inv_8
*CAP
1 *1316:A 0.000137477
2 *1759:A 0.00037387
3 *1315:Y 0.000239014
4 *50:8 0.000750361
5 *1316:A *1314:A 0
6 *1316:A *1317:A 0.000144767
7 *1316:A *1761:A 0
8 *1759:A *51:10 0.000144942
9 *1759:A *52:8 0
10 *50:8 *54:10 0
*RES
1 *1315:Y *50:8 42.8222 
2 *50:8 *1759:A 43.7286 
3 *50:8 *1316:A 41.4008 
*END

*D_NET *51 0.00212382
*CONN
*I *1760:A I *D sg13cmos5l_inv_2
*I *1759:Y O *D sg13cmos5l_inv_1
*CAP
1 *1760:A 2.85874e-05
2 *1759:Y 0.000763273
3 *51:10 0.000791861
4 *51:10 *52:8 0
5 *51:10 *306:12 0.000395154
6 *1759:A *51:10 0.000144942
*RES
1 *1759:Y *51:10 47.4057 
2 *51:10 *1760:A 40.3193 
*END

*D_NET *52 0.00257983
*CONN
*I *1761:A I *D sg13cmos5l_inv_4
*I *1760:Y O *D sg13cmos5l_inv_2
*CAP
1 *1761:A 0.000595148
2 *1760:Y 0.000622374
3 *52:8 0.00121752
4 *1761:A *1317:A 0
5 *1761:A *1318:A 0
6 *1761:A *306:12 0.000144784
7 *1761:A *701:10 0
8 *52:8 *306:12 0
9 *52:8 *308:8 0
10 *1316:A *1761:A 0
11 *1759:A *52:8 0
12 *51:10 *52:8 0
*RES
1 *1760:Y *52:8 46.0358 
2 *52:8 *1761:A 45.5105 
*END

*D_NET *53 0.000133739
*CONN
*I *1762:A I *D sg13cmos5l_inv_8
*I *1761:Y O *D sg13cmos5l_inv_4
*CAP
1 *1762:A 6.68694e-05
2 *1761:Y 6.68694e-05
*RES
1 *1761:Y *1762:A 40.8446 
*END

*D_NET *54 0.00153162
*CONN
*I *1768:A I *D sg13cmos5l_nand2_1
*I *1762:Y O *D sg13cmos5l_inv_8
*CAP
1 *1768:A 5.82225e-05
2 *1762:Y 0.000707585
3 *54:10 0.000765808
4 *54:10 *1314:A 0
5 *54:10 *300:8 0
6 *54:10 *674:12 0
7 *50:8 *54:10 0
*RES
1 *1762:Y *54:10 46.1079 
2 *54:10 *1768:A 40.5356 
*END

*D_NET *55 0.00302504
*CONN
*I *1765:A I *D sg13cmos5l_inv_2
*I *1763:Y O *D sg13cmos5l_inv_1
*CAP
1 *1765:A 0.000163087
2 *1763:Y 0.000707048
3 *55:10 0.000870135
4 *1765:A *58:10 0
5 *55:10 *1763:A 0.000143932
6 *55:10 *58:10 0.00114083
7 *55:10 *700:14 0
*RES
1 *1763:Y *55:10 47.4984 
2 *55:10 *1765:A 41.4008 
*END

*D_NET *56 0.00146125
*CONN
*I *1766:A I *D sg13cmos5l_inv_4
*I *1765:Y O *D sg13cmos5l_inv_2
*CAP
1 *1766:A 0.000139236
2 *1765:Y 0.000374459
3 *56:12 0.000513695
4 *1766:A *1287:A 0
5 *1766:A *57:10 0.000144942
6 *56:12 *57:10 0.000288917
7 *56:12 *726:14 0
*RES
1 *1765:Y *56:12 44.2333 
2 *56:12 *1766:A 41.6171 
*END

*D_NET *57 0.00104865
*CONN
*I *1767:A I *D sg13cmos5l_inv_8
*I *1766:Y O *D sg13cmos5l_inv_4
*CAP
1 *1767:A 5.525e-05
2 *1766:Y 0.000252144
3 *57:10 0.000307394
4 *1766:A *57:10 0.000144942
5 *56:12 *57:10 0.000288917
*RES
1 *1766:Y *57:10 42.7707 
2 *57:10 *1767:A 40.5356 
*END

*D_NET *58 0.00292578
*CONN
*I *1764:A I *D sg13cmos5l_inv_16
*I *1767:Y O *D sg13cmos5l_inv_8
*CAP
1 *1764:A 0.000226332
2 *1767:Y 0.00066614
3 *58:10 0.000892472
4 *1764:A *1215:A 0
5 *58:10 *59:10 0
6 *58:10 *700:14 0
7 *58:10 *701:10 0
8 *1765:A *58:10 0
9 *55:10 *58:10 0.00114083
*RES
1 *1767:Y *58:10 47.7147 
2 *58:10 *1764:A 41.6171 
*END

*D_NET *59 0.00337196
*CONN
*I *1763:A I *D sg13cmos5l_inv_1
*I *1768:Y O *D sg13cmos5l_nand2_1
*CAP
1 *1763:A 0.000325498
2 *1768:Y 0.00106432
3 *59:10 0.00138981
4 *59:10 *674:12 0
5 *59:10 *675:8 0
6 *59:10 *700:14 0
7 *59:10 *701:10 0.000448401
8 *59:10 *726:14 0
9 *55:10 *1763:A 0.000143932
10 *58:10 *59:10 0
*RES
1 *1768:Y *59:10 49.7541 
2 *59:10 *1763:A 42.6986 
*END

*D_NET *61 0.00678251
*CONN
*I *1352:A I *D sg13cmos5l_inv_8
*I *1770:A I *D sg13cmos5l_inv_1
*I *1351:Y O *D sg13cmos5l_inv_8
*CAP
1 *1352:A 8.07215e-05
2 *1770:A 0.000156687
3 *1351:Y 0.000361392
4 *61:20 0.000929428
5 *61:16 0.00103888
6 *61:10 0.000546813
7 *1352:A *1353:A 0
8 *61:10 *1350:A 0
9 *61:10 *1351:A 0
10 *61:10 *1358:A 0
11 *61:10 *62:14 0
12 *61:16 *1350:A 4.77425e-05
13 *61:16 *1351:A 0
14 *61:16 *1353:A 0
15 *61:20 *224:8 0.000454168
16 *61:20 *357:20 0.00271362
17 *61:20 *706:16 0.000453047
*RES
1 *1351:Y *61:10 43.4814 
2 *61:10 *61:16 21.751 
3 *61:16 *61:20 32.463 
4 *61:20 *1770:A 41.1845 
5 *61:16 *1352:A 20.7519 
*END

*D_NET *62 0.00545977
*CONN
*I *1771:A I *D sg13cmos5l_inv_2
*I *1770:Y O *D sg13cmos5l_inv_1
*CAP
1 *1771:A 0
2 *1770:Y 0
3 *62:14 0.00213778
4 *62:6 0.00213778
5 *62:14 *1375:A 0
6 *62:14 *1772:A 0.000289504
7 *62:14 *63:12 0
8 *62:14 *222:8 0.000447355
9 *62:14 *327:10 0.000447355
10 *62:14 *329:8 0
11 *62:14 *333:8 0
12 *62:14 *336:8 0
13 *62:14 *345:10 0
14 *62:14 *357:20 0
15 *61:10 *62:14 0
*RES
1 *1770:Y *62:6 40 
2 *62:6 *62:14 44.5037 
3 *62:14 *1771:A 20 
*END

*D_NET *63 0.00471023
*CONN
*I *1772:A I *D sg13cmos5l_inv_4
*I *1771:Y O *D sg13cmos5l_inv_2
*CAP
1 *1772:A 0.00100934
2 *1771:Y 0.000965464
3 *63:12 0.00197481
4 *1772:A *1353:A 0
5 *1772:A *1354:A 0
6 *1772:A *1371:A 0
7 *1772:A *1778:A 0
8 *1772:A *64:10 0
9 *1772:A *67:12 0
10 *1772:A *357:20 0
11 *1772:A *706:16 0
12 *63:12 *345:10 0.000395396
13 *63:12 *349:10 0
14 *63:12 *706:16 0
15 *22:12 *1772:A 7.57164e-05
16 *22:24 *63:12 0
17 *26:12 *1772:A 0
18 *62:14 *1772:A 0.000289504
19 *62:14 *63:12 0
*RES
1 *1771:Y *63:12 49.6408 
2 *63:12 *1772:A 49.8468 
*END

*D_NET *64 0.00263937
*CONN
*I *1773:A I *D sg13cmos5l_inv_8
*I *1772:Y O *D sg13cmos5l_inv_4
*CAP
1 *1773:A 0.000150115
2 *1772:Y 0.000759115
3 *64:10 0.00090923
4 *1773:A *706:20 0.000241886
5 *64:10 *1371:A 0
6 *64:10 *67:12 0
7 *64:10 *357:20 1.54008e-05
8 *1772:A *64:10 0
9 *22:12 *64:10 0.00043538
10 *25:12 *64:10 0
11 *26:12 *64:10 0.000128248
*RES
1 *1772:Y *64:10 48.0546 
2 *64:10 *1773:A 41.6171 
*END

*D_NET *65 0.0031243
*CONN
*I *1779:A I *D sg13cmos5l_nand2_1
*I *1773:Y O *D sg13cmos5l_inv_8
*CAP
1 *1779:A 0
2 *1773:Y 0.00111749
3 *65:10 0.00111749
4 *65:10 *1242:A 0
5 *65:10 *1253:A 0
6 *65:10 *1254:A 0
7 *65:10 *1692:A 0
8 *65:10 *1775:A 0
9 *65:10 *706:20 0.000889331
*RES
1 *1773:Y *65:10 31.5875 
2 *65:10 *1779:A 20 
*END

*D_NET *66 0.000917658
*CONN
*I *1776:A I *D sg13cmos5l_inv_2
*I *1774:Y O *D sg13cmos5l_inv_1
*CAP
1 *1776:A 0
2 *1774:Y 0.000337683
3 *66:10 0.000337683
4 *66:10 *67:12 0
5 *66:10 *70:12 0.000242291
*RES
1 *1774:Y *66:10 42.9561 
2 *66:10 *1776:A 40 
*END

*D_NET *67 0.00306325
*CONN
*I *1777:A I *D sg13cmos5l_inv_4
*I *1776:Y O *D sg13cmos5l_inv_2
*CAP
1 *1777:A 0
2 *1776:Y 0
3 *67:12 0.0015239
4 *67:6 0.0015239
5 *67:12 *1778:A 1.54556e-05
6 *67:12 *706:20 0
7 *1772:A *67:12 0
8 *64:10 *67:12 0
9 *66:10 *67:12 0
*RES
1 *1776:Y *67:6 40 
2 *67:6 *67:12 33.9874 
3 *67:12 *1777:A 20 
*END

*D_NET *68 0.000334499
*CONN
*I *1778:A I *D sg13cmos5l_inv_8
*I *1777:Y O *D sg13cmos5l_inv_4
*CAP
1 *1778:A 0.000159522
2 *1777:Y 0.000159522
3 *1778:A *706:20 0
4 *1772:A *1778:A 0
5 *67:12 *1778:A 1.54556e-05
*RES
1 *1777:Y *1778:A 41.9467 
*END

*D_NET *69 0.000484069
*CONN
*I *1775:A I *D sg13cmos5l_inv_16
*I *1778:Y O *D sg13cmos5l_inv_8
*CAP
1 *1775:A 0.000137727
2 *1778:Y 0.000137727
3 *1775:A *1242:A 0.000208615
4 *65:10 *1775:A 0
*RES
1 *1778:Y *1775:A 41.4008 
*END

*D_NET *70 0.00633272
*CONN
*I *1774:A I *D sg13cmos5l_inv_1
*I *1779:Y O *D sg13cmos5l_nand2_1
*CAP
1 *1774:A 0
2 *1779:Y 0
3 *70:12 0.00194162
4 *70:6 0.00194162
5 *70:12 *351:10 0.0022072
6 *70:12 *723:27 0
7 *66:10 *70:12 0.000242291
*RES
1 *1779:Y *70:6 40 
2 *70:6 *70:12 41.8051 
3 *70:12 *1774:A 20 
*END

*D_NET *72 0.00398413
*CONN
*I *1212:A0 I *D sg13cmos5l_mux2_1
*I *1387:A I *D sg13cmos5l_inv_8
*I *1781:A I *D sg13cmos5l_inv_1
*I *1211:Y O *D sg13cmos5l_nor2_1
*CAP
1 *1212:A0 0.000349716
2 *1387:A 3.49737e-05
3 *1781:A 0.00021475
4 *1211:Y 0.000193983
5 *72:14 0.00045201
6 *72:12 0.000745986
7 *1212:A0 *1212:A1 4.77425e-05
8 *1212:A0 *1400:A 8.00842e-05
9 *1212:A0 *387:10 0
10 *1387:A *1388:A 4.77425e-05
11 *1781:A *720:25 4.77537e-05
12 *72:12 *1210:A 0
13 *1211:B *72:12 0
14 *11:10 *1212:A0 0.000820982
15 *11:10 *1781:A 0.000288173
16 *11:10 *72:14 0.000660228
17 *12:12 *1212:A0 0
18 *12:12 *1781:A 0
19 *12:12 *72:14 0
*RES
1 *1211:Y *72:12 41.6377 
2 *72:12 *72:14 3.0694 
3 *72:14 *1781:A 42.6471 
4 *72:14 *1387:A 40.3193 
5 *72:12 *1212:A0 44.6659 
*END

*D_NET *73 0.00294741
*CONN
*I *1782:A I *D sg13cmos5l_inv_2
*I *1781:Y O *D sg13cmos5l_inv_1
*CAP
1 *1782:A 0.000227294
2 *1781:Y 0.000266416
3 *73:8 0.000493711
4 *73:8 *720:25 0.00108647
5 *73:8 *721:51 0.000873514
6 *73:8 *722:14 0
*RES
1 *1781:Y *73:8 45.5414 
2 *73:8 *1782:A 41.6171 
*END

*D_NET *74 0.000764296
*CONN
*I *1783:A I *D sg13cmos5l_inv_4
*I *1782:Y O *D sg13cmos5l_inv_2
*CAP
1 *1783:A 0.000183147
2 *1782:Y 0.000199001
3 *74:8 0.000382148
4 *1783:A *1397:A 0
5 *74:8 *76:10 0
6 *74:8 *722:14 0
*RES
1 *1782:Y *74:8 41.8334 
2 *74:8 *1783:A 41.8334 
*END

*D_NET *75 0.000133739
*CONN
*I *1784:A I *D sg13cmos5l_inv_8
*I *1783:Y O *D sg13cmos5l_inv_4
*CAP
1 *1784:A 6.68694e-05
2 *1783:Y 6.68694e-05
*RES
1 *1783:Y *1784:A 40.8446 
*END

*D_NET *76 0.000853396
*CONN
*I *1790:A I *D sg13cmos5l_nand2_1
*I *1784:Y O *D sg13cmos5l_inv_8
*CAP
1 *1790:A 0
2 *1784:Y 0.000426698
3 *76:10 0.000426698
4 *76:10 *1397:A 0
5 *76:10 *1408:A 0
6 *76:10 *81:8 0
7 *76:10 *386:10 0
8 *76:10 *722:14 0
9 *74:8 *76:10 0
*RES
1 *1784:Y *76:10 44.5938 
2 *76:10 *1790:A 40 
*END

*D_NET *77 0.00124888
*CONN
*I *1787:A I *D sg13cmos5l_inv_2
*I *1785:Y O *D sg13cmos5l_inv_1
*CAP
1 *1787:A 7.19284e-05
2 *1785:Y 0.000205333
3 *77:10 0.000277262
4 *77:10 *1396:A 0.000177032
5 *77:10 *1785:A 0.000177032
6 *77:10 *78:8 0.000340288
*RES
1 *1785:Y *77:10 42.7707 
2 *77:10 *1787:A 40.5356 
*END

*D_NET *78 0.00124992
*CONN
*I *1788:A I *D sg13cmos5l_inv_4
*I *1787:Y O *D sg13cmos5l_inv_2
*CAP
1 *1788:A 0.000155648
2 *1787:Y 0.000178311
3 *78:8 0.000333959
4 *1788:A *1396:A 0.000241716
5 *1788:A *79:10 0
6 *77:10 *78:8 0.000340288
*RES
1 *1787:Y *78:8 42.3278 
2 *78:8 *1788:A 41.6171 
*END

*D_NET *79 0.000607525
*CONN
*I *1789:A I *D sg13cmos5l_inv_8
*I *1788:Y O *D sg13cmos5l_inv_4
*CAP
1 *1789:A 0
2 *1788:Y 0.000303762
3 *79:10 0.000303762
4 *79:10 *1396:A 0
5 *1788:A *79:10 0
*RES
1 *1788:Y *79:10 43.2033 
2 *79:10 *1789:A 40 
*END

*D_NET *80 0.000346063
*CONN
*I *1786:A I *D sg13cmos5l_inv_16
*I *1789:Y O *D sg13cmos5l_inv_8
*CAP
1 *1786:A 0.000165331
2 *1789:Y 0.000165331
3 *1786:A *1408:A 1.54008e-05
4 *1786:A *84:12 0
*RES
1 *1789:Y *1786:A 41.4008 
*END

*D_NET *81 0.00174195
*CONN
*I *1785:A I *D sg13cmos5l_inv_1
*I *1790:Y O *D sg13cmos5l_nand2_1
*CAP
1 *1785:A 0.000632005
2 *1790:Y 0.000150457
3 *81:8 0.000782461
4 *1785:A *1396:A 0
5 *1785:A *1397:A 0
6 *76:10 *81:8 0
7 *77:10 *1785:A 0.000177032
*RES
1 *1790:Y *81:8 41.5862 
2 *81:8 *1785:A 45.5105 
*END

*D_NET *83 0.00174843
*CONN
*I *1792:A I *D sg13cmos5l_inv_1
*I *1422:A I *D sg13cmos5l_inv_8
*I *1421:Y O *D sg13cmos5l_inv_8
*CAP
1 *1792:A 0
2 *1422:A 0.000174305
3 *1421:Y 0
4 *83:19 0.000659725
5 *83:4 0.00083403
6 *1422:A *1420:A 0
7 *1422:A *1421:A 0
8 *1422:A *1424:A 8.03692e-05
9 *1422:A *392:16 0
10 *83:19 *1421:A 0
11 *83:19 *392:16 0
12 *83:19 *405:8 0
*RES
1 *1421:Y *83:4 20 
2 *83:4 *1422:A 21.8334 
3 *83:4 *83:19 48.0546 
4 *83:19 *1792:A 20 
*END

*D_NET *84 0.00766729
*CONN
*I *1793:A I *D sg13cmos5l_inv_2
*I *1792:Y O *D sg13cmos5l_inv_1
*CAP
1 *1793:A 0.000266816
2 *1792:Y 0.00105109
3 *84:18 0.000895124
4 *84:12 0.0016794
5 *1793:A *1667:A 0
6 *1793:A *85:8 0.00030715
7 *1793:A *392:16 0
8 *1793:A *393:12 4.77425e-05
9 *84:12 *1399:A 0
10 *84:12 *1408:A 0
11 *84:12 *1411:A 0
12 *84:12 *1413:A 0
13 *84:12 *1415:A 0.000565525
14 *84:12 *1838:A 0
15 *84:12 *129:10 0.000274397
16 *84:12 *395:12 0.000532275
17 *84:18 *129:10 0
18 *84:18 *131:12 0
19 *84:18 *386:10 0
20 *84:18 *393:16 0.00204777
21 *1786:A *84:12 0
*RES
1 *1792:Y *84:12 31.5051 
2 *84:12 *84:18 49.7438 
3 *84:18 *1793:A 23.0488 
*END

*D_NET *85 0.0041864
*CONN
*I *1794:A I *D sg13cmos5l_inv_4
*I *1793:Y O *D sg13cmos5l_inv_2
*CAP
1 *1794:A 0
2 *1793:Y 0.000995025
3 *85:8 0.000995025
4 *85:8 *1428:A 0.000240984
5 *85:8 *1535:A 0
6 *85:8 *1667:A 0
7 *85:8 *1669:A 0
8 *85:8 *1670:A 0.000339683
9 *85:8 *1799:A 0
10 *85:8 *393:12 0.00130853
11 *1793:A *85:8 0.00030715
*RES
1 *1793:Y *85:8 31.4845 
2 *85:8 *1794:A 20 
*END

*D_NET *86 0.000151178
*CONN
*I *1795:A I *D sg13cmos5l_inv_8
*I *1794:Y O *D sg13cmos5l_inv_4
*CAP
1 *1795:A 7.55891e-05
2 *1794:Y 7.55891e-05
*RES
1 *1794:Y *1795:A 40.8446 
*END

*D_NET *87 0.00153903
*CONN
*I *1801:A I *D sg13cmos5l_nand2_1
*I *1795:Y O *D sg13cmos5l_inv_8
*CAP
1 *1801:A 0.000162041
2 *1795:Y 0.000607473
3 *87:8 0.000769514
4 *1801:A *1424:A 0
5 *1801:A *1801:B 0
*RES
1 *1795:Y *87:8 47.0246 
2 *87:8 *1801:A 41.4008 
*END

*D_NET *88 0.000739468
*CONN
*I *1798:A I *D sg13cmos5l_inv_2
*I *1796:Y O *D sg13cmos5l_inv_1
*CAP
1 *1798:A 0.000162969
2 *1796:Y 0.00015097
3 *88:8 0.000313939
4 *1798:A *1433:A 0.00011159
5 *88:8 *521:10 0
*RES
1 *1796:Y *88:8 41.339 
2 *88:8 *1798:A 41.4008 
*END

*D_NET *89 0.00432635
*CONN
*I *1799:A I *D sg13cmos5l_inv_4
*I *1798:Y O *D sg13cmos5l_inv_2
*CAP
1 *1799:A 0.0005027
2 *1798:Y 0.000876685
3 *89:10 0.00137938
4 *1799:A *1428:A 0
5 *1799:A *1430:A 0
6 *1799:A *1797:A 0
7 *1799:A *1800:A 0
8 *1799:A *393:12 0
9 *89:10 *1436:A 0
10 *89:10 *92:14 0.00156758
11 *85:8 *1799:A 0
*RES
1 *1798:Y *89:10 49.5378 
2 *89:10 *1799:A 45.0779 
*END

*D_NET *90 0.000321038
*CONN
*I *1800:A I *D sg13cmos5l_inv_8
*I *1799:Y O *D sg13cmos5l_inv_4
*CAP
1 *1800:A 0.000160519
2 *1799:Y 0.000160519
3 *1800:A *1797:A 0
4 *1799:A *1800:A 0
*RES
1 *1799:Y *1800:A 41.8437 
*END

*D_NET *91 0.000328754
*CONN
*I *1797:A I *D sg13cmos5l_inv_16
*I *1800:Y O *D sg13cmos5l_inv_8
*CAP
1 *1797:A 0.000164377
2 *1800:Y 0.000164377
3 *1797:A *1537:A 0
4 *1799:A *1797:A 0
5 *1800:A *1797:A 0
*RES
1 *1800:Y *1797:A 41.9673 
*END

*D_NET *92 0.00492296
*CONN
*I *1796:A I *D sg13cmos5l_inv_1
*I *1801:Y O *D sg13cmos5l_nand2_1
*CAP
1 *1796:A 0
2 *1801:Y 9.38828e-05
3 *92:14 0.00146603
4 *92:8 0.00155991
5 *92:8 *1425:A 0
6 *92:14 *411:8 0.000235556
7 *92:14 *515:10 0
8 *92:14 *519:10 0
9 *89:10 *92:14 0.00156758
*RES
1 *1801:Y *92:8 40.7519 
2 *92:8 *92:14 37.3246 
3 *92:14 *1796:A 20 
*END

*D_NET *94 0.00120774
*CONN
*I *1459:A I *D sg13cmos5l_inv_8
*I *1803:A I *D sg13cmos5l_inv_1
*I *1458:Y O *D sg13cmos5l_inv_8
*CAP
1 *1459:A 0.000128948
2 *1803:A 0
3 *1458:Y 9.84236e-05
4 *94:14 0.000368768
5 *94:6 0.00059614
6 *1459:A *1458:A 0
7 *1459:A *1461:A 0
8 *94:6 *1458:A 0
9 *94:14 *95:10 1.54556e-05
10 *94:14 *96:10 0
11 *94:14 *440:8 0
*RES
1 *1458:Y *94:6 20.9682 
2 *94:6 *94:14 43.605 
3 *94:14 *1803:A 20 
4 *94:6 *1459:A 21.6274 
*END

*D_NET *95 0.00137342
*CONN
*I *1804:A I *D sg13cmos5l_inv_2
*I *1803:Y O *D sg13cmos5l_inv_1
*CAP
1 *1804:A 0.000159006
2 *1803:Y 0.000431313
3 *95:10 0.000590319
4 *1804:A *1806:A 0
5 *1804:A *96:10 0.000177323
6 *95:10 *116:8 0
7 *95:10 *117:8 0
8 *95:10 *440:8 0
9 *94:14 *95:10 1.54556e-05
*RES
1 *1803:Y *95:10 44.4084 
2 *95:10 *1804:A 41.8334 
*END

*D_NET *96 0.00069468
*CONN
*I *1805:A I *D sg13cmos5l_inv_4
*I *1804:Y O *D sg13cmos5l_inv_2
*CAP
1 *1805:A 0
2 *1804:Y 0.000250951
3 *96:10 0.000250951
4 *96:10 *1458:A 1.54556e-05
5 *96:10 *1812:A 0
6 *1804:A *96:10 0.000177323
7 *94:14 *96:10 0
*RES
1 *1804:Y *96:10 42.9561 
2 *96:10 *1805:A 40 
*END

*D_NET *97 0.000419895
*CONN
*I *1806:A I *D sg13cmos5l_inv_8
*I *1805:Y O *D sg13cmos5l_inv_4
*CAP
1 *1806:A 0.000137476
2 *1805:Y 0.000137476
3 *1806:A *1807:A 0
4 *1806:A *1812:A 0.000144942
5 *1804:A *1806:A 0
*RES
1 *1805:Y *1806:A 41.6171 
*END

*D_NET *98 0.000648103
*CONN
*I *1812:A I *D sg13cmos5l_nand2_1
*I *1806:Y O *D sg13cmos5l_inv_8
*CAP
1 *1812:A 0.00025158
2 *1806:Y 0.00025158
3 *1812:A *1809:A 0
4 *1806:A *1812:A 0.000144942
5 *96:10 *1812:A 0
*RES
1 *1806:Y *1812:A 43.0591 
*END

*D_NET *99 0.000510013
*CONN
*I *1809:A I *D sg13cmos5l_inv_2
*I *1807:Y O *D sg13cmos5l_inv_1
*CAP
1 *1809:A 0.000182535
2 *1807:Y 0.000182535
3 *1809:A *1807:A 0
4 *1809:A *1810:A 0.000144942
5 *1809:A *709:10 0
6 *1812:A *1809:A 0
*RES
1 *1807:Y *1809:A 41.9673 
*END

*D_NET *100 0.000428756
*CONN
*I *1810:A I *D sg13cmos5l_inv_4
*I *1809:Y O *D sg13cmos5l_inv_2
*CAP
1 *1810:A 0.000141907
2 *1809:Y 0.000141907
3 *1810:A *1807:A 0
4 *1810:A *709:10 0
5 *1809:A *1810:A 0.000144942
*RES
1 *1809:Y *1810:A 41.6171 
*END

*D_NET *101 0.00055304
*CONN
*I *1811:A I *D sg13cmos5l_inv_8
*I *1810:Y O *D sg13cmos5l_inv_4
*CAP
1 *1811:A 0
2 *1810:Y 0.00027652
3 *101:10 0.00027652
4 *101:10 *116:8 0
*RES
1 *1810:Y *101:10 42.987 
2 *101:10 *1811:A 40 
*END

*D_NET *102 0.000305282
*CONN
*I *1808:A I *D sg13cmos5l_inv_16
*I *1811:Y O *D sg13cmos5l_inv_8
*CAP
1 *1808:A 0.000152641
2 *1811:Y 0.000152641
*RES
1 *1811:Y *1808:A 41.8746 
*END

*D_NET *103 0.000384683
*CONN
*I *1807:A I *D sg13cmos5l_inv_1
*I *1812:Y O *D sg13cmos5l_nand2_1
*CAP
1 *1807:A 0.000192341
2 *1812:Y 0.000192341
3 *1807:A *1461:A 0
4 *1806:A *1807:A 0
5 *1809:A *1807:A 0
6 *1810:A *1807:A 0
*RES
1 *1812:Y *1807:A 41.9673 
*END

*D_NET *105 0.00066164
*CONN
*I *1814:A I *D sg13cmos5l_inv_1
*I *1479:A I *D sg13cmos5l_inv_8
*I *1468:Y O *D sg13cmos5l_inv_8
*CAP
1 *1814:A 0.000176547
2 *1479:A 1.63096e-05
3 *1468:Y 0.000137964
4 *105:8 0.00033082
5 *1479:A *1468:A 0
6 *1479:A *1501:A 0
7 *1814:A *1468:A 0
8 *105:8 *1468:A 0
*RES
1 *1468:Y *105:8 21.7201 
2 *105:8 *1479:A 20.2575 
3 *105:8 *1814:A 22.1115 
*END

*D_NET *106 0.000133739
*CONN
*I *1815:A I *D sg13cmos5l_inv_2
*I *1814:Y O *D sg13cmos5l_inv_1
*CAP
1 *1815:A 6.68694e-05
2 *1814:Y 6.68694e-05
*RES
1 *1814:Y *1815:A 40.8446 
*END

*D_NET *107 9.45957e-05
*CONN
*I *1816:A I *D sg13cmos5l_inv_4
*I *1815:Y O *D sg13cmos5l_inv_2
*CAP
1 *1816:A 4.72978e-05
2 *1815:Y 4.72978e-05
3 *1816:A *1463:A 0
4 *1816:A *1501:A 0
*RES
1 *1815:Y *1816:A 40.5974 
*END

*D_NET *108 0.000133739
*CONN
*I *1817:A I *D sg13cmos5l_inv_8
*I *1816:Y O *D sg13cmos5l_inv_4
*CAP
1 *1817:A 6.68694e-05
2 *1816:Y 6.68694e-05
*RES
1 *1816:Y *1817:A 40.8446 
*END

*D_NET *109 0.000573265
*CONN
*I *1823:A I *D sg13cmos5l_nand2_1
*I *1817:Y O *D sg13cmos5l_inv_8
*CAP
1 *1823:A 6.28516e-05
2 *1817:Y 7.92796e-05
3 *109:8 0.000142131
4 *1823:A *1820:A 0
5 *109:8 *723:27 0.000289002
*RES
1 *1817:Y *109:8 41.339 
2 *109:8 *1823:A 40.5356 
*END

*D_NET *110 0.00134093
*CONN
*I *1820:A I *D sg13cmos5l_inv_2
*I *1818:Y O *D sg13cmos5l_inv_1
*CAP
1 *1820:A 0.000351713
2 *1818:Y 0.000351713
3 *1820:A *1465:A 0
4 *1820:A *1818:A 3.8639e-05
5 *1820:A *562:14 0.000598866
6 *1823:A *1820:A 0
*RES
1 *1818:Y *1820:A 43.9964 
*END

*D_NET *111 9.45957e-05
*CONN
*I *1821:A I *D sg13cmos5l_inv_4
*I *1820:Y O *D sg13cmos5l_inv_2
*CAP
1 *1821:A 4.72978e-05
2 *1820:Y 4.72978e-05
3 *1821:A *562:14 0
*RES
1 *1820:Y *1821:A 40.5974 
*END

*D_NET *112 0.00090655
*CONN
*I *1822:A I *D sg13cmos5l_inv_8
*I *1821:Y O *D sg13cmos5l_inv_4
*CAP
1 *1822:A 0.000453275
2 *1821:Y 0.000453275
3 *1822:A *562:14 0
4 *1822:A *565:10 0
5 *1822:A *675:12 0
*RES
1 *1821:Y *1822:A 45.2221 
*END

*D_NET *113 0.000522058
*CONN
*I *1819:A I *D sg13cmos5l_inv_16
*I *1822:Y O *D sg13cmos5l_inv_8
*CAP
1 *1819:A 0.000139938
2 *1822:Y 0.000139938
3 *1819:A *198:14 0
4 *1819:A *199:10 0
5 *1819:A *565:10 0.000242181
*RES
1 *1822:Y *1819:A 41.6171 
*END

*D_NET *114 0.000450318
*CONN
*I *1818:A I *D sg13cmos5l_inv_1
*I *1823:Y O *D sg13cmos5l_nand2_1
*CAP
1 *1818:A 0.000205839
2 *1823:Y 0.000205839
3 *1820:A *1818:A 3.8639e-05
*RES
1 *1823:Y *1818:A 42.3175 
*END

*D_NET *116 0.00218049
*CONN
*I *1825:A I *D sg13cmos5l_inv_1
*I *1494:A I *D sg13cmos5l_inv_8
*I *1493:Y O *D sg13cmos5l_inv_8
*CAP
1 *1825:A 6.04881e-05
2 *1494:A 0.000198263
3 *1493:Y 0.000831496
4 *116:8 0.00109025
5 *1494:A *119:8 0
6 *116:8 *117:8 0
7 *116:8 *121:10 0
8 *116:8 *122:10 0
9 *95:10 *116:8 0
10 *101:10 *116:8 0
*RES
1 *1493:Y *116:8 49.991 
2 *116:8 *1494:A 42.1218 
3 *116:8 *1825:A 40.5356 
*END

*D_NET *117 0.000293302
*CONN
*I *1826:A I *D sg13cmos5l_inv_2
*I *1825:Y O *D sg13cmos5l_inv_1
*CAP
1 *1826:A 0
2 *1825:Y 0.000146651
3 *117:8 0.000146651
4 *95:10 *117:8 0
5 *116:8 *117:8 0
*RES
1 *1825:Y *117:8 41.339 
2 *117:8 *1826:A 40 
*END

*D_NET *118 0.000294132
*CONN
*I *1827:A I *D sg13cmos5l_inv_4
*I *1826:Y O *D sg13cmos5l_inv_2
*CAP
1 *1827:A 0.000147066
2 *1826:Y 0.000147066
*RES
1 *1826:Y *1827:A 41.4008 
*END

*D_NET *119 0.00133388
*CONN
*I *1828:A I *D sg13cmos5l_inv_8
*I *1827:Y O *D sg13cmos5l_inv_4
*CAP
1 *1828:A 7.25704e-05
2 *1827:Y 0.00023774
3 *119:8 0.00031031
4 *119:8 *121:10 0
5 *119:8 *122:10 0.00071326
6 *1494:A *119:8 0
*RES
1 *1827:Y *119:8 43.3166 
2 *119:8 *1828:A 40.7519 
*END

*D_NET *120 0.000133739
*CONN
*I *1834:A I *D sg13cmos5l_nand2_1
*I *1828:Y O *D sg13cmos5l_inv_8
*CAP
1 *1834:A 6.68694e-05
2 *1828:Y 6.68694e-05
3 *1834:A *1833:A 0
*RES
1 *1828:Y *1834:A 40.8446 
*END

*D_NET *121 0.00100566
*CONN
*I *1831:A I *D sg13cmos5l_inv_2
*I *1829:Y O *D sg13cmos5l_inv_1
*CAP
1 *1831:A 0
2 *1829:Y 0.000463163
3 *121:10 0.000463163
4 *121:10 *1829:A 7.93396e-05
5 *121:10 *122:10 0
6 *116:8 *121:10 0
7 *119:8 *121:10 0
*RES
1 *1829:Y *121:10 44.4393 
2 *121:10 *1831:A 40 
*END

*D_NET *122 0.0031117
*CONN
*I *1832:A I *D sg13cmos5l_inv_4
*I *1831:Y O *D sg13cmos5l_inv_2
*CAP
1 *1832:A 0.00012842
2 *1831:Y 0.000528502
3 *122:10 0.000656922
4 *1832:A *1834:B 0.00020901
5 *122:10 *125:10 0.000875588
6 *116:8 *122:10 0
7 *119:8 *122:10 0.00071326
8 *121:10 *122:10 0
*RES
1 *1831:Y *122:10 48.0855 
2 *122:10 *1832:A 41.4008 
*END

*D_NET *123 0.00044692
*CONN
*I *1833:A I *D sg13cmos5l_inv_8
*I *1832:Y O *D sg13cmos5l_inv_4
*CAP
1 *1833:A 0.000167085
2 *1832:Y 0.000167085
3 *1833:A *1834:B 0.000112749
4 *1834:A *1833:A 0
*RES
1 *1832:Y *1833:A 41.8437 
*END

*D_NET *124 0.000331736
*CONN
*I *1830:A I *D sg13cmos5l_inv_16
*I *1833:Y O *D sg13cmos5l_inv_8
*CAP
1 *1830:A 0.000165868
2 *1833:Y 0.000165868
*RES
1 *1833:Y *1830:A 41.4008 
*END

*D_NET *125 0.00193131
*CONN
*I *1829:A I *D sg13cmos5l_inv_1
*I *1834:Y O *D sg13cmos5l_nand2_1
*CAP
1 *1829:A 0.000133905
2 *1834:Y 0.000314647
3 *125:10 0.000448552
4 *125:10 *1834:B 7.92788e-05
5 *121:10 *1829:A 7.93396e-05
6 *122:10 *125:10 0.000875588
*RES
1 *1834:Y *125:10 44.5938 
2 *125:10 *1829:A 41.1845 
*END

*D_NET *127 0.00349789
*CONN
*I *1529:A I *D sg13cmos5l_inv_8
*I *1836:A I *D sg13cmos5l_inv_1
*I *1212:X O *D sg13cmos5l_mux2_1
*CAP
1 *1529:A 0
2 *1836:A 0
3 *1212:X 0
4 *127:27 0.000529463
5 *127:14 0.000307282
6 *127:4 0.000836746
7 *127:14 *1399:A 4.78524e-05
8 *127:14 *128:8 0
9 *127:14 *722:16 8.0216e-05
10 *127:27 *1399:A 0
11 *127:27 *1400:A 0
12 *127:27 *1408:A 0
13 *127:27 *128:8 0
14 *127:27 *386:10 0
15 *127:27 *393:16 0.000981323
16 *127:27 *722:16 0.000161763
17 *11:10 *127:14 0.000553247
*RES
1 *1212:X *127:4 20 
2 *127:4 *127:14 43.4299 
3 *127:14 *1836:A 20 
4 *127:4 *127:27 47.4057 
5 *127:27 *1529:A 20 
*END

*D_NET *128 0.00153929
*CONN
*I *1837:A I *D sg13cmos5l_inv_2
*I *1836:Y O *D sg13cmos5l_inv_1
*CAP
1 *1837:A 0.000178622
2 *1836:Y 0.000473244
3 *128:8 0.000651866
4 *1837:A *1399:A 0
5 *128:8 *721:51 0.000235556
6 *128:8 *722:14 0
7 *11:10 *128:8 0
8 *127:14 *128:8 0
9 *127:27 *128:8 0
*RES
1 *1836:Y *128:8 44.7998 
2 *128:8 *1837:A 41.6171 
*END

*D_NET *129 0.00145012
*CONN
*I *1838:A I *D sg13cmos5l_inv_4
*I *1837:Y O *D sg13cmos5l_inv_2
*CAP
1 *1838:A 0.000156972
2 *1837:Y 0.000342246
3 *129:10 0.000499218
4 *1838:A *1839:A 0.00017729
5 *1838:A *395:12 0
6 *129:10 *1839:A 0
7 *129:10 *131:12 0
8 *129:10 *386:10 0
9 *84:12 *1838:A 0
10 *84:12 *129:10 0.000274397
11 *84:18 *129:10 0
*RES
1 *1837:Y *129:10 43.914 
2 *129:10 *1838:A 41.8334 
*END

*D_NET *130 0.00105127
*CONN
*I *1839:A I *D sg13cmos5l_inv_8
*I *1838:Y O *D sg13cmos5l_inv_4
*CAP
1 *1839:A 0.000299839
2 *1838:Y 0.000299839
3 *1839:A *1402:A 0.000274299
4 *1839:A *131:12 0
5 *1839:A *390:10 0
6 *1838:A *1839:A 0.00017729
7 *129:10 *1839:A 0
*RES
1 *1838:Y *1839:A 43.3475 
*END

*D_NET *131 0.00142276
*CONN
*I *1845:A I *D sg13cmos5l_nand2_1
*I *1839:Y O *D sg13cmos5l_inv_8
*CAP
1 *1845:A 0
2 *1839:Y 0.000593395
3 *131:12 0.000593395
4 *131:12 *389:8 0.000235971
5 *1839:A *131:12 0
6 *84:18 *131:12 0
7 *129:10 *131:12 0
*RES
1 *1839:Y *131:12 46.798 
2 *131:12 *1845:A 40 
*END

*D_NET *132 0.000694608
*CONN
*I *1842:A I *D sg13cmos5l_inv_2
*I *1840:Y O *D sg13cmos5l_inv_1
*CAP
1 *1842:A 0.000347304
2 *1840:Y 0.000347304
3 *1842:A *1371:A 0
4 *1842:A *1840:A 0
5 *1842:A *390:10 0
6 *1842:A *507:12 0
*RES
1 *1840:Y *1842:A 43.3475 
*END

*D_NET *133 0.00111204
*CONN
*I *1843:A I *D sg13cmos5l_inv_4
*I *1842:Y O *D sg13cmos5l_inv_2
*CAP
1 *1843:A 0.000556022
2 *1842:Y 0.000556022
3 *1843:A *1531:A 0
4 *1843:A *1840:A 0
5 *1843:A *1845:B 0
6 *1843:A *390:10 0
*RES
1 *1842:Y *1843:A 45.8607 
*END

*D_NET *134 0.000183051
*CONN
*I *1844:A I *D sg13cmos5l_inv_8
*I *1843:Y O *D sg13cmos5l_inv_4
*CAP
1 *1844:A 9.15253e-05
2 *1843:Y 9.15253e-05
*RES
1 *1843:Y *1844:A 40.8446 
*END

*D_NET *135 0.000386395
*CONN
*I *1841:A I *D sg13cmos5l_inv_16
*I *1844:Y O *D sg13cmos5l_inv_8
*CAP
1 *1841:A 0.000193198
2 *1844:Y 0.000193198
3 *1841:A *1425:A 0
*RES
1 *1844:Y *1841:A 41.751 
*END

*D_NET *136 0.00216503
*CONN
*I *1840:A I *D sg13cmos5l_inv_1
*I *1845:Y O *D sg13cmos5l_nand2_1
*CAP
1 *1840:A 0.000766991
2 *1845:Y 0.000766991
3 *1840:A *1520:A 0
4 *1840:A *1521:A 0
5 *1840:A *1524:A 0
6 *1840:A *1681:A 0
7 *1840:A *1845:B 0.000631049
8 *1840:A *390:10 0
9 *1840:A *392:16 0
10 *1842:A *1840:A 0
11 *1843:A *1840:A 0
*RES
1 *1845:Y *1840:A 48.2709 
*END

*D_NET *138 0.000568073
*CONN
*I *1847:A I *D sg13cmos5l_inv_1
*I *1565:A I *D sg13cmos5l_inv_8
*I *1564:Y O *D sg13cmos5l_inv_8
*CAP
1 *1847:A 5.62941e-05
2 *1565:A 0.00016495
3 *1564:Y 6.2792e-05
4 *138:6 0.000284036
5 *1565:A *1564:A 0
6 *1565:A *1848:A 0
7 *1565:A *1850:A 0
8 *1847:A *1564:A 0
9 *1847:A *1849:A 0
10 *1847:A *1850:A 0
*RES
1 *1564:Y *138:6 20.8446 
2 *138:6 *1565:A 21.9673 
3 *138:6 *1847:A 20.7519 
*END

*D_NET *139 0.000813764
*CONN
*I *1848:A I *D sg13cmos5l_inv_2
*I *1847:Y O *D sg13cmos5l_inv_1
*CAP
1 *1848:A 0.000135636
2 *1847:Y 0.00019872
3 *139:8 0.000334356
4 *1848:A *1849:A 0.000145052
5 *1848:A *1856:B 0
6 *139:8 *713:8 0
7 *1565:A *1848:A 0
*RES
1 *1847:Y *139:8 42.3278 
2 *139:8 *1848:A 41.6171 
*END

*D_NET *140 0.000898745
*CONN
*I *1849:A I *D sg13cmos5l_inv_4
*I *1848:Y O *D sg13cmos5l_inv_2
*CAP
1 *1849:A 0.000369118
2 *1848:Y 0.000369118
3 *1849:A *1850:A 1.54556e-05
4 *1849:A *1856:B 0
5 *1847:A *1849:A 0
6 *1848:A *1849:A 0.000145052
*RES
1 *1848:Y *1849:A 44.1715 
*END

*D_NET *141 0.000377394
*CONN
*I *1850:A I *D sg13cmos5l_inv_8
*I *1849:Y O *D sg13cmos5l_inv_4
*CAP
1 *1850:A 0.000180969
2 *1849:Y 0.000180969
3 *1565:A *1850:A 0
4 *1847:A *1850:A 0
5 *1849:A *1850:A 1.54556e-05
*RES
1 *1849:Y *1850:A 41.8437 
*END

*D_NET *142 0.0003384
*CONN
*I *1856:A I *D sg13cmos5l_nand2_1
*I *1850:Y O *D sg13cmos5l_inv_8
*CAP
1 *1856:A 0.0001692
2 *1850:Y 0.0001692
3 *1856:A *1569:A 0
4 *1856:A *1570:A 0
5 *1856:A *1856:B 0
*RES
1 *1850:Y *1856:A 41.6171 
*END

*D_NET *143 0.00242659
*CONN
*I *1853:A I *D sg13cmos5l_inv_2
*I *1851:Y O *D sg13cmos5l_inv_1
*CAP
1 *1853:A 4.14442e-05
2 *1851:Y 0.00109932
3 *143:10 0.00114077
4 *143:10 *1851:A 0.000145053
5 *143:10 *465:10 0
*RES
1 *1851:Y *143:10 49.0434 
2 *143:10 *1853:A 40.3193 
*END

*D_NET *144 0.000813875
*CONN
*I *1854:A I *D sg13cmos5l_inv_4
*I *1853:Y O *D sg13cmos5l_inv_2
*CAP
1 *1854:A 0.000406937
2 *1853:Y 0.000406937
3 *1854:A *1625:A 0
*RES
1 *1853:Y *1854:A 43.5638 
*END

*D_NET *145 0.00277707
*CONN
*I *1855:A I *D sg13cmos5l_inv_8
*I *1854:Y O *D sg13cmos5l_inv_4
*CAP
1 *1855:A 0.000294202
2 *1854:Y 0.00109433
3 *145:10 0.00138854
4 *1855:A *1573:A 0
5 *1855:A *1575:A 0
6 *1855:A *1577:A 0
7 *1855:A *1852:A 0
8 *1855:A *559:8 0
9 *145:10 *1569:A 0
10 *145:10 *147:8 0
11 *145:10 *552:10 0
*RES
1 *1854:Y *145:10 49.5687 
2 *145:10 *1855:A 43.3475 
*END

*D_NET *146 0.000296835
*CONN
*I *1852:A I *D sg13cmos5l_inv_16
*I *1855:Y O *D sg13cmos5l_inv_8
*CAP
1 *1852:A 0.000148417
2 *1855:Y 0.000148417
3 *1852:A *1574:A 0
4 *1855:A *1852:A 0
*RES
1 *1855:Y *1852:A 41.8746 
*END

*D_NET *147 0.00132183
*CONN
*I *1851:A I *D sg13cmos5l_inv_1
*I *1856:Y O *D sg13cmos5l_nand2_1
*CAP
1 *1851:A 0.00017336
2 *1856:Y 0.00041503
3 *147:8 0.00058839
4 *147:8 *552:10 0
5 *143:10 *1851:A 0.000145053
6 *145:10 *147:8 0
*RES
1 *1856:Y *147:8 44.7998 
2 *147:8 *1851:A 41.6171 
*END

*D_NET *149 0.00122611
*CONN
*I *1858:A I *D sg13cmos5l_inv_1
*I *1600:A I *D sg13cmos5l_inv_8
*I *1599:Y O *D sg13cmos5l_inv_8
*CAP
1 *1858:A 0
2 *1600:A 0.000292372
3 *1599:Y 0.000403044
4 *149:22 0.000110672
5 *1600:A *1599:A 8.03582e-05
6 *1600:A *1860:A 0.000339661
7 *1600:A *568:8 0
8 *149:22 *150:8 0
*RES
1 *1599:Y *1600:A 43.605 
2 *1599:Y *149:22 41.0918 
3 *149:22 *1858:A 40 
*END

*D_NET *150 0.00126803
*CONN
*I *1859:A I *D sg13cmos5l_inv_2
*I *1858:Y O *D sg13cmos5l_inv_1
*CAP
1 *1859:A 0.000136446
2 *1858:Y 0.000376422
3 *150:8 0.000512868
4 *1859:A *1603:A 0
5 *1859:A *568:8 0.000242292
6 *150:8 *151:8 0
7 *149:22 *150:8 0
*RES
1 *1858:Y *150:8 44.0582 
2 *150:8 *1859:A 41.6171 
*END

*D_NET *151 0.002125
*CONN
*I *1860:A I *D sg13cmos5l_inv_4
*I *1859:Y O *D sg13cmos5l_inv_2
*CAP
1 *1860:A 0.000516641
2 *1859:Y 0.000235618
3 *151:8 0.000752259
4 *1860:A *1599:A 0
5 *1860:A *1861:A 0.000242181
6 *1860:A *1867:A 3.8639e-05
7 *1860:A *566:10 0
8 *1860:A *568:8 0
9 *1860:A *714:6 0
10 *1600:A *1860:A 0.000339661
11 *150:8 *151:8 0
*RES
1 *1859:Y *151:8 42.575 
2 *151:8 *1860:A 45.5105 
*END

*D_NET *152 0.000670536
*CONN
*I *1861:A I *D sg13cmos5l_inv_8
*I *1860:Y O *D sg13cmos5l_inv_4
*CAP
1 *1861:A 0.000141706
2 *1860:Y 0.000141706
3 *1861:A *1867:A 0.000144942
4 *1861:A *714:6 0
5 *1860:A *1861:A 0.000242181
*RES
1 *1860:Y *1861:A 41.6171 
*END

*D_NET *153 0.00164033
*CONN
*I *1867:A I *D sg13cmos5l_nand2_1
*I *1861:Y O *D sg13cmos5l_inv_8
*CAP
1 *1867:A 0.000578663
2 *1861:Y 0.000578663
3 *1867:A *1866:A 8.02927e-05
4 *1867:A *566:10 0
5 *1867:A *714:6 0.000219129
6 *1860:A *1867:A 3.8639e-05
7 *1861:A *1867:A 0.000144942
*RES
1 *1861:Y *1867:A 45.9637 
*END

*D_NET *154 0.000921439
*CONN
*I *1864:A I *D sg13cmos5l_inv_2
*I *1862:Y O *D sg13cmos5l_inv_1
*CAP
1 *1864:A 0.000339563
2 *1862:Y 0.000339563
3 *1864:A *1862:A 0
4 *1864:A *1865:A 0.000242313
*RES
1 *1862:Y *1864:A 43.5638 
*END

*D_NET *155 0.000737764
*CONN
*I *1865:A I *D sg13cmos5l_inv_4
*I *1864:Y O *D sg13cmos5l_inv_2
*CAP
1 *1865:A 0.000126569
2 *1864:Y 0.000126569
3 *1865:A *1862:A 0.000242313
4 *1864:A *1865:A 0.000242313
*RES
1 *1864:Y *1865:A 41.6171 
*END

*D_NET *156 0.000374698
*CONN
*I *1866:A I *D sg13cmos5l_inv_8
*I *1865:Y O *D sg13cmos5l_inv_4
*CAP
1 *1866:A 4.40225e-05
2 *1865:Y 0.00010318
3 *156:8 0.000147203
4 *1866:A *566:10 0
5 *1867:A *1866:A 8.02927e-05
*RES
1 *1865:Y *156:8 41.0918 
2 *156:8 *1866:A 40.5356 
*END

*D_NET *157 0.000133739
*CONN
*I *1863:A I *D sg13cmos5l_inv_16
*I *1866:Y O *D sg13cmos5l_inv_8
*CAP
1 *1863:A 6.68694e-05
2 *1866:Y 6.68694e-05
3 *1863:A *568:8 0
*RES
1 *1866:Y *1863:A 40.8446 
*END

*D_NET *158 0.0014135
*CONN
*I *1862:A I *D sg13cmos5l_inv_1
*I *1867:Y O *D sg13cmos5l_nand2_1
*CAP
1 *1862:A 0.000585596
2 *1867:Y 0.000585596
3 *1862:A *714:6 0
4 *1864:A *1862:A 0
5 *1865:A *1862:A 0.000242313
*RES
1 *1867:Y *1862:A 45.9431 
*END

*D_NET *160 0.000954471
*CONN
*I *1869:A I *D sg13cmos5l_inv_1
*I *1636:A I *D sg13cmos5l_inv_8
*I *1635:Y O *D sg13cmos5l_inv_8
*CAP
1 *1869:A 0.00018242
2 *1636:A 0.000240114
3 *1635:Y 0.000132985
4 *160:8 0.000190679
5 *1636:A *1633:A 0
6 *1636:A *1635:A 0
7 *1636:A *161:10 0
8 *1869:A *1637:A 0
9 *1869:A *1638:A 0
10 *1869:A *161:10 0.000208271
*RES
1 *1635:Y *160:8 41.5862 
2 *160:8 *1636:A 40.5356 
3 *1636:A *1869:A 41.8334 
*END

*D_NET *161 0.0016
*CONN
*I *1870:A I *D sg13cmos5l_inv_2
*I *1869:Y O *D sg13cmos5l_inv_1
*CAP
1 *1870:A 7.22469e-05
2 *1869:Y 0.000599747
3 *161:10 0.000671994
4 *161:10 *1635:A 0
5 *161:10 *1872:A 4.77425e-05
6 *161:10 *1876:A 0
7 *161:10 *544:8 0
8 *1636:A *161:10 0
9 *1869:A *161:10 0.000208271
*RES
1 *1869:Y *161:10 45.7989 
2 *161:10 *1870:A 40.7519 
*END

*D_NET *162 0.000353071
*CONN
*I *1871:A I *D sg13cmos5l_inv_4
*I *1870:Y O *D sg13cmos5l_inv_2
*CAP
1 *1871:A 0.000176536
2 *1870:Y 0.000176536
*RES
1 *1870:Y *1871:A 41.6274 
*END

*D_NET *163 0.000323409
*CONN
*I *1872:A I *D sg13cmos5l_inv_8
*I *1871:Y O *D sg13cmos5l_inv_4
*CAP
1 *1872:A 0.000137833
2 *1871:Y 0.000137833
3 *1872:A *1876:A 0
4 *161:10 *1872:A 4.77425e-05
*RES
1 *1871:Y *1872:A 41.4008 
*END

*D_NET *164 0.000526288
*CONN
*I *1878:A I *D sg13cmos5l_nand2_1
*I *1872:Y O *D sg13cmos5l_inv_8
*CAP
1 *1878:A 0.000263144
2 *1872:Y 0.000263144
3 *1878:A *1876:A 0
4 *1878:A *1878:B 0
*RES
1 *1872:Y *1878:A 43.0591 
*END

*D_NET *165 0.00195308
*CONN
*I *1875:A I *D sg13cmos5l_inv_2
*I *1873:Y O *D sg13cmos5l_inv_1
*CAP
1 *1875:A 0.000339358
2 *1873:Y 0.000168062
3 *165:8 0.00050742
4 *1875:A *1876:A 0.000436779
5 *1875:A *1877:A 0.000501463
6 *165:8 *169:8 0
7 *165:8 *543:10 0
*RES
1 *1873:Y *165:8 41.8334 
2 *165:8 *1875:A 43.9449 
*END

*D_NET *166 0.00125276
*CONN
*I *1876:A I *D sg13cmos5l_inv_4
*I *1875:Y O *D sg13cmos5l_inv_2
*CAP
1 *1876:A 0.000407989
2 *1875:Y 0.000407989
3 *1872:A *1876:A 0
4 *1875:A *1876:A 0.000436779
5 *1878:A *1876:A 0
6 *161:10 *1876:A 0
*RES
1 *1875:Y *1876:A 44.5114 
*END

*D_NET *167 0.00108549
*CONN
*I *1877:A I *D sg13cmos5l_inv_8
*I *1876:Y O *D sg13cmos5l_inv_4
*CAP
1 *1877:A 0.000292012
2 *1876:Y 0.000292012
3 *1877:A *1874:A 0
4 *1877:A *543:10 0
5 *1875:A *1877:A 0.000501463
*RES
1 *1876:Y *1877:A 43.3475 
*END

*D_NET *168 0.000279895
*CONN
*I *1874:A I *D sg13cmos5l_inv_16
*I *1877:Y O *D sg13cmos5l_inv_8
*CAP
1 *1874:A 0.000139947
2 *1877:Y 0.000139947
3 *1877:A *1874:A 0
*RES
1 *1877:Y *1874:A 41.3128 
*END

*D_NET *169 0.000497932
*CONN
*I *1873:A I *D sg13cmos5l_inv_1
*I *1878:Y O *D sg13cmos5l_nand2_1
*CAP
1 *1873:A 0
2 *1878:Y 0.000248966
3 *169:8 0.000248966
4 *169:8 *544:8 0
5 *165:8 *169:8 0
*RES
1 *1878:Y *169:8 42.8222 
2 *169:8 *1873:A 40 
*END

*D_NET *171 0.00384907
*CONN
*I *1880:A I *D sg13cmos5l_inv_1
*I *1207:Y O *D sg13cmos5l_nand2_1
*CAP
1 *1880:A 0.000430508
2 *1207:Y 6.49955e-05
3 *171:14 0.00127192
4 *171:8 0.000906406
5 *1880:A *1889:B 0
6 *1880:A *350:10 0
7 *1880:A *716:12 0
8 *171:14 *1887:A 0.000273087
9 *1207:B *171:8 0
10 *9:25 *171:8 0.000234726
11 *13:14 *171:8 0.000288172
12 *15:22 *171:14 0.000145035
13 *28:33 *171:14 0
14 *32:16 *1880:A 0.000234224
*RES
1 *1207:Y *171:8 41.339 
2 *171:8 *171:14 45.5105 
3 *171:14 *1880:A 45.047 
*END

*D_NET *172 0.000851459
*CONN
*I *1881:A I *D sg13cmos5l_inv_2
*I *1880:Y O *D sg13cmos5l_inv_1
*CAP
1 *1881:A 0.00042573
2 *1880:Y 0.00042573
3 *1881:A *1373:A 0
4 *1881:A *1883:A 0
5 *1881:A *175:10 0
6 *1324:A *1881:A 0
7 *17:10 *1881:A 0
*RES
1 *1880:Y *1881:A 44.3672 
*END

*D_NET *173 0.000404924
*CONN
*I *1882:A I *D sg13cmos5l_inv_4
*I *1881:Y O *D sg13cmos5l_inv_2
*CAP
1 *1882:A 0.000162332
2 *1881:Y 0.000162332
3 *1882:A *1526:A 0
4 *1882:A *1883:A 0
5 *13:14 *1882:A 8.02598e-05
*RES
1 *1881:Y *1882:A 41.751 
*END

*D_NET *174 0.00096152
*CONN
*I *1883:A I *D sg13cmos5l_inv_8
*I *1882:Y O *D sg13cmos5l_inv_4
*CAP
1 *1883:A 0.000224074
2 *1882:Y 0.000143994
3 *174:8 0.000368068
4 *1883:A *1404:A 0.0001127
5 *174:8 *392:16 0
6 *1209:A2 *1883:A 0
7 *1881:A *1883:A 0
8 *1882:A *1883:A 0
9 *13:14 *1883:A 0
10 *13:14 *174:8 0
11 *14:10 *1883:A 0.000112684
*RES
1 *1882:Y *174:8 41.5862 
2 *174:8 *1883:A 42.4823 
*END

*D_NET *175 0.000956609
*CONN
*I *1889:A I *D sg13cmos5l_nand2_1
*I *1883:Y O *D sg13cmos5l_inv_8
*CAP
1 *1889:A 0
2 *1883:Y 0.000280935
3 *175:10 0.000280935
4 *175:10 *1364:A 0
5 *175:10 *180:10 0.000394738
6 *175:10 *723:12 0
7 *1881:A *175:10 0
8 *28:33 *175:10 0
*RES
1 *1883:Y *175:10 43.4505 
2 *175:10 *1889:A 40 
*END

*D_NET *176 0.000509663
*CONN
*I *1886:A I *D sg13cmos5l_inv_2
*I *1884:Y O *D sg13cmos5l_inv_1
*CAP
1 *1886:A 0
2 *1884:Y 0.000110995
3 *176:8 0.000110995
4 *176:8 *180:10 0.000287672
*RES
1 *1884:Y *176:8 41.5862 
2 *176:8 *1886:A 40 
*END

*D_NET *177 0.0020717
*CONN
*I *1887:A I *D sg13cmos5l_inv_4
*I *1886:Y O *D sg13cmos5l_inv_2
*CAP
1 *1887:A 0.000368328
2 *1886:Y 8.85982e-05
3 *177:8 0.000456926
4 *177:8 *180:10 0.000287672
5 *15:22 *1887:A 0.000597084
6 *171:14 *1887:A 0.000273087
*RES
1 *1886:Y *177:8 41.339 
2 *177:8 *1887:A 43.9964 
*END

*D_NET *178 0.000151304
*CONN
*I *1888:A I *D sg13cmos5l_inv_8
*I *1887:Y O *D sg13cmos5l_inv_4
*CAP
1 *1888:A 7.56521e-05
2 *1887:Y 7.56521e-05
3 *32:16 *1888:A 0
*RES
1 *1887:Y *1888:A 40.8446 
*END

*D_NET *179 0.000822932
*CONN
*I *1885:A I *D sg13cmos5l_inv_16
*I *1888:Y O *D sg13cmos5l_inv_8
*CAP
1 *1885:A 0.000171602
2 *1888:Y 9.57774e-05
3 *179:8 0.000267379
4 *1885:A *1373:A 0
5 *179:8 *350:10 0.000288173
6 *179:8 *716:12 0
7 *17:10 *1885:A 0
*RES
1 *1888:Y *179:8 41.339 
2 *179:8 *1885:A 41.6171 
*END

*D_NET *180 0.00317243
*CONN
*I *1884:A I *D sg13cmos5l_inv_1
*I *1889:Y O *D sg13cmos5l_nand2_1
*CAP
1 *1884:A 5.47271e-05
2 *1889:Y 0.000556036
3 *180:10 0.000610763
4 *1884:A *1385:A 0
5 *180:10 *1889:B 0
6 *180:10 *351:10 0.000980824
7 *180:10 *723:12 0
8 *37:8 *180:10 0
9 *175:10 *180:10 0.000394738
10 *176:8 *180:10 0.000287672
11 *177:8 *180:10 0.000287672
*RES
1 *1889:Y *180:10 48.5799 
2 *180:10 *1884:A 40.5356 
*END

*D_NET *182 0.00207095
*CONN
*I *1687:A I *D sg13cmos5l_inv_8
*I *1891:A I *D sg13cmos5l_inv_1
*I *1686:Y O *D sg13cmos5l_inv_8
*CAP
1 *1687:A 0.000343959
2 *1891:A 0.000219655
3 *1686:Y 0
4 *182:6 0.000563613
5 *1687:A *1685:A 0
6 *1687:A *1686:A 0
7 *1687:A *1689:A 0
8 *1687:A *673:12 0.000480193
9 *1891:A *183:8 1.54285e-05
10 *1891:A *673:12 0.000448099
*RES
1 *1686:Y *182:6 40 
2 *182:6 *1891:A 42.8325 
3 *182:6 *1687:A 44.2951 
*END

*D_NET *183 0.0030544
*CONN
*I *1892:A I *D sg13cmos5l_inv_2
*I *1891:Y O *D sg13cmos5l_inv_1
*CAP
1 *1892:A 0
2 *1891:Y 6.94578e-05
3 *183:14 0.00145003
4 *183:8 0.00151949
5 *183:14 *184:8 0
6 *183:14 *185:8 0
7 *183:14 *187:8 0
8 *183:14 *293:10 0
9 *183:14 *673:12 0
10 *183:14 *674:12 0
11 *1891:A *183:8 1.54285e-05
*RES
1 *1891:Y *183:8 40.5356 
2 *183:8 *183:14 34.6363 
3 *183:14 *1892:A 20 
*END

*D_NET *184 0.000560828
*CONN
*I *1893:A I *D sg13cmos5l_inv_4
*I *1892:Y O *D sg13cmos5l_inv_2
*CAP
1 *1893:A 0
2 *1892:Y 0.000280414
3 *184:8 0.000280414
4 *183:14 *184:8 0
*RES
1 *1892:Y *184:8 43.3166 
2 *184:8 *1893:A 40 
*END

*D_NET *185 0.00179679
*CONN
*I *1894:A I *D sg13cmos5l_inv_8
*I *1893:Y O *D sg13cmos5l_inv_4
*CAP
1 *1894:A 0.000173551
2 *1893:Y 0.000724846
3 *185:8 0.000898397
4 *1894:A *186:8 0
5 *1894:A *673:12 0
6 *183:14 *185:8 0
*RES
1 *1893:Y *185:8 46.7774 
2 *185:8 *1894:A 41.1595 
*END

*D_NET *186 0.00322121
*CONN
*I *1900:A I *D sg13cmos5l_nand2_1
*I *1894:Y O *D sg13cmos5l_inv_8
*CAP
1 *1900:A 0.000714862
2 *1894:Y 0.000534027
3 *186:8 0.00124889
4 *1900:A *191:8 0
5 *1900:A *700:8 0
6 *1900:A *718:10 0.000448842
7 *186:8 *1718:A 0
8 *186:8 *1898:A 0.000274594
9 *186:8 *1899:A 0
10 *1894:A *186:8 0
*RES
1 *1894:Y *186:8 44.467 
2 *186:8 *1900:A 47.0967 
*END

*D_NET *187 0.000294914
*CONN
*I *1897:A I *D sg13cmos5l_inv_2
*I *1895:Y O *D sg13cmos5l_inv_1
*CAP
1 *1897:A 0
2 *1895:Y 0.000147457
3 *187:8 0.000147457
4 *183:14 *187:8 0
*RES
1 *1895:Y *187:8 41.5862 
2 *187:8 *1897:A 40 
*END

*D_NET *188 0.000601817
*CONN
*I *1898:A I *D sg13cmos5l_inv_4
*I *1897:Y O *D sg13cmos5l_inv_2
*CAP
1 *1898:A 0.000163612
2 *1897:Y 0.000163612
3 *186:8 *1898:A 0.000274594
*RES
1 *1897:Y *1898:A 41.8334 
*END

*D_NET *189 0.000299703
*CONN
*I *1899:A I *D sg13cmos5l_inv_8
*I *1898:Y O *D sg13cmos5l_inv_4
*CAP
1 *1899:A 0.000149852
2 *1898:Y 0.000149852
3 *186:8 *1899:A 0
*RES
1 *1898:Y *1899:A 41.4008 
*END

*D_NET *190 0.000133739
*CONN
*I *1896:A I *D sg13cmos5l_inv_16
*I *1899:Y O *D sg13cmos5l_inv_8
*CAP
1 *1896:A 6.68694e-05
2 *1899:Y 6.68694e-05
*RES
1 *1899:Y *1896:A 40.8446 
*END

*D_NET *191 0.00281256
*CONN
*I *1895:A I *D sg13cmos5l_inv_1
*I *1900:Y O *D sg13cmos5l_nand2_1
*CAP
1 *1895:A 0.000404742
2 *1900:Y 0.00100154
3 *191:8 0.00140628
4 *191:8 *694:8 0
5 *191:8 *718:10 0
6 *1900:A *191:8 0
*RES
1 *1900:Y *191:8 49.0022 
2 *191:8 *1895:A 43.3475 
*END

*D_NET *193 0.00139219
*CONN
*I *1902:A I *D sg13cmos5l_inv_1
*I *1722:A I *D sg13cmos5l_inv_8
*I *1721:Y O *D sg13cmos5l_inv_8
*CAP
1 *1902:A 0.000150769
2 *1722:A 0.000382435
3 *1721:Y 0.000231666
4 *1722:A *700:8 8.0194e-05
5 *1902:A *194:12 0.000273562
6 *1902:A *700:8 0.000273562
*RES
1 *1721:Y *1722:A 42.8634 
2 *1722:A *1902:A 41.8334 
*END

*D_NET *194 0.00245906
*CONN
*I *1903:A I *D sg13cmos5l_inv_2
*I *1902:Y O *D sg13cmos5l_inv_1
*CAP
1 *1903:A 0.00036933
2 *1902:Y 0.000723419
3 *194:12 0.00109275
4 *1903:A *1698:A 0
5 *1903:A *1904:A 0
6 *194:12 *202:8 0
7 *194:12 *675:12 0
8 *194:12 *677:8 0
9 *194:12 *700:8 0
10 *1902:A *194:12 0.000273562
*RES
1 *1902:Y *194:12 47.5396 
2 *194:12 *1903:A 43.3475 
*END

*D_NET *195 0.000980469
*CONN
*I *1904:A I *D sg13cmos5l_inv_4
*I *1903:Y O *D sg13cmos5l_inv_2
*CAP
1 *1904:A 0.000490234
2 *1903:Y 0.000490234
3 *1904:A *1720:A 0
4 *1904:A *1905:A 0
5 *1904:A *198:14 0
6 *1903:A *1904:A 0
*RES
1 *1903:Y *1904:A 44.5938 
*END

*D_NET *196 0.000318303
*CONN
*I *1905:A I *D sg13cmos5l_inv_8
*I *1904:Y O *D sg13cmos5l_inv_4
*CAP
1 *1905:A 0.000159151
2 *1904:Y 0.000159151
3 *1904:A *1905:A 0
*RES
1 *1904:Y *1905:A 41.6171 
*END

*D_NET *197 0.00208433
*CONN
*I *1911:A I *D sg13cmos5l_nand2_1
*I *1905:Y O *D sg13cmos5l_inv_8
*CAP
1 *1911:A 5.81252e-05
2 *1905:Y 0.000360216
3 *197:8 0.000418341
4 *1911:A *1911:B 0
5 *1911:A *675:12 0
6 *197:8 *202:8 0.00124764
7 *197:8 *517:8 0
8 *197:8 *565:18 0
*RES
1 *1905:Y *197:8 45.7886 
2 *197:8 *1911:A 40.5356 
*END

*D_NET *198 0.00208198
*CONN
*I *1908:A I *D sg13cmos5l_inv_2
*I *1906:Y O *D sg13cmos5l_inv_1
*CAP
1 *1908:A 0
2 *1906:Y 0.000933438
3 *198:14 0.000933438
4 *198:14 *1590:A 0
5 *198:14 *1601:A 0
6 *198:14 *1634:A 0
7 *198:14 *199:10 0.000111683
8 *198:14 *560:10 0.000103421
9 *198:14 *565:10 0
10 *1819:A *198:14 0
11 *1904:A *198:14 0
*RES
1 *1906:Y *198:14 30.3412 
2 *198:14 *1908:A 20 
*END

*D_NET *199 0.0044444
*CONN
*I *1909:A I *D sg13cmos5l_inv_4
*I *1908:Y O *D sg13cmos5l_inv_2
*CAP
1 *1909:A 0.00101144
2 *1908:Y 0.000831722
3 *199:10 0.00184316
4 *1909:A *1645:A 0.000145003
5 *1909:A *1668:A 0
6 *1909:A *1910:A 0.000501386
7 *199:10 *562:14 0
8 *199:10 *582:8 0
9 *199:10 *615:8 0
10 *199:10 *723:27 0
11 *1819:A *199:10 0
12 *198:14 *199:10 0.000111683
*RES
1 *1908:Y *199:10 48.7653 
2 *199:10 *1909:A 48.755 
*END

*D_NET *200 0.00107935
*CONN
*I *1910:A I *D sg13cmos5l_inv_8
*I *1909:Y O *D sg13cmos5l_inv_4
*CAP
1 *1910:A 0.000288982
2 *1909:Y 0.000288982
3 *1910:A *1679:A 0
4 *1910:A *659:10 0
5 *1909:A *1910:A 0.000501386
*RES
1 *1909:Y *1910:A 43.3475 
*END

*D_NET *201 0.00139152
*CONN
*I *1907:A I *D sg13cmos5l_inv_16
*I *1910:Y O *D sg13cmos5l_inv_8
*CAP
1 *1907:A 0
2 *1910:Y 0.000258915
3 *201:8 0.000258915
4 *201:8 *565:18 0.000873686
5 *201:8 *678:12 0
*RES
1 *1910:Y *201:8 44.0582 
2 *201:8 *1907:A 40 
*END

*D_NET *202 0.00299944
*CONN
*I *1906:A I *D sg13cmos5l_inv_1
*I *1911:Y O *D sg13cmos5l_nand2_1
*CAP
1 *1906:A 3.44936e-05
2 *1911:Y 0.00048436
3 *202:8 0.000518853
4 *202:8 *565:18 0
5 *202:8 *677:8 0.000714089
6 *194:12 *202:8 0
7 *197:8 *202:8 0.00124764
*RES
1 *1911:Y *202:8 48.2606 
2 *202:8 *1906:A 40.3193 
*END

*D_NET *204 0.000708091
*CONN
*I *1215:A I *D sg13cmos5l_inv_8
*I *1214:Y O *D sg13cmos5l_inv_8
*CAP
1 *1215:A 0.000354046
2 *1214:Y 0.000354046
3 *1215:A *1216:A 0
4 *1215:A *1369:A 0
5 *1764:A *1215:A 0
*RES
1 *1214:Y *1215:A 43.5638 
*END

*D_NET *205 0.000696564
*CONN
*I *1216:A I *D sg13cmos5l_inv_8
*I *1215:Y O *D sg13cmos5l_inv_8
*CAP
1 *1216:A 0.000348282
2 *1215:Y 0.000348282
3 *1216:A *1214:A 0
4 *1216:A *1369:A 0
5 *1215:A *1216:A 0
*RES
1 *1215:Y *1216:A 43.3475 
*END

*D_NET *206 0.000424134
*CONN
*I *1217:A I *D sg13cmos5l_inv_8
*I *1216:Y O *D sg13cmos5l_inv_8
*CAP
1 *1217:A 0.000212067
2 *1216:Y 0.000212067
3 *1217:A *1218:A 0
4 *1217:A *1369:A 0
*RES
1 *1216:Y *1217:A 41.171 
*END

*D_NET *207 0.000291757
*CONN
*I *1218:A I *D sg13cmos5l_inv_8
*I *1217:Y O *D sg13cmos5l_inv_8
*CAP
1 *1218:A 0.000145879
2 *1217:Y 0.000145879
3 *1218:A *1369:A 0
4 *1217:A *1218:A 0
*RES
1 *1217:Y *1218:A 41.4008 
*END

*D_NET *208 0.000181803
*CONN
*I *1219:A I *D sg13cmos5l_inv_8
*I *1218:Y O *D sg13cmos5l_inv_8
*CAP
1 *1219:A 0
2 *1218:Y 9.09016e-05
3 *208:8 9.09016e-05
*RES
1 *1218:Y *208:8 41.0918 
2 *208:8 *1219:A 40 
*END

*D_NET *209 0.000458394
*CONN
*I *1220:A I *D sg13cmos5l_inv_8
*I *1219:Y O *D sg13cmos5l_inv_8
*CAP
1 *1220:A 0.000156736
2 *1219:Y 0.000156736
3 *1220:A *1221:A 0.000144921
*RES
1 *1219:Y *1220:A 41.6171 
*END

*D_NET *210 0.0009983
*CONN
*I *1221:A I *D sg13cmos5l_inv_8
*I *1220:Y O *D sg13cmos5l_inv_8
*CAP
1 *1221:A 0.00042669
2 *1220:Y 0.00042669
3 *1220:A *1221:A 0.000144921
*RES
1 *1220:Y *1221:A 44.2951 
*END

*D_NET *211 0.000236626
*CONN
*I *1222:A I *D sg13cmos5l_inv_8
*I *1221:Y O *D sg13cmos5l_inv_8
*CAP
1 *1222:A 0.000118313
2 *1221:Y 0.000118313
*RES
1 *1221:Y *1222:A 41.0918 
*END

*D_NET *212 0.000306151
*CONN
*I *1223:A I *D sg13cmos5l_inv_8
*I *1222:Y O *D sg13cmos5l_inv_8
*CAP
1 *1223:A 0.000153076
2 *1222:Y 0.000153076
3 *1223:A *1225:A 0
4 *1223:A *1226:A 0
*RES
1 *1222:Y *1223:A 41.4008 
*END

*D_NET *213 0.000755234
*CONN
*I *1225:A I *D sg13cmos5l_inv_8
*I *1223:Y O *D sg13cmos5l_inv_8
*CAP
1 *1225:A 0.000160605
2 *1223:Y 0.000217012
3 *213:8 0.000377617
4 *1225:A *1226:A 0
5 *1223:A *1225:A 0
*RES
1 *1223:Y *213:8 42.0806 
2 *213:8 *1225:A 41.4008 
*END

*D_NET *214 0.000640348
*CONN
*I *1235:A I *D sg13cmos5l_inv_8
*I *1224:Y O *D sg13cmos5l_inv_8
*CAP
1 *1235:A 0.000320174
2 *1224:Y 0.000320174
3 *1235:A *1224:A 0
4 *1235:A *1246:A 0
5 *1235:A *1725:A 0
6 *1235:A *247:10 0
*RES
1 *1224:Y *1235:A 43.4168 
*END

*D_NET *215 0.000291757
*CONN
*I *1226:A I *D sg13cmos5l_inv_8
*I *1225:Y O *D sg13cmos5l_inv_8
*CAP
1 *1226:A 0.000145879
2 *1225:Y 0.000145879
3 *1226:A *1227:A 0
4 *1223:A *1226:A 0
5 *1225:A *1226:A 0
*RES
1 *1225:Y *1226:A 41.4008 
*END

*D_NET *216 0.000708254
*CONN
*I *1227:A I *D sg13cmos5l_inv_8
*I *1226:Y O *D sg13cmos5l_inv_8
*CAP
1 *1227:A 0.000354127
2 *1226:Y 0.000354127
3 *1227:A *1228:A 0
4 *1227:A *1229:A 0
5 *1226:A *1227:A 0
*RES
1 *1226:Y *1227:A 43.8522 
*END

*D_NET *217 0.000294828
*CONN
*I *1228:A I *D sg13cmos5l_inv_8
*I *1227:Y O *D sg13cmos5l_inv_8
*CAP
1 *1228:A 0.000147414
2 *1227:Y 0.000147414
3 *1228:A *1229:A 0
4 *1227:A *1228:A 0
*RES
1 *1227:Y *1228:A 41.4008 
*END

*D_NET *218 0.000335978
*CONN
*I *1229:A I *D sg13cmos5l_inv_8
*I *1228:Y O *D sg13cmos5l_inv_8
*CAP
1 *1229:A 0.000167989
2 *1228:Y 0.000167989
3 *1227:A *1229:A 0
4 *1228:A *1229:A 0
*RES
1 *1228:Y *1229:A 42.1218 
*END

*D_NET *219 0.000331748
*CONN
*I *1230:A I *D sg13cmos5l_inv_8
*I *1229:Y O *D sg13cmos5l_inv_8
*CAP
1 *1230:A 0.000165874
2 *1229:Y 0.000165874
*RES
1 *1229:Y *1230:A 41.6171 
*END

*D_NET *220 0.000687887
*CONN
*I *1231:A I *D sg13cmos5l_inv_8
*I *1230:Y O *D sg13cmos5l_inv_8
*CAP
1 *1231:A 5.51709e-05
2 *1230:Y 0.000288773
3 *220:8 0.000343943
4 *1231:A *1232:A 0
*RES
1 *1230:Y *220:8 42.0806 
2 *220:8 *1231:A 40.5356 
*END

*D_NET *221 0.000317679
*CONN
*I *1232:A I *D sg13cmos5l_inv_8
*I *1231:Y O *D sg13cmos5l_inv_8
*CAP
1 *1232:A 0.000158839
2 *1231:Y 0.000158839
3 *1231:A *1232:A 0
*RES
1 *1231:Y *1232:A 41.4008 
*END

*D_NET *222 0.00235177
*CONN
*I *1233:A I *D sg13cmos5l_inv_8
*I *1232:Y O *D sg13cmos5l_inv_8
*CAP
1 *1233:A 0.000381869
2 *1232:Y 0.000570336
3 *222:8 0.000952205
4 *1233:A *1234:A 0
5 *1233:A *1236:A 0
6 *222:8 *327:10 0
7 *222:8 *357:20 0
8 *62:14 *222:8 0.000447355
*RES
1 *1232:Y *222:8 45.047 
2 *222:8 *1233:A 43.5638 
*END

*D_NET *223 0.000329691
*CONN
*I *1234:A I *D sg13cmos5l_inv_8
*I *1233:Y O *D sg13cmos5l_inv_8
*CAP
1 *1234:A 0.000164846
2 *1233:Y 0.000164846
3 *1234:A *1236:A 0
4 *1233:A *1234:A 0
*RES
1 *1233:Y *1234:A 41.6171 
*END

*D_NET *224 0.00141519
*CONN
*I *1236:A I *D sg13cmos5l_inv_8
*I *1234:Y O *D sg13cmos5l_inv_8
*CAP
1 *1236:A 0.000288049
2 *1234:Y 0.000192463
3 *224:8 0.000480512
4 *1236:A *1238:A 0
5 *1233:A *1236:A 0
6 *1234:A *1236:A 0
7 *61:20 *224:8 0.000454168
*RES
1 *1234:Y *224:8 42.0806 
2 *224:8 *1236:A 42.1442 
*END

*D_NET *225 0.000713625
*CONN
*I *1246:A I *D sg13cmos5l_inv_8
*I *1235:Y O *D sg13cmos5l_inv_8
*CAP
1 *1246:A 0.000356813
2 *1235:Y 0.000356813
3 *1246:A *1224:A 0
4 *1246:A *1257:A 0
5 *1246:A *1725:A 0
6 *1246:A *247:10 0
7 *1235:A *1246:A 0
*RES
1 *1235:Y *1246:A 43.3475 
*END

*D_NET *226 0.00035448
*CONN
*I *1237:A I *D sg13cmos5l_inv_8
*I *1236:Y O *D sg13cmos5l_inv_8
*CAP
1 *1237:A 0.00017724
2 *1236:Y 0.00017724
3 *1237:A *1238:A 0
4 *1237:A *1241:A 0
*RES
1 *1236:Y *1237:A 41.6171 
*END

*D_NET *227 0.000834248
*CONN
*I *1238:A I *D sg13cmos5l_inv_8
*I *1237:Y O *D sg13cmos5l_inv_8
*CAP
1 *1238:A 0.000417124
2 *1237:Y 0.000417124
3 *1236:A *1238:A 0
4 *1237:A *1238:A 0
*RES
1 *1237:Y *1238:A 43.6977 
*END

*D_NET *228 0.000355191
*CONN
*I *1239:A I *D sg13cmos5l_inv_8
*I *1238:Y O *D sg13cmos5l_inv_8
*CAP
1 *1239:A 0.000177596
2 *1238:Y 0.000177596
3 *1239:A *1242:A 0
4 *1239:A *1258:A 0
5 *1239:A *1259:A 0
*RES
1 *1238:Y *1239:A 42.1218 
*END

*D_NET *229 0.000307453
*CONN
*I *1240:A I *D sg13cmos5l_inv_8
*I *1239:Y O *D sg13cmos5l_inv_8
*CAP
1 *1240:A 0.000153727
2 *1239:Y 0.000153727
3 *1240:A *1242:A 0
*RES
1 *1239:Y *1240:A 41.4008 
*END

*D_NET *230 0.000330442
*CONN
*I *1241:A I *D sg13cmos5l_inv_8
*I *1240:Y O *D sg13cmos5l_inv_8
*CAP
1 *1241:A 0.000165221
2 *1240:Y 0.000165221
3 *1241:A *1242:A 0
4 *1237:A *1241:A 0
*RES
1 *1240:Y *1241:A 41.6171 
*END

*D_NET *231 0.00180891
*CONN
*I *1242:A I *D sg13cmos5l_inv_8
*I *1241:Y O *D sg13cmos5l_inv_8
*CAP
1 *1242:A 0.000800149
2 *1241:Y 0.000800149
3 *1242:A *1254:A 0
4 *1242:A *1255:A 0
5 *1239:A *1242:A 0
6 *1240:A *1242:A 0
7 *1241:A *1242:A 0
8 *1775:A *1242:A 0.000208615
9 *65:10 *1242:A 0
*RES
1 *1241:Y *1242:A 48.7756 
*END

*D_NET *232 0.000172323
*CONN
*I *1243:A I *D sg13cmos5l_inv_8
*I *1242:Y O *D sg13cmos5l_inv_8
*CAP
1 *1243:A 0
2 *1242:Y 8.61614e-05
3 *232:8 8.61614e-05
4 *18:8 *232:8 0
*RES
1 *1242:Y *232:8 41.0918 
2 *232:8 *1243:A 40 
*END

*D_NET *233 0.000453416
*CONN
*I *1244:A I *D sg13cmos5l_inv_8
*I *1243:Y O *D sg13cmos5l_inv_8
*CAP
1 *1244:A 0
2 *1243:Y 0.000226708
3 *233:8 0.000226708
4 *18:8 *233:8 0
*RES
1 *1243:Y *233:8 42.575 
2 *233:8 *1244:A 40 
*END

*D_NET *234 0.000962152
*CONN
*I *1200:A1 I *D sg13cmos5l_mux2_2
*I *1244:Y O *D sg13cmos5l_inv_8
*CAP
1 *1200:A1 0
2 *1244:Y 0.000220085
3 *234:10 0.000220085
4 *234:10 *350:10 0
5 *1245:A *234:10 0.000159096
6 *1729:A *234:10 0
7 *18:8 *234:10 0.000181192
8 *28:16 *234:10 0.000181694
*RES
1 *1244:Y *234:10 42.7707 
2 *234:10 *1200:A1 40 
*END

*D_NET *235 0.000507044
*CONN
*I *1247:A I *D sg13cmos5l_inv_8
*I *1245:Y O *D sg13cmos5l_inv_8
*CAP
1 *1247:A 0.000253522
2 *1245:Y 0.000253522
3 *1247:A *237:10 0
4 *1728:A *1247:A 0
5 *1729:A *1247:A 0
*RES
1 *1245:Y *1247:A 42.4679 
*END

*D_NET *236 0.000377549
*CONN
*I *1257:A I *D sg13cmos5l_inv_8
*I *1246:Y O *D sg13cmos5l_inv_8
*CAP
1 *1257:A 0.000188775
2 *1246:Y 0.000188775
3 *1257:A *247:10 0
4 *1246:A *1257:A 0
*RES
1 *1246:Y *1257:A 41.751 
*END

*D_NET *237 0.000398783
*CONN
*I *1248:A I *D sg13cmos5l_inv_8
*I *1247:Y O *D sg13cmos5l_inv_8
*CAP
1 *1248:A 0
2 *1247:Y 0.000199391
3 *237:10 0.000199391
4 *237:10 *1372:A 0
5 *1247:A *237:10 0
6 *1726:A *237:10 0
7 *1728:A *237:10 0
*RES
1 *1247:Y *237:10 42.1218 
2 *237:10 *1248:A 40 
*END

*D_NET *238 0.00124908
*CONN
*I *1249:A I *D sg13cmos5l_inv_8
*I *1248:Y O *D sg13cmos5l_inv_8
*CAP
1 *1249:A 0
2 *1248:Y 0.000305917
3 *238:10 0.000305917
4 *238:10 *1371:A 0
5 *1726:A *238:10 0.000395068
6 *1729:A *238:10 0.000242181
7 *18:8 *238:10 0
*RES
1 *1248:Y *238:10 43.4505 
2 *238:10 *1249:A 40 
*END

*D_NET *239 0.000290577
*CONN
*I *1250:A I *D sg13cmos5l_inv_8
*I *1249:Y O *D sg13cmos5l_inv_8
*CAP
1 *1250:A 0.000145289
2 *1249:Y 0.000145289
3 *1250:A *1371:A 0
*RES
1 *1249:Y *1250:A 41.6171 
*END

*D_NET *240 0.000172882
*CONN
*I *1251:A I *D sg13cmos5l_inv_8
*I *1250:Y O *D sg13cmos5l_inv_8
*CAP
1 *1251:A 8.64409e-05
2 *1250:Y 8.64409e-05
*RES
1 *1250:Y *1251:A 41.0918 
*END

*D_NET *241 0.000514171
*CONN
*I *1252:A I *D sg13cmos5l_inv_8
*I *1251:Y O *D sg13cmos5l_inv_8
*CAP
1 *1252:A 0.000135929
2 *1251:Y 0.000135929
3 *1252:A *706:20 0.000242313
*RES
1 *1251:Y *1252:A 41.6171 
*END

*D_NET *242 0.000443551
*CONN
*I *1253:A I *D sg13cmos5l_inv_8
*I *1252:Y O *D sg13cmos5l_inv_8
*CAP
1 *1253:A 0.000221775
2 *1252:Y 0.000221775
3 *1253:A *1254:A 0
4 *1253:A *1692:A 0
5 *65:10 *1253:A 0
*RES
1 *1252:Y *1253:A 42.4617 
*END

*D_NET *243 0.000855496
*CONN
*I *1254:A I *D sg13cmos5l_inv_8
*I *1253:Y O *D sg13cmos5l_inv_8
*CAP
1 *1254:A 0.000290363
2 *1253:Y 0.000290363
3 *1254:A *1255:A 0.000274769
4 *1242:A *1254:A 0
5 *1253:A *1254:A 0
6 *65:10 *1254:A 0
*RES
1 *1253:Y *1254:A 43.3475 
*END

*D_NET *244 0.000649841
*CONN
*I *1255:A I *D sg13cmos5l_inv_8
*I *1254:Y O *D sg13cmos5l_inv_8
*CAP
1 *1255:A 0.000187536
2 *1254:Y 0.000187536
3 *1255:A *1256:A 0
4 *1242:A *1255:A 0
5 *1254:A *1255:A 0.000274769
*RES
1 *1254:Y *1255:A 42.266 
*END

*D_NET *245 0.000472585
*CONN
*I *1256:A I *D sg13cmos5l_inv_8
*I *1255:Y O *D sg13cmos5l_inv_8
*CAP
1 *1256:A 0.000236292
2 *1255:Y 0.000236292
3 *1256:A *249:10 0
4 *1255:A *1256:A 0
*RES
1 *1255:Y *1256:A 42.4926 
*END

*D_NET *246 0.000715943
*CONN
*I *1258:A I *D sg13cmos5l_inv_8
*I *1256:Y O *D sg13cmos5l_inv_8
*CAP
1 *1258:A 0.00026931
2 *1256:Y 0.00026931
3 *1258:A *1259:A 0.000177323
4 *1258:A *251:10 0
5 *1239:A *1258:A 0
*RES
1 *1256:Y *1258:A 42.7089 
*END

*D_NET *247 0.00165936
*CONN
*I *1268:A I *D sg13cmos5l_inv_8
*I *1257:Y O *D sg13cmos5l_inv_8
*CAP
1 *1268:A 0
2 *1257:Y 0.000446119
3 *247:10 0.000446119
4 *247:10 *723:27 0.000767122
5 *1235:A *247:10 0
6 *1246:A *247:10 0
7 *1257:A *247:10 0
*RES
1 *1257:Y *247:10 45.8298 
2 *247:10 *1268:A 40 
*END

*D_NET *248 0.00123262
*CONN
*I *1259:A I *D sg13cmos5l_inv_8
*I *1258:Y O *D sg13cmos5l_inv_8
*CAP
1 *1259:A 0.000322656
2 *1258:Y 0.000204991
3 *248:8 0.000527647
4 *1259:A *1261:A 0
5 *1259:A *249:10 0
6 *248:8 *249:10 0
7 *1239:A *1259:A 0
8 *1258:A *1259:A 0.000177323
*RES
1 *1258:Y *248:8 41.8334 
2 *248:8 *1259:A 43.5638 
*END

*D_NET *249 0.000667184
*CONN
*I *1260:A I *D sg13cmos5l_inv_8
*I *1259:Y O *D sg13cmos5l_inv_8
*CAP
1 *1260:A 0
2 *1259:Y 0.000333592
3 *249:10 0.000333592
4 *1256:A *249:10 0
5 *1259:A *249:10 0
6 *248:8 *249:10 0
*RES
1 *1259:Y *249:10 43.4814 
2 *249:10 *1260:A 40 
*END

*D_NET *250 0.000339142
*CONN
*I *1261:A I *D sg13cmos5l_inv_8
*I *1260:Y O *D sg13cmos5l_inv_8
*CAP
1 *1261:A 0.000169571
2 *1260:Y 0.000169571
3 *1261:A *251:10 0
4 *1259:A *1261:A 0
*RES
1 *1260:Y *1261:A 41.751 
*END

*D_NET *251 0.00163579
*CONN
*I *1262:A I *D sg13cmos5l_inv_8
*I *1261:Y O *D sg13cmos5l_inv_8
*CAP
1 *1262:A 5.68057e-05
2 *1261:Y 0.000761089
3 *251:10 0.000817895
4 *1258:A *251:10 0
5 *1261:A *251:10 0
*RES
1 *1261:Y *251:10 46.9422 
2 *251:10 *1262:A 40.5356 
*END

*D_NET *252 0.000294563
*CONN
*I *1263:A I *D sg13cmos5l_inv_8
*I *1262:Y O *D sg13cmos5l_inv_8
*CAP
1 *1263:A 0.000147281
2 *1262:Y 0.000147281
3 *1263:A *1265:A 0
*RES
1 *1262:Y *1263:A 41.6171 
*END

*D_NET *253 0.000384067
*CONN
*I *1264:A I *D sg13cmos5l_inv_8
*I *1263:Y O *D sg13cmos5l_inv_8
*CAP
1 *1264:A 0.000119562
2 *1263:Y 0.000119562
3 *1264:A *1265:A 0.000144942
4 *1264:A *1266:A 0
5 *1264:A *256:10 0
*RES
1 *1263:Y *1264:A 41.4008 
*END

*D_NET *254 0.000764948
*CONN
*I *1265:A I *D sg13cmos5l_inv_8
*I *1264:Y O *D sg13cmos5l_inv_8
*CAP
1 *1265:A 0.000310003
2 *1264:Y 0.000310003
3 *1265:A *256:10 0
4 *1263:A *1265:A 0
5 *1264:A *1265:A 0.000144942
*RES
1 *1264:Y *1265:A 43.8316 
*END

*D_NET *255 0.000264997
*CONN
*I *1266:A I *D sg13cmos5l_inv_8
*I *1265:Y O *D sg13cmos5l_inv_8
*CAP
1 *1266:A 0.000132499
2 *1265:Y 0.000132499
3 *1266:A *1269:A 0
4 *1266:A *256:10 0
5 *1264:A *1266:A 0
*RES
1 *1265:Y *1266:A 41.4008 
*END

*D_NET *256 0.000651529
*CONN
*I *1267:A I *D sg13cmos5l_inv_8
*I *1266:Y O *D sg13cmos5l_inv_8
*CAP
1 *1267:A 0
2 *1266:Y 0.000325764
3 *256:10 0.000325764
4 *1264:A *256:10 0
5 *1265:A *256:10 0
6 *1266:A *256:10 0
*RES
1 *1266:Y *256:10 43.7286 
2 *256:10 *1267:A 40 
*END

*D_NET *257 0.000256327
*CONN
*I *1269:A I *D sg13cmos5l_inv_8
*I *1267:Y O *D sg13cmos5l_inv_8
*CAP
1 *1269:A 0.000128163
2 *1267:Y 0.000128163
3 *1269:A *1271:A 0
4 *1266:A *1269:A 0
*RES
1 *1267:Y *1269:A 41.4008 
*END

*D_NET *258 0.00098246
*CONN
*I *1279:A I *D sg13cmos5l_inv_8
*I *1268:Y O *D sg13cmos5l_inv_8
*CAP
1 *1279:A 0.000353911
2 *1268:Y 0.000353911
3 *1279:A *1290:A 0.000274638
*RES
1 *1268:Y *1279:A 43.9964 
*END

*D_NET *259 0.000719664
*CONN
*I *1270:A I *D sg13cmos5l_inv_8
*I *1269:Y O *D sg13cmos5l_inv_8
*CAP
1 *1270:A 0
2 *1269:Y 0.000359832
3 *259:10 0.000359832
4 *259:10 *1271:A 0
5 *259:10 *353:8 0
*RES
1 *1269:Y *259:10 43.6977 
2 *259:10 *1270:A 40 
*END

*D_NET *260 0.000290577
*CONN
*I *1271:A I *D sg13cmos5l_inv_8
*I *1270:Y O *D sg13cmos5l_inv_8
*CAP
1 *1271:A 0.000145289
2 *1270:Y 0.000145289
3 *1269:A *1271:A 0
4 *259:10 *1271:A 0
*RES
1 *1270:Y *1271:A 41.6171 
*END

*D_NET *261 0.000587931
*CONN
*I *1272:A I *D sg13cmos5l_inv_8
*I *1271:Y O *D sg13cmos5l_inv_8
*CAP
1 *1272:A 0.000293965
2 *1271:Y 0.000293965
3 *1272:A *1273:A 0
4 *1272:A *1274:A 0
*RES
1 *1271:Y *1272:A 43.4814 
*END

*D_NET *262 0.000313929
*CONN
*I *1273:A I *D sg13cmos5l_inv_8
*I *1272:Y O *D sg13cmos5l_inv_8
*CAP
1 *1273:A 0.000156965
2 *1272:Y 0.000156965
3 *1273:A *1274:A 0
4 *1273:A *1275:A 0
5 *1272:A *1273:A 0
*RES
1 *1272:Y *1273:A 41.751 
*END

*D_NET *263 0.000431358
*CONN
*I *1274:A I *D sg13cmos5l_inv_8
*I *1273:Y O *D sg13cmos5l_inv_8
*CAP
1 *1274:A 0.000215679
2 *1273:Y 0.000215679
3 *1274:A *1275:A 0
4 *1274:A *1276:A 0
5 *1272:A *1274:A 0
6 *1273:A *1274:A 0
*RES
1 *1273:Y *1274:A 42.4926 
*END

*D_NET *264 0.000313929
*CONN
*I *1275:A I *D sg13cmos5l_inv_8
*I *1274:Y O *D sg13cmos5l_inv_8
*CAP
1 *1275:A 0.000156965
2 *1274:Y 0.000156965
3 *1275:A *1276:A 0
4 *1275:A *1277:A 0
5 *1273:A *1275:A 0
6 *1274:A *1275:A 0
*RES
1 *1274:Y *1275:A 41.751 
*END

*D_NET *265 0.000472585
*CONN
*I *1276:A I *D sg13cmos5l_inv_8
*I *1275:Y O *D sg13cmos5l_inv_8
*CAP
1 *1276:A 0.000236292
2 *1275:Y 0.000236292
3 *1276:A *1277:A 0
4 *1274:A *1276:A 0
5 *1275:A *1276:A 0
*RES
1 *1275:Y *1276:A 42.4926 
*END

*D_NET *266 0.000436704
*CONN
*I *1277:A I *D sg13cmos5l_inv_8
*I *1276:Y O *D sg13cmos5l_inv_8
*CAP
1 *1277:A 0.000218352
2 *1276:Y 0.000218352
3 *1277:A *1369:A 0
4 *1275:A *1277:A 0
5 *1276:A *1277:A 0
*RES
1 *1276:Y *1277:A 42.266 
*END

*D_NET *267 0.000167399
*CONN
*I *1278:A I *D sg13cmos5l_inv_8
*I *1277:Y O *D sg13cmos5l_inv_8
*CAP
1 *1278:A 0
2 *1277:Y 8.36995e-05
3 *267:8 8.36995e-05
4 *267:8 *354:8 0
*RES
1 *1277:Y *267:8 41.0918 
2 *267:8 *1278:A 40 
*END

*D_NET *268 0.00016547
*CONN
*I *1280:A I *D sg13cmos5l_inv_8
*I *1278:Y O *D sg13cmos5l_inv_8
*CAP
1 *1280:A 0
2 *1278:Y 8.27351e-05
3 *268:8 8.27351e-05
4 *39:14 *268:8 0
*RES
1 *1278:Y *268:8 41.0918 
2 *268:8 *1280:A 40 
*END

*D_NET *269 0.000657119
*CONN
*I *1290:A I *D sg13cmos5l_inv_8
*I *1279:Y O *D sg13cmos5l_inv_8
*CAP
1 *1290:A 0.00019124
2 *1279:Y 0.00019124
3 *1290:A *1365:A 0
4 *1279:A *1290:A 0.000274638
*RES
1 *1279:Y *1290:A 42.266 
*END

*D_NET *270 0.000558165
*CONN
*I *1282:A I *D sg13cmos5l_inv_8
*I *1281:Y O *D sg13cmos5l_inv_8
*CAP
1 *1282:A 0
2 *1281:Y 0.000279083
3 *270:8 0.000279083
*RES
1 *1281:Y *270:8 43.3166 
2 *270:8 *1282:A 40 
*END

*D_NET *271 0.00029965
*CONN
*I *1283:A I *D sg13cmos5l_inv_8
*I *1282:Y O *D sg13cmos5l_inv_8
*CAP
1 *1283:A 0.000149825
2 *1282:Y 0.000149825
3 *1283:A *1284:A 0
*RES
1 *1282:Y *1283:A 41.6171 
*END

*D_NET *272 0.000577174
*CONN
*I *1284:A I *D sg13cmos5l_inv_8
*I *1283:Y O *D sg13cmos5l_inv_8
*CAP
1 *1284:A 0.000288587
2 *1283:Y 0.000288587
3 *1284:A *1285:A 0
4 *1284:A *1457:A 0
5 *1283:A *1284:A 0
*RES
1 *1283:Y *1284:A 43.3578 
*END

*D_NET *273 0.000305792
*CONN
*I *1285:A I *D sg13cmos5l_inv_8
*I *1284:Y O *D sg13cmos5l_inv_8
*CAP
1 *1285:A 0.000145168
2 *1284:Y 0.000145168
3 *1285:A *1287:A 1.54556e-05
4 *1284:A *1285:A 0
*RES
1 *1284:Y *1285:A 41.6171 
*END

*D_NET *274 0.000456216
*CONN
*I *1286:A I *D sg13cmos5l_inv_8
*I *1285:Y O *D sg13cmos5l_inv_8
*CAP
1 *1286:A 0.000123246
2 *1285:Y 0.000123246
3 *1286:A *1287:A 0.000209725
4 *1286:A *1288:A 0
5 *1286:A *277:10 0
*RES
1 *1285:Y *1286:A 41.4008 
*END

*D_NET *275 0.00094604
*CONN
*I *1287:A I *D sg13cmos5l_inv_8
*I *1286:Y O *D sg13cmos5l_inv_8
*CAP
1 *1287:A 0.00036043
2 *1286:Y 0.00036043
3 *1287:A *277:10 0
4 *1285:A *1287:A 1.54556e-05
5 *1286:A *1287:A 0.000209725
6 *1766:A *1287:A 0
*RES
1 *1286:Y *1287:A 44.4496 
*END

*D_NET *276 0.000346028
*CONN
*I *1288:A I *D sg13cmos5l_inv_8
*I *1287:Y O *D sg13cmos5l_inv_8
*CAP
1 *1288:A 0.000165314
2 *1287:Y 0.000165314
3 *1288:A *277:10 1.54008e-05
4 *1288:A *726:14 0
5 *1286:A *1288:A 0
*RES
1 *1287:Y *1288:A 41.751 
*END

*D_NET *277 0.000439795
*CONN
*I *1289:A I *D sg13cmos5l_inv_8
*I *1288:Y O *D sg13cmos5l_inv_8
*CAP
1 *1289:A 0
2 *1288:Y 0.000212197
3 *277:10 0.000212197
4 *277:10 *726:14 0
5 *1286:A *277:10 0
6 *1287:A *277:10 0
7 *1288:A *277:10 1.54008e-05
*RES
1 *1288:Y *277:10 42.1218 
2 *277:10 *1289:A 40 
*END

*D_NET *278 0.000387842
*CONN
*I *1291:A I *D sg13cmos5l_inv_8
*I *1289:Y O *D sg13cmos5l_inv_8
*CAP
1 *1291:A 0.000193921
2 *1289:Y 0.000193921
3 *1291:A *280:10 0
4 *1291:A *726:14 0
*RES
1 *1289:Y *1291:A 41.6171 
*END

*D_NET *279 0.000172882
*CONN
*I *1301:A I *D sg13cmos5l_inv_8
*I *1290:Y O *D sg13cmos5l_inv_8
*CAP
1 *1301:A 8.64409e-05
2 *1290:Y 8.64409e-05
*RES
1 *1290:Y *1301:A 41.0918 
*END

*D_NET *280 0.000861359
*CONN
*I *1292:A I *D sg13cmos5l_inv_8
*I *1291:Y O *D sg13cmos5l_inv_8
*CAP
1 *1292:A 6.68566e-05
2 *1291:Y 0.000356123
3 *280:10 0.000422979
4 *1292:A *1293:A 1.54008e-05
5 *1292:A *1911:B 0
6 *1292:A *726:14 0
7 *1291:A *280:10 0
*RES
1 *1291:Y *280:10 43.7904 
2 *280:10 *1292:A 40.7519 
*END

*D_NET *281 0.000331214
*CONN
*I *1293:A I *D sg13cmos5l_inv_8
*I *1292:Y O *D sg13cmos5l_inv_8
*CAP
1 *1293:A 0.000157906
2 *1292:Y 0.000157906
3 *1293:A *1296:A 0
4 *1293:A *726:14 0
5 *1292:A *1293:A 1.54008e-05
*RES
1 *1292:Y *1293:A 41.6171 
*END

*D_NET *282 0.000386929
*CONN
*I *1294:A I *D sg13cmos5l_inv_8
*I *1293:Y O *D sg13cmos5l_inv_8
*CAP
1 *1294:A 0.000193464
2 *1293:Y 0.000193464
3 *1294:A *1295:A 0
4 *1294:A *1296:A 0
5 *1294:A *726:14 0
*RES
1 *1293:Y *1294:A 41.751 
*END

*D_NET *283 0.000497615
*CONN
*I *1295:A I *D sg13cmos5l_inv_8
*I *1294:Y O *D sg13cmos5l_inv_8
*CAP
1 *1295:A 0.000248807
2 *1294:Y 0.000248807
3 *1295:A *1296:A 0
4 *1294:A *1295:A 0
*RES
1 *1294:Y *1295:A 41.4182 
*END

*D_NET *284 0.00148104
*CONN
*I *1296:A I *D sg13cmos5l_inv_8
*I *1295:Y O *D sg13cmos5l_inv_8
*CAP
1 *1296:A 0.000619578
2 *1295:Y 0.000619578
3 *1296:A *1299:A 0.000241886
4 *1296:A *675:12 0
5 *1293:A *1296:A 0
6 *1294:A *1296:A 0
7 *1295:A *1296:A 0
*RES
1 *1295:Y *1296:A 46.0152 
*END

*D_NET *285 0.000468797
*CONN
*I *1297:A I *D sg13cmos5l_inv_8
*I *1296:Y O *D sg13cmos5l_inv_8
*CAP
1 *1297:A 0.000234399
2 *1296:Y 0.000234399
3 *1297:A *726:14 0
*RES
1 *1296:Y *1297:A 42.4617 
*END

*D_NET *286 0.00159746
*CONN
*I *1298:A I *D sg13cmos5l_inv_8
*I *1297:Y O *D sg13cmos5l_inv_8
*CAP
1 *1298:A 0
2 *1297:Y 0.000320896
3 *286:10 0.000320896
4 *286:10 *700:14 0.000875588
5 *286:10 *726:14 8.00842e-05
*RES
1 *1297:Y *286:10 44.5938 
2 *286:10 *1298:A 40 
*END

*D_NET *287 0.000542116
*CONN
*I *1299:A I *D sg13cmos5l_inv_8
*I *1298:Y O *D sg13cmos5l_inv_8
*CAP
1 *1299:A 0.000150115
2 *1298:Y 0.000150115
3 *1296:A *1299:A 0.000241886
*RES
1 *1298:Y *1299:A 41.6171 
*END

*D_NET *288 0.000354021
*CONN
*I *1300:A I *D sg13cmos5l_inv_8
*I *1299:Y O *D sg13cmos5l_inv_8
*CAP
1 *1300:A 0.000177011
2 *1299:Y 0.000177011
3 *1300:A *1302:A 0
4 *1300:A *1303:A 0
5 *1300:A *1306:A 0
*RES
1 *1299:Y *1300:A 41.751 
*END

*D_NET *289 0.000538892
*CONN
*I *1302:A I *D sg13cmos5l_inv_8
*I *1300:Y O *D sg13cmos5l_inv_8
*CAP
1 *1302:A 0.000269446
2 *1300:Y 0.000269446
3 *1302:A *1303:A 0
4 *1300:A *1302:A 0
*RES
1 *1300:Y *1302:A 42.4926 
*END

*D_NET *290 0.000305105
*CONN
*I *1312:A I *D sg13cmos5l_inv_8
*I *1301:Y O *D sg13cmos5l_inv_8
*CAP
1 *1312:A 0.000152552
2 *1301:Y 0.000152552
3 *1312:A *1323:A 0
*RES
1 *1301:Y *1312:A 41.6171 
*END

*D_NET *291 0.000686814
*CONN
*I *1303:A I *D sg13cmos5l_inv_8
*I *1302:Y O *D sg13cmos5l_inv_8
*CAP
1 *1303:A 0.000343407
2 *1302:Y 0.000343407
3 *1303:A *1304:A 0
4 *1303:A *293:10 0
5 *1300:A *1303:A 0
6 *1302:A *1303:A 0
*RES
1 *1302:Y *1303:A 43.5638 
*END

*D_NET *292 0.000745827
*CONN
*I *1304:A I *D sg13cmos5l_inv_8
*I *1303:Y O *D sg13cmos5l_inv_8
*CAP
1 *1304:A 0.000372914
2 *1303:Y 0.000372914
3 *1304:A *293:10 0
4 *1303:A *1304:A 0
*RES
1 *1303:Y *1304:A 43.3475 
*END

*D_NET *293 0.0017344
*CONN
*I *1305:A I *D sg13cmos5l_inv_8
*I *1304:Y O *D sg13cmos5l_inv_8
*CAP
1 *1305:A 0
2 *1304:Y 0.000867199
3 *293:10 0.000867199
4 *293:10 *674:12 0
5 *293:10 *718:10 0
6 *1303:A *293:10 0
7 *1304:A *293:10 0
8 *183:14 *293:10 0
*RES
1 *1304:Y *293:10 47.4984 
2 *293:10 *1305:A 40 
*END

*D_NET *294 0.000172882
*CONN
*I *1306:A I *D sg13cmos5l_inv_8
*I *1305:Y O *D sg13cmos5l_inv_8
*CAP
1 *1306:A 8.64409e-05
2 *1305:Y 8.64409e-05
3 *1300:A *1306:A 0
*RES
1 *1305:Y *1306:A 41.0918 
*END

*D_NET *295 0.000221874
*CONN
*I *1307:A I *D sg13cmos5l_inv_8
*I *1306:Y O *D sg13cmos5l_inv_8
*CAP
1 *1307:A 0
2 *1306:Y 0.000110937
3 *295:8 0.000110937
4 *295:8 *674:12 0
*RES
1 *1306:Y *295:8 41.0918 
2 *295:8 *1307:A 40 
*END

*D_NET *296 0.000369694
*CONN
*I *1308:A I *D sg13cmos5l_inv_8
*I *1307:Y O *D sg13cmos5l_inv_8
*CAP
1 *1308:A 0.000144663
2 *1307:Y 0.000144663
3 *1308:A *1309:A 8.03692e-05
4 *1308:A *1310:A 0
*RES
1 *1307:Y *1308:A 41.6171 
*END

*D_NET *297 0.000799133
*CONN
*I *1309:A I *D sg13cmos5l_inv_8
*I *1308:Y O *D sg13cmos5l_inv_8
*CAP
1 *1309:A 0.000359382
2 *1308:Y 0.000359382
3 *1309:A *1310:A 0
4 *1309:A *726:14 0
5 *1308:A *1309:A 8.03692e-05
*RES
1 *1308:Y *1309:A 44.0582 
*END

*D_NET *298 0.00113812
*CONN
*I *1310:A I *D sg13cmos5l_inv_8
*I *1309:Y O *D sg13cmos5l_inv_8
*CAP
1 *1310:A 0.000447906
2 *1309:Y 0.000447906
3 *1310:A *1311:A 0.000242313
4 *1310:A *674:12 0
5 *1308:A *1310:A 0
6 *1309:A *1310:A 0
*RES
1 *1309:Y *1310:A 44.7792 
*END

*D_NET *299 0.000594366
*CONN
*I *1311:A I *D sg13cmos5l_inv_8
*I *1310:Y O *D sg13cmos5l_inv_8
*CAP
1 *1311:A 0.000176027
2 *1310:Y 0.000176027
3 *1311:A *674:12 0
4 *1310:A *1311:A 0.000242313
*RES
1 *1310:Y *1311:A 41.9673 
*END

*D_NET *300 0.000739116
*CONN
*I *1313:A I *D sg13cmos5l_inv_8
*I *1311:Y O *D sg13cmos5l_inv_8
*CAP
1 *1313:A 0.000234043
2 *1311:Y 0.000135515
3 *300:8 0.000369558
4 *1313:A *1314:A 0
5 *1313:A *1315:A 0
6 *1313:A *674:12 0
7 *300:8 *674:12 0
8 *54:10 *300:8 0
*RES
1 *1311:Y *300:8 41.5862 
2 *300:8 *1313:A 42.266 
*END

*D_NET *301 0.00047247
*CONN
*I *1323:A I *D sg13cmos5l_inv_8
*I *1312:Y O *D sg13cmos5l_inv_8
*CAP
1 *1323:A 0.000236235
2 *1312:Y 0.000236235
3 *1323:A *1335:A 0
4 *1323:A *1366:A 0
5 *1312:A *1323:A 0
*RES
1 *1312:Y *1323:A 42.8119 
*END

*D_NET *302 0.000781934
*CONN
*I *1314:A I *D sg13cmos5l_inv_8
*I *1313:Y O *D sg13cmos5l_inv_8
*CAP
1 *1314:A 0.000390967
2 *1313:Y 0.000390967
3 *1314:A *1315:A 0
4 *1314:A *1317:A 0
5 *1314:A *674:12 0
6 *1313:A *1314:A 0
7 *1316:A *1314:A 0
8 *54:10 *1314:A 0
*RES
1 *1313:Y *1314:A 43.9964 
*END

*D_NET *303 0.000385865
*CONN
*I *1315:A I *D sg13cmos5l_inv_8
*I *1314:Y O *D sg13cmos5l_inv_8
*CAP
1 *1315:A 0.000192933
2 *1314:Y 0.000192933
3 *1315:A *674:12 0
4 *1313:A *1315:A 0
5 *1314:A *1315:A 0
*RES
1 *1314:Y *1315:A 41.9673 
*END

*D_NET *304 0.0010767
*CONN
*I *1317:A I *D sg13cmos5l_inv_8
*I *1316:Y O *D sg13cmos5l_inv_8
*CAP
1 *1317:A 0.000344811
2 *1316:Y 0.000344811
3 *1317:A *1318:A 0.000242313
4 *1317:A *306:12 0
5 *1314:A *1317:A 0
6 *1316:A *1317:A 0.000144767
7 *1761:A *1317:A 0
*RES
1 *1316:Y *1317:A 43.6324 
*END

*D_NET *305 0.000610125
*CONN
*I *1318:A I *D sg13cmos5l_inv_8
*I *1317:Y O *D sg13cmos5l_inv_8
*CAP
1 *1318:A 0.000183906
2 *1317:Y 0.000183906
3 *1318:A *306:12 0
4 *1317:A *1318:A 0.000242313
5 *1761:A *1318:A 0
*RES
1 *1317:Y *1318:A 41.9673 
*END

*D_NET *306 0.00152106
*CONN
*I *1319:A I *D sg13cmos5l_inv_8
*I *1318:Y O *D sg13cmos5l_inv_8
*CAP
1 *1319:A 0
2 *1318:Y 0.00049056
3 *306:12 0.00049056
4 *1317:A *306:12 0
5 *1318:A *306:12 0
6 *1761:A *306:12 0.000144784
7 *51:10 *306:12 0.000395154
8 *52:8 *306:12 0
*RES
1 *1318:Y *306:12 45.7783 
2 *306:12 *1319:A 40 
*END

*D_NET *307 0.000322699
*CONN
*I *1320:A I *D sg13cmos5l_inv_8
*I *1319:Y O *D sg13cmos5l_inv_8
*CAP
1 *1320:A 0.00016135
2 *1319:Y 0.00016135
3 *1320:A *1321:A 0
*RES
1 *1319:Y *1320:A 41.6171 
*END

*D_NET *308 0.000370701
*CONN
*I *1321:A I *D sg13cmos5l_inv_8
*I *1320:Y O *D sg13cmos5l_inv_8
*CAP
1 *1321:A 4.85587e-05
2 *1320:Y 0.000136792
3 *308:8 0.00018535
4 *1320:A *1321:A 0
5 *52:8 *308:8 0
*RES
1 *1320:Y *308:8 41.5862 
2 *308:8 *1321:A 40.5356 
*END

*D_NET *309 0.000172882
*CONN
*I *1322:A I *D sg13cmos5l_inv_8
*I *1321:Y O *D sg13cmos5l_inv_8
*CAP
1 *1322:A 8.64409e-05
2 *1321:Y 8.64409e-05
3 *1322:A *1370:A 0
*RES
1 *1321:Y *1322:A 41.0918 
*END

*D_NET *310 0.000319412
*CONN
*I *1325:A I *D sg13cmos5l_inv_8
*I *1322:Y O *D sg13cmos5l_inv_8
*CAP
1 *1325:A 0.000159706
2 *1322:Y 0.000159706
3 *1325:A *1326:A 0
4 *1325:A *1327:A 0
*RES
1 *1322:Y *1325:A 41.6171 
*END

*D_NET *311 0.00030498
*CONN
*I *1335:A I *D sg13cmos5l_inv_8
*I *1323:Y O *D sg13cmos5l_inv_8
*CAP
1 *1335:A 0.00015249
2 *1323:Y 0.00015249
3 *1323:A *1335:A 0
*RES
1 *1323:Y *1335:A 41.6171 
*END

*D_NET *312 0.000415095
*CONN
*I *1435:A I *D sg13cmos5l_inv_8
*I *1324:Y O *D sg13cmos5l_inv_8
*CAP
1 *1435:A 0.000167363
2 *1324:Y 0.000167363
3 *1435:A *358:12 8.03692e-05
4 *1324:A *1435:A 0
5 *1728:A *1435:A 0
*RES
1 *1324:Y *1435:A 42.1218 
*END

*D_NET *313 0.000614228
*CONN
*I *1326:A I *D sg13cmos5l_inv_8
*I *1325:Y O *D sg13cmos5l_inv_8
*CAP
1 *1326:A 0.000153349
2 *1325:Y 0.000153765
3 *313:8 0.000307114
4 *1326:A *1327:A 0
5 *1326:A *1328:A 0
6 *313:8 *357:12 0
7 *1325:A *1326:A 0
*RES
1 *1325:Y *313:8 41.8334 
2 *313:8 *1326:A 41.6171 
*END

*D_NET *314 0.000312411
*CONN
*I *1327:A I *D sg13cmos5l_inv_8
*I *1326:Y O *D sg13cmos5l_inv_8
*CAP
1 *1327:A 0.000156206
2 *1326:Y 0.000156206
3 *1327:A *1328:A 0
4 *1327:A *1329:A 0
5 *1325:A *1327:A 0
6 *1326:A *1327:A 0
*RES
1 *1326:Y *1327:A 41.6171 
*END

*D_NET *315 0.000830405
*CONN
*I *1328:A I *D sg13cmos5l_inv_8
*I *1327:Y O *D sg13cmos5l_inv_8
*CAP
1 *1328:A 0.000140281
2 *1327:Y 0.000153765
3 *315:8 0.000294046
4 *1328:A *1330:A 0.000242313
5 *315:8 *357:12 0
6 *1326:A *1328:A 0
7 *1327:A *1328:A 0
*RES
1 *1327:Y *315:8 41.8334 
2 *315:8 *1328:A 41.6171 
*END

*D_NET *316 0.000299247
*CONN
*I *1329:A I *D sg13cmos5l_inv_8
*I *1328:Y O *D sg13cmos5l_inv_8
*CAP
1 *1329:A 0.000149624
2 *1328:Y 0.000149624
3 *1329:A *1330:A 0
4 *1329:A *1332:A 0
5 *1327:A *1329:A 0
*RES
1 *1328:Y *1329:A 41.6171 
*END

*D_NET *317 0.000955122
*CONN
*I *1330:A I *D sg13cmos5l_inv_8
*I *1329:Y O *D sg13cmos5l_inv_8
*CAP
1 *1330:A 0.000356405
2 *1329:Y 0.000356405
3 *1330:A *1331:A 0
4 *1328:A *1330:A 0.000242313
5 *1329:A *1330:A 0
*RES
1 *1329:Y *1330:A 43.6977 
*END

*D_NET *318 0.000379758
*CONN
*I *1331:A I *D sg13cmos5l_inv_8
*I *1330:Y O *D sg13cmos5l_inv_8
*CAP
1 *1331:A 0.000189879
2 *1330:Y 0.000189879
3 *1331:A *1333:A 0
4 *1330:A *1331:A 0
*RES
1 *1330:Y *1331:A 41.9982 
*END

*D_NET *319 0.000299282
*CONN
*I *1332:A I *D sg13cmos5l_inv_8
*I *1331:Y O *D sg13cmos5l_inv_8
*CAP
1 *1332:A 0.000149641
2 *1331:Y 0.000149641
3 *1332:A *1333:A 0
4 *1332:A *1336:A 0
5 *1329:A *1332:A 0
*RES
1 *1331:Y *1332:A 41.6171 
*END

*D_NET *320 0.00064199
*CONN
*I *1333:A I *D sg13cmos5l_inv_8
*I *1332:Y O *D sg13cmos5l_inv_8
*CAP
1 *1333:A 0.000175514
2 *1332:Y 0.000145481
3 *320:8 0.000320995
4 *1333:A *1336:A 0
5 *320:8 *357:12 0
6 *320:8 *357:20 0
7 *1331:A *1333:A 0
8 *1332:A *1333:A 0
*RES
1 *1332:Y *320:8 41.8334 
2 *320:8 *1333:A 41.6171 
*END

*D_NET *321 0.000328888
*CONN
*I *1334:A I *D sg13cmos5l_inv_8
*I *1333:Y O *D sg13cmos5l_inv_8
*CAP
1 *1334:A 0.000164444
2 *1333:Y 0.000164444
3 *1334:A *1336:A 0
*RES
1 *1333:Y *1334:A 41.4008 
*END

*D_NET *322 0.00091991
*CONN
*I *1336:A I *D sg13cmos5l_inv_8
*I *1334:Y O *D sg13cmos5l_inv_8
*CAP
1 *1336:A 0.000459955
2 *1334:Y 0.000459955
3 *1336:A *1337:A 0
4 *1332:A *1336:A 0
5 *1333:A *1336:A 0
6 *1334:A *1336:A 0
*RES
1 *1334:Y *1336:A 44.429 
*END

*D_NET *323 0.000172882
*CONN
*I *1346:A I *D sg13cmos5l_inv_8
*I *1335:Y O *D sg13cmos5l_inv_8
*CAP
1 *1346:A 8.64409e-05
2 *1335:Y 8.64409e-05
*RES
1 *1335:Y *1346:A 41.0918 
*END

*D_NET *324 0.000393453
*CONN
*I *1337:A I *D sg13cmos5l_inv_8
*I *1336:Y O *D sg13cmos5l_inv_8
*CAP
1 *1337:A 0.000196726
2 *1336:Y 0.000196726
3 *1337:A *1338:A 0
4 *1336:A *1337:A 0
*RES
1 *1336:Y *1337:A 42.3175 
*END

*D_NET *325 0.000290702
*CONN
*I *1338:A I *D sg13cmos5l_inv_8
*I *1337:Y O *D sg13cmos5l_inv_8
*CAP
1 *1338:A 0.000145351
2 *1337:Y 0.000145351
3 *1338:A *327:10 0
4 *1337:A *1338:A 0
*RES
1 *1337:Y *1338:A 41.6171 
*END

*D_NET *326 0.000172882
*CONN
*I *1339:A I *D sg13cmos5l_inv_8
*I *1338:Y O *D sg13cmos5l_inv_8
*CAP
1 *1339:A 8.64409e-05
2 *1338:Y 8.64409e-05
*RES
1 *1338:Y *1339:A 41.0918 
*END

*D_NET *327 0.00171325
*CONN
*I *1340:A I *D sg13cmos5l_inv_8
*I *1339:Y O *D sg13cmos5l_inv_8
*CAP
1 *1340:A 0
2 *1339:Y 0.00063295
3 *327:10 0.00063295
4 *1338:A *327:10 0
5 *62:14 *327:10 0.000447355
6 *222:8 *327:10 0
*RES
1 *1339:Y *327:10 46.9113 
2 *327:10 *1340:A 40 
*END

*D_NET *328 0.000313699
*CONN
*I *1341:A I *D sg13cmos5l_inv_8
*I *1340:Y O *D sg13cmos5l_inv_8
*CAP
1 *1341:A 0.00015685
2 *1340:Y 0.00015685
3 *1341:A *1342:A 0
4 *1341:A *1343:A 0
*RES
1 *1340:Y *1341:A 41.6171 
*END

*D_NET *329 0.000666919
*CONN
*I *1342:A I *D sg13cmos5l_inv_8
*I *1341:Y O *D sg13cmos5l_inv_8
*CAP
1 *1342:A 0.000160962
2 *1341:Y 0.000172497
3 *329:8 0.000333459
4 *1342:A *1344:A 0
5 *1341:A *1342:A 0
6 *62:14 *329:8 0
*RES
1 *1341:Y *329:8 42.0806 
2 *329:8 *1342:A 41.6171 
*END

*D_NET *330 0.000432735
*CONN
*I *1343:A I *D sg13cmos5l_inv_8
*I *1342:Y O *D sg13cmos5l_inv_8
*CAP
1 *1343:A 0.000143896
2 *1342:Y 0.000143896
3 *1343:A *1344:A 0.000144942
4 *1343:A *1345:A 0
5 *1341:A *1343:A 0
*RES
1 *1342:Y *1343:A 41.6171 
*END

*D_NET *331 0.000778568
*CONN
*I *1344:A I *D sg13cmos5l_inv_8
*I *1343:Y O *D sg13cmos5l_inv_8
*CAP
1 *1344:A 0.000316813
2 *1343:Y 0.000316813
3 *1342:A *1344:A 0
4 *1343:A *1344:A 0.000144942
*RES
1 *1343:Y *1344:A 43.8007 
*END

*D_NET *332 0.000319698
*CONN
*I *1345:A I *D sg13cmos5l_inv_8
*I *1344:Y O *D sg13cmos5l_inv_8
*CAP
1 *1345:A 0.000159849
2 *1344:Y 0.000159849
3 *1345:A *1347:A 0
4 *1345:A *1348:A 0
5 *1343:A *1345:A 0
*RES
1 *1344:Y *1345:A 41.6171 
*END

*D_NET *333 0.000651237
*CONN
*I *1347:A I *D sg13cmos5l_inv_8
*I *1345:Y O *D sg13cmos5l_inv_8
*CAP
1 *1347:A 0.000153121
2 *1345:Y 0.000172497
3 *333:8 0.000325619
4 *1347:A *1348:A 0
5 *1345:A *1347:A 0
6 *62:14 *333:8 0
*RES
1 *1345:Y *333:8 42.0806 
2 *333:8 *1347:A 41.6171 
*END

*D_NET *334 0.000172882
*CONN
*I *1357:A I *D sg13cmos5l_inv_8
*I *1346:Y O *D sg13cmos5l_inv_8
*CAP
1 *1357:A 8.64409e-05
2 *1346:Y 8.64409e-05
*RES
1 *1346:Y *1357:A 41.0918 
*END

*D_NET *335 0.000304724
*CONN
*I *1348:A I *D sg13cmos5l_inv_8
*I *1347:Y O *D sg13cmos5l_inv_8
*CAP
1 *1348:A 0.000152362
2 *1347:Y 0.000152362
3 *1348:A *1350:A 0
4 *1345:A *1348:A 0
5 *1347:A *1348:A 0
*RES
1 *1347:Y *1348:A 41.6171 
*END

*D_NET *336 0.000333827
*CONN
*I *1349:A I *D sg13cmos5l_inv_8
*I *1348:Y O *D sg13cmos5l_inv_8
*CAP
1 *1349:A 0
2 *1348:Y 0.000166914
3 *336:8 0.000166914
4 *62:14 *336:8 0
*RES
1 *1348:Y *336:8 42.0806 
2 *336:8 *1349:A 40 
*END

*D_NET *337 0.000398422
*CONN
*I *1350:A I *D sg13cmos5l_inv_8
*I *1349:Y O *D sg13cmos5l_inv_8
*CAP
1 *1350:A 0.00017534
2 *1349:Y 0.00017534
3 *1350:A *1351:A 0
4 *1348:A *1350:A 0
5 *61:10 *1350:A 0
6 *61:16 *1350:A 4.77425e-05
*RES
1 *1349:Y *1350:A 41.9673 
*END

*D_NET *338 0.000588076
*CONN
*I *1351:A I *D sg13cmos5l_inv_8
*I *1350:Y O *D sg13cmos5l_inv_8
*CAP
1 *1351:A 0.000294038
2 *1350:Y 0.000294038
3 *1351:A *1353:A 0
4 *1350:A *1351:A 0
5 *61:10 *1351:A 0
6 *61:16 *1351:A 0
*RES
1 *1350:Y *1351:A 43.2033 
*END

*D_NET *339 0.000865117
*CONN
*I *1353:A I *D sg13cmos5l_inv_8
*I *1352:Y O *D sg13cmos5l_inv_8
*CAP
1 *1353:A 0.000432559
2 *1352:Y 0.000432559
3 *1351:A *1353:A 0
4 *1352:A *1353:A 0
5 *1772:A *1353:A 0
6 *61:16 *1353:A 0
*RES
1 *1352:Y *1353:A 43.9552 
*END

*D_NET *340 0.000316717
*CONN
*I *1354:A I *D sg13cmos5l_inv_8
*I *1353:Y O *D sg13cmos5l_inv_8
*CAP
1 *1354:A 0.000158358
2 *1353:Y 0.000158358
3 *1354:A *1355:A 0
4 *1354:A *357:20 0
5 *1772:A *1354:A 0
6 *22:12 *1354:A 0
*RES
1 *1353:Y *1354:A 41.4008 
*END

*D_NET *341 0.00087451
*CONN
*I *1355:A I *D sg13cmos5l_inv_8
*I *1354:Y O *D sg13cmos5l_inv_8
*CAP
1 *1355:A 0.000437255
2 *1354:Y 0.000437255
3 *1355:A *1358:A 0
4 *1354:A *1355:A 0
*RES
1 *1354:Y *1355:A 43.8522 
*END

*D_NET *342 0.000317213
*CONN
*I *1356:A I *D sg13cmos5l_inv_8
*I *1355:Y O *D sg13cmos5l_inv_8
*CAP
1 *1356:A 0.000158607
2 *1355:Y 0.000158607
3 *1356:A *1358:A 0
*RES
1 *1355:Y *1356:A 41.6171 
*END

*D_NET *343 0.00100384
*CONN
*I *1358:A I *D sg13cmos5l_inv_8
*I *1356:Y O *D sg13cmos5l_inv_8
*CAP
1 *1358:A 0.000429954
2 *1356:Y 0.000429954
3 *1358:A *345:10 0.000143932
4 *1355:A *1358:A 0
5 *1356:A *1358:A 0
6 *61:10 *1358:A 0
*RES
1 *1356:Y *1358:A 43.9449 
*END

*D_NET *344 0.000172882
*CONN
*I *1368:A I *D sg13cmos5l_inv_8
*I *1357:Y O *D sg13cmos5l_inv_8
*CAP
1 *1368:A 8.64409e-05
2 *1357:Y 8.64409e-05
*RES
1 *1357:Y *1368:A 41.0918 
*END

*D_NET *345 0.00114517
*CONN
*I *1359:A I *D sg13cmos5l_inv_8
*I *1358:Y O *D sg13cmos5l_inv_8
*CAP
1 *1359:A 5.525e-05
2 *1358:Y 0.000247671
3 *345:10 0.000302921
4 *345:10 *706:16 0
5 *1358:A *345:10 0.000143932
6 *62:14 *345:10 0
7 *63:12 *345:10 0.000395396
*RES
1 *1358:Y *345:10 42.8016 
2 *345:10 *1359:A 40.5356 
*END

*D_NET *346 0.000425005
*CONN
*I *1360:A I *D sg13cmos5l_inv_8
*I *1359:Y O *D sg13cmos5l_inv_8
*CAP
1 *1360:A 0.000140031
2 *1359:Y 0.000140031
3 *1360:A *1361:A 0.000144942
4 *1360:A *361:10 0
*RES
1 *1359:Y *1360:A 41.6171 
*END

*D_NET *347 0.00069973
*CONN
*I *1361:A I *D sg13cmos5l_inv_8
*I *1360:Y O *D sg13cmos5l_inv_8
*CAP
1 *1361:A 0.000253523
2 *1360:Y 0.000253523
3 *1361:A *361:10 4.77425e-05
4 *1360:A *1361:A 0.000144942
*RES
1 *1360:Y *1361:A 43.0591 
*END

*D_NET *348 0.000437565
*CONN
*I *1362:A I *D sg13cmos5l_inv_8
*I *1361:Y O *D sg13cmos5l_inv_8
*CAP
1 *1362:A 0.000146311
2 *1361:Y 0.000146311
3 *1362:A *349:10 0.000144942
4 *1362:A *361:10 0
*RES
1 *1361:Y *1362:A 41.6171 
*END

*D_NET *349 0.00295871
*CONN
*I *1363:A I *D sg13cmos5l_inv_8
*I *1362:Y O *D sg13cmos5l_inv_8
*CAP
1 *1363:A 0.000321441
2 *1362:Y 0.00108544
3 *349:10 0.00140689
4 *349:10 *361:10 0
5 *1362:A *349:10 0.000144942
6 *1742:A *1363:A 0
7 *26:12 *349:10 0
8 *63:12 *349:10 0
*RES
1 *1362:Y *349:10 47.7456 
2 *349:10 *1363:A 42.9149 
*END

*D_NET *350 0.00291696
*CONN
*I *1364:A I *D sg13cmos5l_inv_8
*I *1363:Y O *D sg13cmos5l_inv_8
*CAP
1 *1364:A 0.000328893
2 *1363:Y 0.000840561
3 *350:10 0.00116945
4 *1364:A *1372:A 0
5 *1364:A *1373:A 0
6 *350:10 *1372:A 0
7 *350:10 *1889:B 0
8 *350:10 *716:12 0
9 *1727:A *350:10 0.000209713
10 *1728:A *350:10 0
11 *1729:A *350:10 0
12 *1880:A *350:10 0
13 *28:8 *350:10 8.01612e-05
14 *28:16 *350:10 0
15 *28:33 *1364:A 0
16 *32:16 *1364:A 0
17 *175:10 *1364:A 0
18 *179:8 *350:10 0.000288173
19 *234:10 *350:10 0
*RES
1 *1363:Y *350:10 49.2597 
2 *350:10 *1364:A 42.1192 
*END

*D_NET *351 0.00855954
*CONN
*I *1365:A I *D sg13cmos5l_inv_8
*I *1364:Y O *D sg13cmos5l_inv_8
*CAP
1 *1365:A 0.000134177
2 *1364:Y 0
3 *351:10 0.00219371
4 *351:6 0.00205953
5 *351:10 *1372:A 0.000984099
6 *351:10 *1889:B 0
7 *351:10 *421:18 0
8 *351:10 *723:12 0
9 *351:10 *723:25 0
10 *351:10 *723:27 0
11 *1290:A *1365:A 0
12 *70:12 *351:10 0.0022072
13 *180:10 *351:10 0.000980824
*RES
1 *1364:Y *351:6 40 
2 *351:6 *351:10 48.7782 
3 *351:10 *1365:A 21.4008 
*END

*D_NET *352 0.000172882
*CONN
*I *1366:A I *D sg13cmos5l_inv_8
*I *1365:Y O *D sg13cmos5l_inv_8
*CAP
1 *1366:A 8.64409e-05
2 *1365:Y 8.64409e-05
3 *1323:A *1366:A 0
*RES
1 *1365:Y *1366:A 41.0918 
*END

*D_NET *353 0.000815515
*CONN
*I *1367:A I *D sg13cmos5l_inv_8
*I *1366:Y O *D sg13cmos5l_inv_8
*CAP
1 *1367:A 4.65995e-05
2 *1366:Y 0.000361158
3 *353:8 0.000407758
4 *259:10 *353:8 0
*RES
1 *1366:Y *353:8 44.0582 
2 *353:8 *1367:A 40.5356 
*END

*D_NET *354 0.00314703
*CONN
*I *1369:A I *D sg13cmos5l_inv_8
*I *1367:Y O *D sg13cmos5l_inv_8
*CAP
1 *1369:A 0.0009059
2 *1367:Y 0.000416218
3 *354:8 0.00132212
4 *1215:A *1369:A 0
5 *1216:A *1369:A 0
6 *1217:A *1369:A 0
7 *1218:A *1369:A 0
8 *1277:A *1369:A 0
9 *41:8 *354:8 0.00050279
10 *267:8 *354:8 0
*RES
1 *1367:Y *354:8 46.0358 
2 *354:8 *1369:A 49.4039 
*END

*D_NET *355 0.000256327
*CONN
*I *1379:A I *D sg13cmos5l_inv_8
*I *1368:Y O *D sg13cmos5l_inv_8
*CAP
1 *1379:A 0.000128163
2 *1368:Y 0.000128163
*RES
1 *1368:Y *1379:A 41.4008 
*END

*D_NET *356 0.000427986
*CONN
*I *1370:A I *D sg13cmos5l_inv_8
*I *1369:Y O *D sg13cmos5l_inv_8
*CAP
1 *1370:A 0.000213993
2 *1369:Y 0.000213993
3 *1322:A *1370:A 0
*RES
1 *1369:Y *1370:A 42.1218 
*END

*D_NET *357 0.0136962
*CONN
*I *1371:A I *D sg13cmos5l_inv_8
*I *1370:Y O *D sg13cmos5l_inv_8
*CAP
1 *1371:A 0.00189899
2 *1370:Y 0.000683779
3 *357:20 0.00448659
4 *357:12 0.00327138
5 *1371:A *1524:A 0.000242423
6 *1371:A *1657:A 0
7 *1371:A *358:12 0
8 *1371:A *390:10 0
9 *1371:A *421:18 0
10 *357:20 *706:16 0.000130532
11 *1250:A *1371:A 0
12 *1354:A *357:20 0
13 *1729:A *1371:A 0.00017729
14 *1772:A *1371:A 0
15 *1772:A *357:20 0
16 *1842:A *1371:A 0
17 *21:8 *1371:A 0
18 *22:12 *357:20 7.61542e-05
19 *61:20 *357:20 0.00271362
20 *62:14 *357:20 0
21 *64:10 *1371:A 0
22 *64:10 *357:20 1.54008e-05
23 *222:8 *357:20 0
24 *238:10 *1371:A 0
25 *313:8 *357:12 0
26 *315:8 *357:12 0
27 *320:8 *357:12 0
28 *320:8 *357:20 0
*RES
1 *1370:Y *357:12 48.034 
2 *357:12 *357:20 48.8915 
3 *357:20 *1371:A 37.2779 
*END

*D_NET *358 0.00394151
*CONN
*I *1372:A I *D sg13cmos5l_inv_8
*I *1371:Y O *D sg13cmos5l_inv_8
*CAP
1 *1372:A 0.000355211
2 *1371:Y 0.000866425
3 *358:12 0.00122164
4 *1372:A *1889:B 0.000289306
5 *358:12 *1213:A 0
6 *358:12 *1402:A 0
7 *358:12 *1526:A 0
8 *358:12 *1527:A 0
9 *358:12 *421:18 0.000144465
10 *1324:A *358:12 0
11 *1364:A *1372:A 0
12 *1371:A *358:12 0
13 *1435:A *358:12 8.03692e-05
14 *1728:A *358:12 0
15 *237:10 *1372:A 0
16 *350:10 *1372:A 0
17 *351:10 *1372:A 0.000984099
*RES
1 *1371:Y *358:12 48.9919 
2 *358:12 *1372:A 45.3045 
*END

*D_NET *359 0.00112753
*CONN
*I *1373:A I *D sg13cmos5l_inv_8
*I *1372:Y O *D sg13cmos5l_inv_8
*CAP
1 *1373:A 0.000563765
2 *1372:Y 0.000563765
3 *1200:A0 *1373:A 0
4 *1364:A *1373:A 0
5 *1881:A *1373:A 0
6 *1885:A *1373:A 0
7 *32:16 *1373:A 0
*RES
1 *1372:Y *1373:A 45.6444 
*END

*D_NET *360 0.000309576
*CONN
*I *1374:A I *D sg13cmos5l_inv_8
*I *1373:Y O *D sg13cmos5l_inv_8
*CAP
1 *1374:A 0.000154788
2 *1373:Y 0.000154788
*RES
1 *1373:Y *1374:A 41.6171 
*END

*D_NET *361 0.0028387
*CONN
*I *1375:A I *D sg13cmos5l_inv_8
*I *1374:Y O *D sg13cmos5l_inv_8
*CAP
1 *1375:A 0.000518714
2 *1374:Y 0.000876765
3 *361:10 0.00139548
4 *361:10 *364:10 0
5 *1360:A *361:10 0
6 *1361:A *361:10 4.77425e-05
7 *1362:A *361:10 0
8 *1742:A *361:10 0
9 *62:14 *1375:A 0
10 *349:10 *361:10 0
*RES
1 *1374:Y *361:10 47.8074 
2 *361:10 *1375:A 46.283 
*END

*D_NET *362 0.000290577
*CONN
*I *1376:A I *D sg13cmos5l_inv_8
*I *1375:Y O *D sg13cmos5l_inv_8
*CAP
1 *1376:A 0.000145289
2 *1375:Y 0.000145289
*RES
1 *1375:Y *1376:A 41.6171 
*END

*D_NET *363 0.00298675
*CONN
*I *1377:A I *D sg13cmos5l_inv_8
*I *1376:Y O *D sg13cmos5l_inv_8
*CAP
1 *1377:A 0.000291443
2 *1376:Y 0.000788796
3 *363:10 0.00108024
4 *1377:A *364:10 0
5 *363:10 *1378:A 0
6 *363:10 *1380:A 0
7 *1733:A *1377:A 0.000144768
8 *1744:A *363:10 0
9 *15:22 *1377:A 0
10 *23:12 *363:10 0.000340288
11 *26:12 *363:10 0
12 *33:10 *363:10 0.000341216
13 *35:10 *363:10 0
*RES
1 *1376:Y *363:10 47.4384 
2 *363:10 *1377:A 42.6986 
*END

*D_NET *364 0.00278172
*CONN
*I *1378:A I *D sg13cmos5l_inv_8
*I *1377:Y O *D sg13cmos5l_inv_8
*CAP
1 *1378:A 0.000287163
2 *1377:Y 0.000561038
3 *364:10 0.000848202
4 *1378:A *1380:A 0
5 *1378:A *1381:A 0
6 *1377:A *364:10 0
7 *1744:A *1378:A 0
8 *33:10 *1378:A 0
9 *35:10 *364:10 0.00108531
10 *361:10 *364:10 0
11 *363:10 *1378:A 0
*RES
1 *1377:Y *364:10 46.0152 
2 *364:10 *1378:A 42.6986 
*END

*D_NET *365 0.00036217
*CONN
*I *1380:A I *D sg13cmos5l_inv_8
*I *1378:Y O *D sg13cmos5l_inv_8
*CAP
1 *1380:A 0.000181085
2 *1378:Y 0.000181085
3 *1378:A *1380:A 0
4 *1744:A *1380:A 0
5 *363:10 *1380:A 0
*RES
1 *1378:Y *1380:A 41.6171 
*END

*D_NET *366 0.000183977
*CONN
*I *1390:A I *D sg13cmos5l_inv_8
*I *1379:Y O *D sg13cmos5l_inv_8
*CAP
1 *1390:A 0
2 *1379:Y 9.19884e-05
3 *366:8 9.19884e-05
4 *366:8 *723:27 0
*RES
1 *1379:Y *366:8 41.0918 
2 *366:8 *1390:A 40 
*END

*D_NET *367 0.000371874
*CONN
*I *1381:A I *D sg13cmos5l_inv_8
*I *1380:Y O *D sg13cmos5l_inv_8
*CAP
1 *1381:A 0.000185937
2 *1380:Y 0.000185937
3 *1378:A *1381:A 0
4 *1744:A *1381:A 0
5 *33:10 *1381:A 0
*RES
1 *1380:Y *1381:A 41.751 
*END

*D_NET *368 0.000302604
*CONN
*I *1382:A I *D sg13cmos5l_inv_8
*I *1381:Y O *D sg13cmos5l_inv_8
*CAP
1 *1382:A 0.000151302
2 *1381:Y 0.000151302
3 *31:10 *1382:A 0
4 *33:10 *1382:A 0
*RES
1 *1381:Y *1382:A 41.6171 
*END

*D_NET *369 0.000346057
*CONN
*I *1383:A I *D sg13cmos5l_inv_8
*I *1382:Y O *D sg13cmos5l_inv_8
*CAP
1 *1383:A 0.000173029
2 *1382:Y 0.000173029
3 *1383:A *716:8 0
4 *1739:A *1383:A 0
5 *1741:A *1383:A 0
*RES
1 *1382:Y *1383:A 41.751 
*END

*D_NET *370 0.000290577
*CONN
*I *1384:A I *D sg13cmos5l_inv_8
*I *1383:Y O *D sg13cmos5l_inv_8
*CAP
1 *1384:A 0.000145289
2 *1383:Y 0.000145289
3 *1741:A *1384:A 0
*RES
1 *1383:Y *1384:A 41.6171 
*END

*D_NET *371 0.00031178
*CONN
*I *1385:A I *D sg13cmos5l_inv_8
*I *1384:Y O *D sg13cmos5l_inv_8
*CAP
1 *1385:A 0.00015589
2 *1384:Y 0.00015589
3 *1884:A *1385:A 0
*RES
1 *1384:Y *1385:A 41.751 
*END

*D_NET *372 0.000371091
*CONN
*I *1386:A I *D sg13cmos5l_inv_8
*I *1385:Y O *D sg13cmos5l_inv_8
*CAP
1 *1386:A 0.000145449
2 *1385:Y 0.000145449
3 *1386:A *373:10 8.01938e-05
4 *1386:A *720:6 0
*RES
1 *1385:Y *1386:A 41.6171 
*END

*D_NET *373 0.000400531
*CONN
*I *1202:A I *D sg13cmos5l_nor2b_1
*I *1386:Y O *D sg13cmos5l_inv_8
*CAP
1 *1202:A 0
2 *1386:Y 0.000160168
3 *373:10 0.000160168
4 *1386:A *373:10 8.01938e-05
5 *13:14 *373:10 0
*RES
1 *1386:Y *373:10 41.8746 
2 *373:10 *1202:A 40 
*END

*D_NET *374 0.00075696
*CONN
*I *1388:A I *D sg13cmos5l_inv_8
*I *1387:Y O *D sg13cmos5l_inv_8
*CAP
1 *1388:A 0.000217514
2 *1387:Y 0.000217514
3 *1388:A *1389:A 0.000274189
4 *1388:A *721:12 0
5 *1387:A *1388:A 4.77425e-05
*RES
1 *1387:Y *1388:A 42.266 
*END

*D_NET *375 0.00105484
*CONN
*I *1389:A I *D sg13cmos5l_inv_8
*I *1388:Y O *D sg13cmos5l_inv_8
*CAP
1 *1389:A 0.000390324
2 *1388:Y 0.000390324
3 *1389:A *1398:A 0
4 *1389:A *721:8 0
5 *1388:A *1389:A 0.000274189
*RES
1 *1388:Y *1389:A 43.914 
*END

*D_NET *376 0.000256327
*CONN
*I *1391:A I *D sg13cmos5l_inv_8
*I *1389:Y O *D sg13cmos5l_inv_8
*CAP
1 *1391:A 0.000128163
2 *1389:Y 0.000128163
3 *1391:A *721:8 0
*RES
1 *1389:Y *1391:A 41.4008 
*END

*D_NET *377 0.000172882
*CONN
*I *1401:A I *D sg13cmos5l_inv_8
*I *1390:Y O *D sg13cmos5l_inv_8
*CAP
1 *1401:A 8.64409e-05
2 *1390:Y 8.64409e-05
*RES
1 *1390:Y *1401:A 41.0918 
*END

*D_NET *378 0.000299121
*CONN
*I *1392:A I *D sg13cmos5l_inv_8
*I *1391:Y O *D sg13cmos5l_inv_8
*CAP
1 *1392:A 0.000149561
2 *1391:Y 0.000149561
3 *1392:A *721:8 0
4 *1392:A *722:8 0
*RES
1 *1391:Y *1392:A 41.6171 
*END

*D_NET *379 0.000386395
*CONN
*I *1393:A I *D sg13cmos5l_inv_8
*I *1392:Y O *D sg13cmos5l_inv_8
*CAP
1 *1393:A 0.000193198
2 *1392:Y 0.000193198
*RES
1 *1392:Y *1393:A 41.751 
*END

*D_NET *380 0.000338686
*CONN
*I *1394:A I *D sg13cmos5l_inv_8
*I *1393:Y O *D sg13cmos5l_inv_8
*CAP
1 *1394:A 0.000169343
2 *1393:Y 0.000169343
*RES
1 *1393:Y *1394:A 41.6171 
*END

*D_NET *381 0.000362274
*CONN
*I *1395:A I *D sg13cmos5l_inv_8
*I *1394:Y O *D sg13cmos5l_inv_8
*CAP
1 *1395:A 0.000181137
2 *1394:Y 0.000181137
3 *1395:A *395:18 0
*RES
1 *1394:Y *1395:A 41.751 
*END

*D_NET *382 0.00243087
*CONN
*I *1396:A I *D sg13cmos5l_inv_8
*I *1395:Y O *D sg13cmos5l_inv_8
*CAP
1 *1396:A 0.000356344
2 *1395:Y 0.000237213
3 *382:8 0.000593557
4 *382:8 *395:18 0.000825003
5 *1785:A *1396:A 0
6 *1788:A *1396:A 0.000241716
7 *77:10 *1396:A 0.000177032
8 *79:10 *1396:A 0
*RES
1 *1395:Y *382:8 43.811 
2 *382:8 *1396:A 43.5638 
*END

*D_NET *383 0.00116308
*CONN
*I *1397:A I *D sg13cmos5l_inv_8
*I *1396:Y O *D sg13cmos5l_inv_8
*CAP
1 *1397:A 0.000581541
2 *1396:Y 0.000581541
3 *1397:A *1400:A 0
4 *1397:A *1408:A 0
5 *1783:A *1397:A 0
6 *1785:A *1397:A 0
7 *76:10 *1397:A 0
*RES
1 *1396:Y *1397:A 45.6444 
*END

*D_NET *384 0.00263197
*CONN
*I *1398:A I *D sg13cmos5l_inv_8
*I *1397:Y O *D sg13cmos5l_inv_8
*CAP
1 *1398:A 0.000580769
2 *1397:Y 0.000298414
3 *384:8 0.000879182
4 *1398:A *1205:B 0
5 *384:8 *721:51 0
6 *384:8 *722:14 0.000873601
7 *1389:A *1398:A 0
8 *28:41 *1398:A 0
*RES
1 *1397:Y *384:8 44.0582 
2 *384:8 *1398:A 45.5105 
*END

*D_NET *385 0.00404945
*CONN
*I *1399:A I *D sg13cmos5l_inv_8
*I *1398:Y O *D sg13cmos5l_inv_8
*CAP
1 *1399:A 0.000874401
2 *1398:Y 0.000788828
3 *385:8 0.00166323
4 *1399:A *1201:B 0
5 *1399:A *1407:A 4.77425e-05
6 *1399:A *1408:A 4.78524e-05
7 *1399:A *392:8 0
8 *1399:A *651:14 0.000144308
9 *385:8 *1204:A 0
10 *385:8 *392:16 0
11 *1207:B *385:8 0
12 *1837:A *1399:A 0
13 *9:8 *385:8 0
14 *13:14 *385:8 0
15 *14:10 *1399:A 0.000435232
16 *14:10 *385:8 0
17 *28:41 *385:8 0
18 *84:12 *1399:A 0
19 *127:14 *1399:A 4.78524e-05
20 *127:27 *1399:A 0
*RES
1 *1398:Y *385:8 47.0246 
2 *385:8 *1399:A 49.0331 
*END

*D_NET *386 0.00203905
*CONN
*I *1400:A I *D sg13cmos5l_inv_8
*I *1399:Y O *D sg13cmos5l_inv_8
*CAP
1 *1400:A 0.000585681
2 *1399:Y 0.000393801
3 *386:10 0.000979482
4 *1400:A *1212:A1 0
5 *1400:A *1408:A 0
6 *1400:A *387:10 0
7 *1400:A *721:51 0
8 *1400:A *722:16 0
9 *386:10 *393:16 0
10 *386:10 *722:14 0
11 *1212:A0 *1400:A 8.00842e-05
12 *1397:A *1400:A 0
13 *28:56 *1400:A 0
14 *76:10 *386:10 0
15 *84:18 *386:10 0
16 *127:27 *1400:A 0
17 *127:27 *386:10 0
18 *129:10 *386:10 0
*RES
1 *1399:Y *386:10 44.1612 
2 *386:10 *1400:A 45.2942 
*END

*D_NET *387 0.00352767
*CONN
*I *1402:A I *D sg13cmos5l_inv_8
*I *1400:Y O *D sg13cmos5l_inv_8
*CAP
1 *1402:A 0.000434112
2 *1400:Y 0.000673448
3 *387:10 0.00110756
4 *1402:A *1527:A 0
5 *1402:A *390:10 0
6 *387:10 *651:14 0.00103825
7 *387:10 *722:33 0
8 *1212:A0 *387:10 0
9 *1400:A *387:10 0
10 *1839:A *1402:A 0.000274299
11 *11:10 *387:10 0
12 *12:12 *387:10 0
13 *28:56 *387:10 0
14 *358:12 *1402:A 0
*RES
1 *1400:Y *387:10 47.7765 
2 *387:10 *1402:A 44.6453 
*END

*D_NET *388 0.0002575
*CONN
*I *1412:A I *D sg13cmos5l_inv_8
*I *1401:Y O *D sg13cmos5l_inv_8
*CAP
1 *1412:A 0.00012875
2 *1401:Y 0.00012875
3 *1412:A *1757:B 0
4 *1412:A *409:10 0
*RES
1 *1401:Y *1412:A 41.4008 
*END

*D_NET *389 0.000360741
*CONN
*I *1403:A I *D sg13cmos5l_inv_8
*I *1402:Y O *D sg13cmos5l_inv_8
*CAP
1 *1403:A 0
2 *1402:Y 6.23853e-05
3 *389:8 6.23853e-05
4 *131:12 *389:8 0.000235971
*RES
1 *1402:Y *389:8 41.0918 
2 *389:8 *1403:A 40 
*END

*D_NET *390 0.00411145
*CONN
*I *1404:A I *D sg13cmos5l_inv_8
*I *1403:Y O *D sg13cmos5l_inv_8
*CAP
1 *1404:A 0.00071205
2 *1403:Y 0.000570709
3 *390:10 0.00128276
4 *1404:A *392:16 0
5 *1404:A *507:12 0
6 *1404:A *651:14 0.00130508
7 *390:10 *1530:A 0
8 *1371:A *390:10 0
9 *1402:A *390:10 0
10 *1839:A *390:10 0
11 *1840:A *390:10 0
12 *1842:A *390:10 0
13 *1843:A *390:10 0
14 *1883:A *1404:A 0.0001127
15 *12:12 *1404:A 0.00012816
16 *13:14 *1404:A 0
17 *14:10 *1404:A 0
*RES
1 *1403:Y *390:10 45.8607 
2 *390:10 *1404:A 48.9507 
*END

*D_NET *391 0.000172882
*CONN
*I *1405:A I *D sg13cmos5l_inv_8
*I *1404:Y O *D sg13cmos5l_inv_8
*CAP
1 *1405:A 8.64409e-05
2 *1404:Y 8.64409e-05
*RES
1 *1404:Y *1405:A 41.0918 
*END

*D_NET *392 0.00731515
*CONN
*I *1406:A I *D sg13cmos5l_inv_8
*I *1405:Y O *D sg13cmos5l_inv_8
*CAP
1 *1406:A 0
2 *1405:Y 0.000104776
3 *392:16 0.00282562
4 *392:8 0.0029304
5 *392:16 *1204:A 0
6 *392:16 *1424:A 0
7 *392:16 *1425:A 0
8 *392:16 *1426:A 0.000240957
9 *392:16 *1427:A 0.00024133
10 *392:16 *1519:A 0
11 *392:16 *1521:A 0
12 *392:16 *1531:A 0
13 *392:16 *1532:A 0.000242313
14 *392:16 *1671:A 0.000242313
15 *392:16 *1845:B 0
16 *392:16 *393:12 0
17 *392:16 *507:12 0
18 *392:16 *511:8 0
19 *392:16 *515:10 0
20 *392:16 *651:8 0
21 *392:16 *651:14 0
22 *1399:A *392:8 0
23 *1404:A *392:16 0
24 *1422:A *392:16 0
25 *1793:A *392:16 0
26 *1840:A *392:16 0
27 *9:8 *392:16 0.00034245
28 *9:12 *392:8 0.000144992
29 *12:12 *392:16 0
30 *28:56 *392:8 0
31 *83:19 *392:16 0
32 *174:8 *392:16 0
33 *385:8 *392:16 0
*RES
1 *1405:Y *392:8 41.1845 
2 *392:8 *392:16 49.664 
3 *392:16 *1406:A 20 
*END

*D_NET *393 0.00829302
*CONN
*I *1407:A I *D sg13cmos5l_inv_8
*I *1406:Y O *D sg13cmos5l_inv_8
*CAP
1 *1407:A 3.25653e-05
2 *1406:Y 0.00109883
3 *393:16 0.000581268
4 *393:12 0.00164753
5 *1407:A *1408:A 0
6 *393:12 *1427:A 0
7 *393:12 *515:10 0.000499713
8 *1399:A *1407:A 4.77425e-05
9 *1793:A *393:12 4.77425e-05
10 *1799:A *393:12 0
11 *84:18 *393:16 0.00204777
12 *85:8 *393:12 0.00130853
13 *127:27 *393:16 0.000981323
14 *386:10 *393:16 0
15 *392:16 *393:12 0
*RES
1 *1406:Y *393:12 31.9686 
2 *393:12 *393:16 30.2382 
3 *393:16 *1407:A 40.3193 
*END

*D_NET *394 0.00118543
*CONN
*I *1408:A I *D sg13cmos5l_inv_8
*I *1407:Y O *D sg13cmos5l_inv_8
*CAP
1 *1408:A 0.000561087
2 *1407:Y 0.000561087
3 *1397:A *1408:A 0
4 *1399:A *1408:A 4.78524e-05
5 *1400:A *1408:A 0
6 *1407:A *1408:A 0
7 *1786:A *1408:A 1.54008e-05
8 *76:10 *1408:A 0
9 *84:12 *1408:A 0
10 *127:27 *1408:A 0
*RES
1 *1407:Y *1408:A 45.974 
*END

*D_NET *395 0.0048581
*CONN
*I *1409:A I *D sg13cmos5l_inv_8
*I *1408:Y O *D sg13cmos5l_inv_8
*CAP
1 *1409:A 0
2 *1408:Y 0.000565784
3 *395:18 0.00102382
4 *395:12 0.00158961
5 *395:12 *1415:A 0.000241374
6 *395:12 *1417:A 0
7 *395:18 *396:10 8.02267e-05
8 *1395:A *395:18 0
9 *1838:A *395:12 0
10 *84:12 *395:12 0.000532275
11 *382:8 *395:18 0.000825003
*RES
1 *1408:Y *395:12 45.9637 
2 *395:12 *395:18 32.1643 
3 *395:18 *1409:A 20 
*END

*D_NET *396 0.00108866
*CONN
*I *1410:A I *D sg13cmos5l_inv_8
*I *1409:Y O *D sg13cmos5l_inv_8
*CAP
1 *1410:A 0
2 *1409:Y 0.000504214
3 *396:10 0.000504214
4 *395:18 *396:10 8.02267e-05
*RES
1 *1409:Y *396:10 46.077 
2 *396:10 *1410:A 40 
*END

*D_NET *397 0.000273301
*CONN
*I *1411:A I *D sg13cmos5l_inv_8
*I *1410:Y O *D sg13cmos5l_inv_8
*CAP
1 *1411:A 0.00013665
2 *1410:Y 0.00013665
3 *84:12 *1411:A 0
*RES
1 *1410:Y *1411:A 41.6171 
*END

*D_NET *398 0.000381531
*CONN
*I *1413:A I *D sg13cmos5l_inv_8
*I *1411:Y O *D sg13cmos5l_inv_8
*CAP
1 *1413:A 0.000190765
2 *1411:Y 0.000190765
3 *84:12 *1413:A 0
*RES
1 *1411:Y *1413:A 41.751 
*END

*D_NET *399 0.000290808
*CONN
*I *1423:A I *D sg13cmos5l_inv_8
*I *1412:Y O *D sg13cmos5l_inv_8
*CAP
1 *1423:A 0.000145404
2 *1412:Y 0.000145404
3 *1423:A *409:10 0
4 *1751:A *1423:A 0
*RES
1 *1412:Y *1423:A 41.6171 
*END

*D_NET *400 0.000236626
*CONN
*I *1414:A I *D sg13cmos5l_inv_8
*I *1413:Y O *D sg13cmos5l_inv_8
*CAP
1 *1414:A 0.000118313
2 *1413:Y 0.000118313
*RES
1 *1413:Y *1414:A 41.0918 
*END

*D_NET *401 0.00166153
*CONN
*I *1415:A I *D sg13cmos5l_inv_8
*I *1414:Y O *D sg13cmos5l_inv_8
*CAP
1 *1415:A 0.000427315
2 *1414:Y 0.000427315
3 *1415:A *1416:A 0
4 *1415:A *1417:A 0
5 *84:12 *1415:A 0.000565525
6 *395:12 *1415:A 0.000241374
*RES
1 *1414:Y *1415:A 45.0264 
*END

*D_NET *402 0.000357736
*CONN
*I *1416:A I *D sg13cmos5l_inv_8
*I *1415:Y O *D sg13cmos5l_inv_8
*CAP
1 *1416:A 0.000138683
2 *1415:Y 0.000138683
3 *1416:A *1417:A 8.03692e-05
4 *1416:A *1418:A 0
5 *1415:A *1416:A 0
*RES
1 *1415:Y *1416:A 41.6171 
*END

*D_NET *403 0.000845219
*CONN
*I *1417:A I *D sg13cmos5l_inv_8
*I *1416:Y O *D sg13cmos5l_inv_8
*CAP
1 *1417:A 0.000382425
2 *1416:Y 0.000382425
3 *1417:A *1418:A 0
4 *1415:A *1417:A 0
5 *1416:A *1417:A 8.03692e-05
6 *395:12 *1417:A 0
*RES
1 *1416:Y *1417:A 44.3054 
*END

*D_NET *404 0.000263169
*CONN
*I *1418:A I *D sg13cmos5l_inv_8
*I *1417:Y O *D sg13cmos5l_inv_8
*CAP
1 *1418:A 0.000131585
2 *1417:Y 0.000131585
3 *1418:A *1801:B 0
4 *1416:A *1418:A 0
5 *1417:A *1418:A 0
*RES
1 *1417:Y *1418:A 41.128 
*END

*D_NET *405 0.000725794
*CONN
*I *1419:A I *D sg13cmos5l_inv_8
*I *1418:Y O *D sg13cmos5l_inv_8
*CAP
1 *1419:A 0.000137492
2 *1418:Y 0.000104264
3 *405:8 0.000241757
4 *1419:A *1801:B 0.000242281
5 *83:19 *405:8 0
*RES
1 *1418:Y *405:8 41.339 
2 *405:8 *1419:A 41.6171 
*END

*D_NET *406 0.000504542
*CONN
*I *1420:A I *D sg13cmos5l_inv_8
*I *1419:Y O *D sg13cmos5l_inv_8
*CAP
1 *1420:A 0.00013103
2 *1419:Y 0.00013103
3 *1420:A *1421:A 0
4 *1420:A *1801:B 0.000242483
5 *1422:A *1420:A 0
*RES
1 *1419:Y *1420:A 41.6171 
*END

*D_NET *407 0.000474705
*CONN
*I *1421:A I *D sg13cmos5l_inv_8
*I *1420:Y O *D sg13cmos5l_inv_8
*CAP
1 *1421:A 0.000237353
2 *1420:Y 0.000237353
3 *1421:A *1801:B 0
4 *1420:A *1421:A 0
5 *1422:A *1421:A 0
6 *83:19 *1421:A 0
*RES
1 *1420:Y *1421:A 42.4617 
*END

*D_NET *408 0.000595885
*CONN
*I *1424:A I *D sg13cmos5l_inv_8
*I *1422:Y O *D sg13cmos5l_inv_8
*CAP
1 *1424:A 0.000257758
2 *1422:Y 0.000257758
3 *1422:A *1424:A 8.03692e-05
4 *1801:A *1424:A 0
5 *392:16 *1424:A 0
*RES
1 *1422:Y *1424:A 42.6162 
*END

*D_NET *409 0.00159111
*CONN
*I *1434:A I *D sg13cmos5l_inv_8
*I *1423:Y O *D sg13cmos5l_inv_8
*CAP
1 *1434:A 0
2 *1423:Y 0.000438508
3 *409:10 0.000438508
4 *409:10 *723:27 0.00071409
5 *1412:A *409:10 0
6 *1423:A *409:10 0
*RES
1 *1423:Y *409:10 45.5826 
2 *409:10 *1434:A 40 
*END

*D_NET *410 0.000334388
*CONN
*I *1425:A I *D sg13cmos5l_inv_8
*I *1424:Y O *D sg13cmos5l_inv_8
*CAP
1 *1425:A 0.000167194
2 *1424:Y 0.000167194
3 *1425:A *1426:A 0
4 *1841:A *1425:A 0
5 *92:8 *1425:A 0
6 *392:16 *1425:A 0
*RES
1 *1424:Y *1425:A 41.6171 
*END

*D_NET *411 0.000931589
*CONN
*I *1426:A I *D sg13cmos5l_inv_8
*I *1425:Y O *D sg13cmos5l_inv_8
*CAP
1 *1426:A 0.000160836
2 *1425:Y 6.67023e-05
3 *411:8 0.000227538
4 *1425:A *1426:A 0
5 *92:14 *411:8 0.000235556
6 *392:16 *1426:A 0.000240957
*RES
1 *1425:Y *411:8 41.0918 
2 *411:8 *1426:A 41.6171 
*END

*D_NET *412 0.000592521
*CONN
*I *1427:A I *D sg13cmos5l_inv_8
*I *1426:Y O *D sg13cmos5l_inv_8
*CAP
1 *1427:A 0.000167868
2 *1426:Y 0.000167868
3 *1427:A *515:10 1.54556e-05
4 *392:16 *1427:A 0.00024133
5 *393:12 *1427:A 0
*RES
1 *1426:Y *1427:A 41.6171 
*END

*D_NET *413 0.000798978
*CONN
*I *1428:A I *D sg13cmos5l_inv_8
*I *1427:Y O *D sg13cmos5l_inv_8
*CAP
1 *1428:A 0.000278997
2 *1427:Y 0.000278997
3 *1799:A *1428:A 0
4 *85:8 *1428:A 0.000240984
*RES
1 *1427:Y *1428:A 42.7089 
*END

*D_NET *414 0.000236626
*CONN
*I *1429:A I *D sg13cmos5l_inv_8
*I *1428:Y O *D sg13cmos5l_inv_8
*CAP
1 *1429:A 0.000118313
2 *1428:Y 0.000118313
*RES
1 *1428:Y *1429:A 41.0918 
*END

*D_NET *415 0.000338374
*CONN
*I *1430:A I *D sg13cmos5l_inv_8
*I *1429:Y O *D sg13cmos5l_inv_8
*CAP
1 *1430:A 0.000169187
2 *1429:Y 0.000169187
3 *1430:A *1535:A 0
4 *1430:A *1537:A 0
5 *1430:A *519:10 0
6 *1799:A *1430:A 0
*RES
1 *1429:Y *1430:A 41.6171 
*END

*D_NET *416 0.000509182
*CONN
*I *1431:A I *D sg13cmos5l_inv_8
*I *1430:Y O *D sg13cmos5l_inv_8
*CAP
1 *1431:A 0.000254591
2 *1430:Y 0.000254591
3 *1431:A *1432:A 0
4 *1431:A *519:10 0
*RES
1 *1430:Y *1431:A 42.4926 
*END

*D_NET *417 0.00039121
*CONN
*I *1432:A I *D sg13cmos5l_inv_8
*I *1431:Y O *D sg13cmos5l_inv_8
*CAP
1 *1432:A 0.000195605
2 *1431:Y 0.000195605
3 *1432:A *519:10 0
4 *1431:A *1432:A 0
*RES
1 *1431:Y *1432:A 41.751 
*END

*D_NET *418 0.00242332
*CONN
*I *1433:A I *D sg13cmos5l_inv_8
*I *1432:Y O *D sg13cmos5l_inv_8
*CAP
1 *1433:A 0.000107174
2 *1432:Y 0.000593695
3 *418:10 0.000700869
4 *1433:A *1539:A 0.000144617
5 *418:10 *1537:A 0
6 *418:10 *521:10 0.000765375
7 *1798:A *1433:A 0.00011159
*RES
1 *1432:Y *418:10 45.8298 
2 *418:10 *1433:A 41.1845 
*END

*D_NET *419 0.00142035
*CONN
*I *1436:A I *D sg13cmos5l_inv_8
*I *1433:Y O *D sg13cmos5l_inv_8
*CAP
1 *1436:A 0.000702472
2 *1433:Y 0.000702472
3 *1436:A *1437:A 0
4 *1436:A *1438:A 0
5 *1436:A *1439:A 0
6 *1436:A *1539:A 0
7 *1436:A *1661:A 1.54008e-05
8 *89:10 *1436:A 0
*RES
1 *1433:Y *1436:A 46.489 
*END

*D_NET *420 0.000294722
*CONN
*I *1446:A I *D sg13cmos5l_inv_8
*I *1434:Y O *D sg13cmos5l_inv_8
*CAP
1 *1446:A 0.000147361
2 *1434:Y 0.000147361
3 *1446:A *1457:A 0
*RES
1 *1434:Y *1446:A 41.6171 
*END

*D_NET *421 0.000857546
*CONN
*I *1546:A I *D sg13cmos5l_inv_8
*I *1435:Y O *D sg13cmos5l_inv_8
*CAP
1 *1546:A 0
2 *1435:Y 0.000356541
3 *421:18 0.000356541
4 *421:18 *723:27 0
5 *1371:A *421:18 0
6 *1729:A *421:18 0
7 *351:10 *421:18 0
8 *358:12 *421:18 0.000144465
*RES
1 *1435:Y *421:18 43.8625 
2 *421:18 *1546:A 40 
*END

*D_NET *422 0.000834002
*CONN
*I *1437:A I *D sg13cmos5l_inv_8
*I *1436:Y O *D sg13cmos5l_inv_8
*CAP
1 *1437:A 0.000409301
2 *1436:Y 0.000409301
3 *1437:A *1438:A 0
4 *1437:A *1439:A 1.54008e-05
5 *1437:A *1440:A 0
6 *1436:A *1437:A 0
*RES
1 *1436:Y *1437:A 43.0868 
*END

*D_NET *423 0.000474011
*CONN
*I *1438:A I *D sg13cmos5l_inv_8
*I *1437:Y O *D sg13cmos5l_inv_8
*CAP
1 *1438:A 0.000164581
2 *1437:Y 0.000164581
3 *1438:A *1439:A 0.000144849
4 *1436:A *1438:A 0
5 *1437:A *1438:A 0
*RES
1 *1437:Y *1438:A 41.6171 
*END

*D_NET *424 0.00105505
*CONN
*I *1439:A I *D sg13cmos5l_inv_8
*I *1438:Y O *D sg13cmos5l_inv_8
*CAP
1 *1439:A 0.000447402
2 *1438:Y 0.000447402
3 *1436:A *1439:A 0
4 *1437:A *1439:A 1.54008e-05
5 *1438:A *1439:A 0.000144849
*RES
1 *1438:Y *1439:A 44.5217 
*END

*D_NET *425 0.000301621
*CONN
*I *1440:A I *D sg13cmos5l_inv_8
*I *1439:Y O *D sg13cmos5l_inv_8
*CAP
1 *1440:A 0.00015081
2 *1439:Y 0.00015081
3 *1437:A *1440:A 0
*RES
1 *1439:Y *1440:A 41.6171 
*END

*D_NET *426 0.00086258
*CONN
*I *1441:A I *D sg13cmos5l_inv_8
*I *1440:Y O *D sg13cmos5l_inv_8
*CAP
1 *1441:A 0.000190768
2 *1440:Y 0.000240522
3 *426:8 0.00043129
4 *1441:A *1442:A 0
*RES
1 *1440:Y *426:8 42.3278 
2 *426:8 *1441:A 41.6171 
*END

*D_NET *427 0.00037237
*CONN
*I *1442:A I *D sg13cmos5l_inv_8
*I *1441:Y O *D sg13cmos5l_inv_8
*CAP
1 *1442:A 0.000186185
2 *1441:Y 0.000186185
3 *1442:A *1443:A 0
4 *1441:A *1442:A 0
*RES
1 *1441:Y *1442:A 41.751 
*END

*D_NET *428 0.000723439
*CONN
*I *1443:A I *D sg13cmos5l_inv_8
*I *1442:Y O *D sg13cmos5l_inv_8
*CAP
1 *1443:A 0.000218946
2 *1442:Y 0.000142774
3 *428:8 0.000361719
4 *1443:A *1444:A 0
5 *1442:A *1443:A 0
*RES
1 *1442:Y *428:8 41.5862 
2 *428:8 *1443:A 41.8334 
*END

*D_NET *429 0.000399586
*CONN
*I *1444:A I *D sg13cmos5l_inv_8
*I *1443:Y O *D sg13cmos5l_inv_8
*CAP
1 *1444:A 0.000199793
2 *1443:Y 0.000199793
3 *1443:A *1444:A 0
*RES
1 *1443:Y *1444:A 41.751 
*END

*D_NET *430 0.000172882
*CONN
*I *1445:A I *D sg13cmos5l_inv_8
*I *1444:Y O *D sg13cmos5l_inv_8
*CAP
1 *1445:A 8.64409e-05
2 *1444:Y 8.64409e-05
*RES
1 *1444:Y *1445:A 41.0918 
*END

*D_NET *431 0.000521737
*CONN
*I *1447:A I *D sg13cmos5l_inv_8
*I *1445:Y O *D sg13cmos5l_inv_8
*CAP
1 *1447:A 0.000260868
2 *1445:Y 0.000260868
3 *1447:A *1448:A 0
*RES
1 *1445:Y *1447:A 42.4617 
*END

*D_NET *432 0.000637093
*CONN
*I *1457:A I *D sg13cmos5l_inv_8
*I *1446:Y O *D sg13cmos5l_inv_8
*CAP
1 *1457:A 0.000318547
2 *1446:Y 0.000318547
3 *1457:A *1468:A 0
4 *1284:A *1457:A 0
5 *1446:A *1457:A 0
*RES
1 *1446:Y *1457:A 43.4608 
*END

*D_NET *433 0.000841211
*CONN
*I *1448:A I *D sg13cmos5l_inv_8
*I *1447:Y O *D sg13cmos5l_inv_8
*CAP
1 *1448:A 0.000380421
2 *1447:Y 0.000380421
3 *1448:A *1646:A 0
4 *1448:A *1647:A 8.03692e-05
5 *1448:A *1648:A 0
6 *1448:A *626:10 0
7 *1447:A *1448:A 0
*RES
1 *1447:Y *1448:A 43.6977 
*END

*D_NET *434 0.000298966
*CONN
*I *1449:A I *D sg13cmos5l_inv_8
*I *1448:Y O *D sg13cmos5l_inv_8
*CAP
1 *1449:A 0.000149483
2 *1448:Y 0.000149483
*RES
1 *1448:Y *1449:A 41.6171 
*END

*D_NET *435 0.000332872
*CONN
*I *1450:A I *D sg13cmos5l_inv_8
*I *1449:Y O *D sg13cmos5l_inv_8
*CAP
1 *1450:A 0
2 *1449:Y 0.000166436
3 *435:8 0.000166436
4 *435:8 *477:8 0
*RES
1 *1449:Y *435:8 42.0806 
2 *435:8 *1450:A 40 
*END

*D_NET *436 0.000264716
*CONN
*I *1451:A I *D sg13cmos5l_inv_8
*I *1450:Y O *D sg13cmos5l_inv_8
*CAP
1 *1451:A 0.000132358
2 *1450:Y 0.000132358
*RES
1 *1450:Y *1451:A 41.4008 
*END

*D_NET *437 0.000324204
*CONN
*I *1452:A I *D sg13cmos5l_inv_8
*I *1451:Y O *D sg13cmos5l_inv_8
*CAP
1 *1452:A 0.000162102
2 *1451:Y 0.000162102
3 *1452:A *438:10 0
*RES
1 *1451:Y *1452:A 41.6171 
*END

*D_NET *438 0.000388521
*CONN
*I *1453:A I *D sg13cmos5l_inv_8
*I *1452:Y O *D sg13cmos5l_inv_8
*CAP
1 *1453:A 0
2 *1452:Y 0.000194261
3 *438:10 0.000194261
4 *438:10 *477:8 0
5 *1452:A *438:10 0
*RES
1 *1452:Y *438:10 42.1218 
2 *438:10 *1453:A 40 
*END

*D_NET *439 0.000256327
*CONN
*I *1454:A I *D sg13cmos5l_inv_8
*I *1453:Y O *D sg13cmos5l_inv_8
*CAP
1 *1454:A 0.000128163
2 *1453:Y 0.000128163
*RES
1 *1453:Y *1454:A 41.4008 
*END

*D_NET *440 0.000722435
*CONN
*I *1455:A I *D sg13cmos5l_inv_8
*I *1454:Y O *D sg13cmos5l_inv_8
*CAP
1 *1455:A 0
2 *1454:Y 0.000361218
3 *440:8 0.000361218
4 *94:14 *440:8 0
5 *95:10 *440:8 0
*RES
1 *1454:Y *440:8 43.811 
2 *440:8 *1455:A 40 
*END

*D_NET *441 0.000412401
*CONN
*I *1456:A I *D sg13cmos5l_inv_8
*I *1455:Y O *D sg13cmos5l_inv_8
*CAP
1 *1456:A 0.000133644
2 *1455:Y 0.000133644
3 *1456:A *1458:A 0.000145113
4 *1456:A *1460:A 0
*RES
1 *1455:Y *1456:A 41.6171 
*END

*D_NET *442 0.00082315
*CONN
*I *1458:A I *D sg13cmos5l_inv_8
*I *1456:Y O *D sg13cmos5l_inv_8
*CAP
1 *1458:A 0.000331291
2 *1456:Y 0.000331291
3 *1458:A *1460:A 0
4 *1456:A *1458:A 0.000145113
5 *1459:A *1458:A 0
6 *94:6 *1458:A 0
7 *96:10 *1458:A 1.54556e-05
*RES
1 *1456:Y *1458:A 43.6977 
*END

*D_NET *443 0.00033905
*CONN
*I *1468:A I *D sg13cmos5l_inv_8
*I *1457:Y O *D sg13cmos5l_inv_8
*CAP
1 *1468:A 0.000169525
2 *1457:Y 0.000169525
3 *1457:A *1468:A 0
4 *1479:A *1468:A 0
5 *1814:A *1468:A 0
6 *105:8 *1468:A 0
*RES
1 *1457:Y *1468:A 41.6171 
*END

*D_NET *444 0.000274448
*CONN
*I *1460:A I *D sg13cmos5l_inv_8
*I *1459:Y O *D sg13cmos5l_inv_8
*CAP
1 *1460:A 0.000137224
2 *1459:Y 0.000137224
3 *1460:A *1461:A 0
4 *1460:A *1462:A 0
5 *1456:A *1460:A 0
6 *1458:A *1460:A 0
*RES
1 *1459:Y *1460:A 41.6171 
*END

*D_NET *445 0.000409334
*CONN
*I *1461:A I *D sg13cmos5l_inv_8
*I *1460:Y O *D sg13cmos5l_inv_8
*CAP
1 *1461:A 0.000204667
2 *1460:Y 0.000204667
3 *1461:A *1462:A 0
4 *1459:A *1461:A 0
5 *1460:A *1461:A 0
6 *1807:A *1461:A 0
*RES
1 *1460:Y *1461:A 42.4617 
*END

*D_NET *446 0.000274448
*CONN
*I *1462:A I *D sg13cmos5l_inv_8
*I *1461:Y O *D sg13cmos5l_inv_8
*CAP
1 *1462:A 0.000137224
2 *1461:Y 0.000137224
3 *1462:A *1463:A 0
4 *1460:A *1462:A 0
5 *1461:A *1462:A 0
*RES
1 *1461:Y *1462:A 41.6171 
*END

*D_NET *447 0.000367897
*CONN
*I *1463:A I *D sg13cmos5l_inv_8
*I *1462:Y O *D sg13cmos5l_inv_8
*CAP
1 *1463:A 0.000183948
2 *1462:Y 0.000183948
3 *1462:A *1463:A 0
4 *1816:A *1463:A 0
*RES
1 *1462:Y *1463:A 42.2145 
*END

*D_NET *448 0.000172882
*CONN
*I *1464:A I *D sg13cmos5l_inv_8
*I *1463:Y O *D sg13cmos5l_inv_8
*CAP
1 *1464:A 8.64409e-05
2 *1463:Y 8.64409e-05
*RES
1 *1463:Y *1464:A 41.0918 
*END

*D_NET *449 0.000277814
*CONN
*I *1465:A I *D sg13cmos5l_inv_8
*I *1464:Y O *D sg13cmos5l_inv_8
*CAP
1 *1465:A 0.000138907
2 *1464:Y 0.000138907
3 *1465:A *1466:A 0
4 *1465:A *562:14 0
5 *1820:A *1465:A 0
*RES
1 *1464:Y *1465:A 41.6171 
*END

*D_NET *450 0.000462879
*CONN
*I *1466:A I *D sg13cmos5l_inv_8
*I *1465:Y O *D sg13cmos5l_inv_8
*CAP
1 *1466:A 0.00023144
2 *1465:Y 0.00023144
3 *1466:A *1581:A 0
4 *1466:A *562:14 0
5 *1465:A *1466:A 0
*RES
1 *1465:Y *1466:A 41.8817 
*END

*D_NET *451 0.000172882
*CONN
*I *1467:A I *D sg13cmos5l_inv_8
*I *1466:Y O *D sg13cmos5l_inv_8
*CAP
1 *1467:A 8.64409e-05
2 *1466:Y 8.64409e-05
*RES
1 *1466:Y *1467:A 41.0918 
*END

*D_NET *452 0.000295867
*CONN
*I *1469:A I *D sg13cmos5l_inv_8
*I *1467:Y O *D sg13cmos5l_inv_8
*CAP
1 *1469:A 0.000147934
2 *1467:Y 0.000147934
3 *1469:A *565:10 0
*RES
1 *1467:Y *1469:A 41.6171 
*END

*D_NET *453 0.000677424
*CONN
*I *1470:A I *D sg13cmos5l_inv_8
*I *1469:Y O *D sg13cmos5l_inv_8
*CAP
1 *1470:A 0.000217471
2 *1469:Y 0.000217471
3 *1470:A *1471:A 0
4 *1470:A *560:10 0
5 *1470:A *565:10 0.000242483
*RES
1 *1469:Y *1470:A 42.7089 
*END

*D_NET *454 0.000330468
*CONN
*I *1471:A I *D sg13cmos5l_inv_8
*I *1470:Y O *D sg13cmos5l_inv_8
*CAP
1 *1471:A 0.000165234
2 *1470:Y 0.000165234
3 *1471:A *560:10 0
4 *1471:A *565:10 0
5 *1470:A *1471:A 0
*RES
1 *1470:Y *1471:A 41.6171 
*END

*D_NET *455 0.000503349
*CONN
*I *1472:A I *D sg13cmos5l_inv_8
*I *1471:Y O *D sg13cmos5l_inv_8
*CAP
1 *1472:A 0.000251675
2 *1471:Y 0.000251675
3 *1472:A *1473:A 0
4 *1472:A *560:10 0
*RES
1 *1471:Y *1472:A 42.7089 
*END

*D_NET *456 0.000273301
*CONN
*I *1473:A I *D sg13cmos5l_inv_8
*I *1472:Y O *D sg13cmos5l_inv_8
*CAP
1 *1473:A 0.00013665
2 *1472:Y 0.00013665
3 *1473:A *1478:A 0
4 *1473:A *458:10 0
5 *1473:A *560:10 0
6 *1472:A *1473:A 0
*RES
1 *1472:Y *1473:A 41.6171 
*END

*D_NET *457 0.000257768
*CONN
*I *1474:A I *D sg13cmos5l_inv_8
*I *1473:Y O *D sg13cmos5l_inv_8
*CAP
1 *1474:A 0.000128884
2 *1473:Y 0.000128884
3 *1474:A *1634:A 0
4 *1474:A *458:10 0
*RES
1 *1473:Y *1474:A 41.4008 
*END

*D_NET *458 0.00149844
*CONN
*I *1475:A I *D sg13cmos5l_inv_8
*I *1474:Y O *D sg13cmos5l_inv_8
*CAP
1 *1475:A 0
2 *1474:Y 0.000628008
3 *458:10 0.000628008
4 *458:10 *1478:A 0.000242423
5 *458:10 *461:8 0
6 *458:10 *462:8 0
7 *1473:A *458:10 0
8 *1474:A *458:10 0
*RES
1 *1474:Y *458:10 46.8804 
2 *458:10 *1475:A 40 
*END

*D_NET *459 0.000503422
*CONN
*I *1476:A I *D sg13cmos5l_inv_8
*I *1475:Y O *D sg13cmos5l_inv_8
*CAP
1 *1476:A 0.000146783
2 *1475:Y 0.000146783
3 *1476:A *1477:A 0.000209856
*RES
1 *1475:Y *1476:A 41.751 
*END

*D_NET *460 0.000981223
*CONN
*I *1477:A I *D sg13cmos5l_inv_8
*I *1476:Y O *D sg13cmos5l_inv_8
*CAP
1 *1477:A 0.000385684
2 *1476:Y 0.000385684
3 *1476:A *1477:A 0.000209856
*RES
1 *1476:Y *1477:A 44.429 
*END

*D_NET *461 0.00161474
*CONN
*I *1478:A I *D sg13cmos5l_inv_8
*I *1477:Y O *D sg13cmos5l_inv_8
*CAP
1 *1478:A 0.00029395
2 *1477:Y 0.000392206
3 *461:8 0.000686156
4 *1473:A *1478:A 0
5 *458:10 *1478:A 0.000242423
6 *458:10 *461:8 0
*RES
1 *1477:Y *461:8 44.5526 
2 *461:8 *1478:A 43.3475 
*END

*D_NET *462 0.000970852
*CONN
*I *1480:A I *D sg13cmos5l_inv_8
*I *1478:Y O *D sg13cmos5l_inv_8
*CAP
1 *1480:A 0.00016329
2 *1478:Y 0.000322136
3 *462:8 0.000485426
4 *458:10 *462:8 0
*RES
1 *1478:Y *462:8 43.811 
2 *462:8 *1480:A 41.6171 
*END

*D_NET *463 0.000264997
*CONN
*I *1490:A I *D sg13cmos5l_inv_8
*I *1479:Y O *D sg13cmos5l_inv_8
*CAP
1 *1490:A 0.000132499
2 *1479:Y 0.000132499
3 *1490:A *1501:A 0
4 *1490:A *1512:A 0
*RES
1 *1479:Y *1490:A 41.4008 
*END

*D_NET *464 0.00033049
*CONN
*I *1481:A I *D sg13cmos5l_inv_8
*I *1480:Y O *D sg13cmos5l_inv_8
*CAP
1 *1481:A 0.000157545
2 *1480:Y 0.000157545
3 *1481:A *465:10 1.54008e-05
*RES
1 *1480:Y *1481:A 41.751 
*END

*D_NET *465 0.000751248
*CONN
*I *1482:A I *D sg13cmos5l_inv_8
*I *1481:Y O *D sg13cmos5l_inv_8
*CAP
1 *1482:A 0
2 *1481:Y 0.000367924
3 *465:10 0.000367924
4 *1481:A *465:10 1.54008e-05
5 *143:10 *465:10 0
*RES
1 *1481:Y *465:10 44.3466 
2 *465:10 *1482:A 40 
*END

*D_NET *466 0.000256327
*CONN
*I *1483:A I *D sg13cmos5l_inv_8
*I *1482:Y O *D sg13cmos5l_inv_8
*CAP
1 *1483:A 0.000128163
2 *1482:Y 0.000128163
*RES
1 *1482:Y *1483:A 41.4008 
*END

*D_NET *467 0.000525416
*CONN
*I *1484:A I *D sg13cmos5l_inv_8
*I *1483:Y O *D sg13cmos5l_inv_8
*CAP
1 *1484:A 0
2 *1483:Y 0.000262708
3 *467:10 0.000262708
4 *467:10 *1485:A 0
*RES
1 *1483:Y *467:10 42.9561 
2 *467:10 *1484:A 40 
*END

*D_NET *468 0.000361685
*CONN
*I *1485:A I *D sg13cmos5l_inv_8
*I *1484:Y O *D sg13cmos5l_inv_8
*CAP
1 *1485:A 0.000180843
2 *1484:Y 0.000180843
3 *1485:A *560:10 0
4 *467:10 *1485:A 0
*RES
1 *1484:Y *1485:A 41.6171 
*END

*D_NET *469 0.000390309
*CONN
*I *1486:A I *D sg13cmos5l_inv_8
*I *1485:Y O *D sg13cmos5l_inv_8
*CAP
1 *1486:A 5.08641e-05
2 *1485:Y 0.000144291
3 *469:8 0.000195155
4 *1486:A *560:10 0
5 *1486:A *565:10 0
*RES
1 *1485:Y *469:8 41.5862 
2 *469:8 *1486:A 40.5356 
*END

*D_NET *470 0.000394078
*CONN
*I *1487:A I *D sg13cmos5l_inv_8
*I *1486:Y O *D sg13cmos5l_inv_8
*CAP
1 *1487:A 0.000197039
2 *1486:Y 0.000197039
3 *1487:A *1488:A 0
4 *1487:A *1581:A 0
5 *1487:A *565:10 0
*RES
1 *1486:Y *1487:A 41.3873 
*END

*D_NET *471 0.000292727
*CONN
*I *1488:A I *D sg13cmos5l_inv_8
*I *1487:Y O *D sg13cmos5l_inv_8
*CAP
1 *1488:A 0.000146363
2 *1487:Y 0.000146363
3 *1488:A *1581:A 0
4 *1488:A *565:10 0
5 *1487:A *1488:A 0
*RES
1 *1487:Y *1488:A 41.6171 
*END

*D_NET *472 0.000643064
*CONN
*I *1489:A I *D sg13cmos5l_inv_8
*I *1488:Y O *D sg13cmos5l_inv_8
*CAP
1 *1489:A 0.000178906
2 *1488:Y 0.000178906
3 *1489:A *1581:A 0.000285252
*RES
1 *1488:Y *1489:A 42.2454 
*END

*D_NET *473 0.000705469
*CONN
*I *1491:A I *D sg13cmos5l_inv_8
*I *1489:Y O *D sg13cmos5l_inv_8
*CAP
1 *1491:A 0.000352735
2 *1489:Y 0.000352735
3 *1491:A *1492:A 0
4 *1491:A *1581:A 0
*RES
1 *1489:Y *1491:A 43.5638 
*END

*D_NET *474 0.000398736
*CONN
*I *1501:A I *D sg13cmos5l_inv_8
*I *1490:Y O *D sg13cmos5l_inv_8
*CAP
1 *1501:A 0.000199368
2 *1490:Y 0.000199368
3 *1501:A *1512:A 0
4 *1479:A *1501:A 0
5 *1490:A *1501:A 0
6 *1816:A *1501:A 0
*RES
1 *1490:Y *1501:A 42.2454 
*END

*D_NET *475 0.000361461
*CONN
*I *1492:A I *D sg13cmos5l_inv_8
*I *1491:Y O *D sg13cmos5l_inv_8
*CAP
1 *1492:A 0.000180731
2 *1491:Y 0.000180731
3 *1492:A *1493:A 0
4 *1491:A *1492:A 0
*RES
1 *1491:Y *1492:A 41.6171 
*END

*D_NET *476 0.000375812
*CONN
*I *1493:A I *D sg13cmos5l_inv_8
*I *1492:Y O *D sg13cmos5l_inv_8
*CAP
1 *1493:A 5.18997e-05
2 *1492:Y 0.000136006
3 *476:8 0.000187906
4 *1492:A *1493:A 0
*RES
1 *1492:Y *476:8 41.5862 
2 *476:8 *1493:A 40.5356 
*END

*D_NET *477 0.000789
*CONN
*I *1495:A I *D sg13cmos5l_inv_8
*I *1494:Y O *D sg13cmos5l_inv_8
*CAP
1 *1495:A 0
2 *1494:Y 0.0003945
3 *477:8 0.0003945
4 *435:8 *477:8 0
5 *438:10 *477:8 0
*RES
1 *1494:Y *477:8 45.047 
2 *477:8 *1495:A 40 
*END

*D_NET *478 0.000756167
*CONN
*I *1496:A I *D sg13cmos5l_inv_8
*I *1495:Y O *D sg13cmos5l_inv_8
*CAP
1 *1496:A 0.000154008
2 *1495:Y 0.000224075
3 *478:8 0.000378084
4 *478:8 *479:8 0
*RES
1 *1495:Y *478:8 42.8222 
2 *478:8 *1496:A 41.6171 
*END

*D_NET *479 0.000741844
*CONN
*I *1497:A I *D sg13cmos5l_inv_8
*I *1496:Y O *D sg13cmos5l_inv_8
*CAP
1 *1497:A 0.000142218
2 *1496:Y 0.000228704
3 *479:8 0.000370922
4 *1497:A *1498:A 0
5 *1497:A *1499:A 0
6 *478:8 *479:8 0
*RES
1 *1496:Y *479:8 42.8222 
2 *479:8 *1497:A 41.4008 
*END

*D_NET *480 0.000319751
*CONN
*I *1498:A I *D sg13cmos5l_inv_8
*I *1497:Y O *D sg13cmos5l_inv_8
*CAP
1 *1498:A 0.000159875
2 *1497:Y 0.000159875
3 *1497:A *1498:A 0
*RES
1 *1497:Y *1498:A 41.751 
*END

*D_NET *481 0.000341539
*CONN
*I *1499:A I *D sg13cmos5l_inv_8
*I *1498:Y O *D sg13cmos5l_inv_8
*CAP
1 *1499:A 0.000170769
2 *1498:Y 0.000170769
3 *1497:A *1499:A 0
*RES
1 *1498:Y *1499:A 41.751 
*END

*D_NET *482 0.000172882
*CONN
*I *1500:A I *D sg13cmos5l_inv_8
*I *1499:Y O *D sg13cmos5l_inv_8
*CAP
1 *1500:A 8.64409e-05
2 *1499:Y 8.64409e-05
*RES
1 *1499:Y *1500:A 41.0918 
*END

*D_NET *483 0.000332046
*CONN
*I *1502:A I *D sg13cmos5l_inv_8
*I *1500:Y O *D sg13cmos5l_inv_8
*CAP
1 *1502:A 0.000166023
2 *1500:Y 0.000166023
3 *1502:A *1503:A 0
*RES
1 *1500:Y *1502:A 41.9673 
*END

*D_NET *484 0.000256327
*CONN
*I *1512:A I *D sg13cmos5l_inv_8
*I *1501:Y O *D sg13cmos5l_inv_8
*CAP
1 *1512:A 0.000128163
2 *1501:Y 0.000128163
3 *1490:A *1512:A 0
4 *1501:A *1512:A 0
*RES
1 *1501:Y *1512:A 41.4008 
*END

*D_NET *485 0.000534667
*CONN
*I *1503:A I *D sg13cmos5l_inv_8
*I *1502:Y O *D sg13cmos5l_inv_8
*CAP
1 *1503:A 0.000141549
2 *1502:Y 0.000125784
3 *485:8 0.000267333
4 *1503:A *1504:A 0
5 *1503:A *1505:A 0
6 *1502:A *1503:A 0
*RES
1 *1502:Y *485:8 41.5862 
2 *485:8 *1503:A 41.6171 
*END

*D_NET *486 0.000287008
*CONN
*I *1504:A I *D sg13cmos5l_inv_8
*I *1503:Y O *D sg13cmos5l_inv_8
*CAP
1 *1504:A 0.000143504
2 *1503:Y 0.000143504
3 *1504:A *1505:A 0
4 *1504:A *1506:A 0
5 *1503:A *1504:A 0
*RES
1 *1503:Y *1504:A 41.6171 
*END

*D_NET *487 0.000644155
*CONN
*I *1505:A I *D sg13cmos5l_inv_8
*I *1504:Y O *D sg13cmos5l_inv_8
*CAP
1 *1505:A 0.00014958
2 *1504:Y 0.000172497
3 *487:8 0.000322077
4 *1505:A *1507:A 0
5 *1503:A *1505:A 0
6 *1504:A *1505:A 0
*RES
1 *1504:Y *487:8 42.0806 
2 *487:8 *1505:A 41.6171 
*END

*D_NET *488 0.000408689
*CONN
*I *1506:A I *D sg13cmos5l_inv_8
*I *1505:Y O *D sg13cmos5l_inv_8
*CAP
1 *1506:A 0.000131788
2 *1505:Y 0.000131788
3 *1506:A *1507:A 0.000145113
4 *1506:A *1508:A 0
5 *1506:A *1509:A 0
6 *1504:A *1506:A 0
*RES
1 *1505:Y *1506:A 41.6171 
*END

*D_NET *489 0.000768864
*CONN
*I *1507:A I *D sg13cmos5l_inv_8
*I *1506:Y O *D sg13cmos5l_inv_8
*CAP
1 *1507:A 0.000311876
2 *1506:Y 0.000311876
3 *1507:A *1509:A 0
4 *1505:A *1507:A 0
5 *1506:A *1507:A 0.000145113
*RES
1 *1506:Y *1507:A 43.8007 
*END

*D_NET *490 0.000305358
*CONN
*I *1508:A I *D sg13cmos5l_inv_8
*I *1507:Y O *D sg13cmos5l_inv_8
*CAP
1 *1508:A 0.000152679
2 *1507:Y 0.000152679
3 *1508:A *1509:A 0
4 *1506:A *1508:A 0
*RES
1 *1507:Y *1508:A 41.6171 
*END

*D_NET *491 0.000765243
*CONN
*I *1509:A I *D sg13cmos5l_inv_8
*I *1508:Y O *D sg13cmos5l_inv_8
*CAP
1 *1509:A 0.000382622
2 *1508:Y 0.000382622
3 *1509:A *1660:A 0
4 *1506:A *1509:A 0
5 *1507:A *1509:A 0
6 *1508:A *1509:A 0
*RES
1 *1508:Y *1509:A 44.2951 
*END

*D_NET *492 0.000993837
*CONN
*I *1510:A I *D sg13cmos5l_inv_8
*I *1509:Y O *D sg13cmos5l_inv_8
*CAP
1 *1510:A 0.00018889
2 *1509:Y 0.000308028
3 *492:8 0.000496918
4 *1510:A *1513:A 0
*RES
1 *1509:Y *492:8 43.5638 
2 *492:8 *1510:A 41.8334 
*END

*D_NET *493 0.000408689
*CONN
*I *1511:A I *D sg13cmos5l_inv_8
*I *1510:Y O *D sg13cmos5l_inv_8
*CAP
1 *1511:A 0.000131788
2 *1510:Y 0.000131788
3 *1511:A *1513:A 0.000145113
4 *1511:A *1515:A 0
5 *1511:A *1516:A 0
*RES
1 *1510:Y *1511:A 41.6171 
*END

*D_NET *494 0.000810722
*CONN
*I *1513:A I *D sg13cmos5l_inv_8
*I *1511:Y O *D sg13cmos5l_inv_8
*CAP
1 *1513:A 0.000332805
2 *1511:Y 0.000332805
3 *1513:A *1514:A 0
4 *1513:A *1516:A 0
5 *1510:A *1513:A 0
6 *1511:A *1513:A 0.000145113
*RES
1 *1511:Y *1513:A 43.6977 
*END

*D_NET *495 0.00016547
*CONN
*I *1523:A I *D sg13cmos5l_inv_8
*I *1512:Y O *D sg13cmos5l_inv_8
*CAP
1 *1523:A 0
2 *1512:Y 8.27351e-05
3 *495:8 8.27351e-05
*RES
1 *1512:Y *495:8 41.0918 
2 *495:8 *1523:A 40 
*END

*D_NET *496 0.000696038
*CONN
*I *1514:A I *D sg13cmos5l_inv_8
*I *1513:Y O *D sg13cmos5l_inv_8
*CAP
1 *1514:A 0.000175522
2 *1513:Y 0.000172497
3 *496:8 0.000348019
4 *1514:A *1516:A 0
5 *1513:A *1514:A 0
*RES
1 *1513:Y *496:8 42.0806 
2 *496:8 *1514:A 41.6171 
*END

*D_NET *497 0.000312559
*CONN
*I *1515:A I *D sg13cmos5l_inv_8
*I *1514:Y O *D sg13cmos5l_inv_8
*CAP
1 *1515:A 0.000156279
2 *1514:Y 0.000156279
3 *1515:A *1516:A 0
4 *1515:A *1518:A 0
5 *1511:A *1515:A 0
*RES
1 *1514:Y *1515:A 41.6171 
*END

*D_NET *498 0.000721074
*CONN
*I *1516:A I *D sg13cmos5l_inv_8
*I *1515:Y O *D sg13cmos5l_inv_8
*CAP
1 *1516:A 0.000360537
2 *1515:Y 0.000360537
3 *1516:A *1517:A 0
4 *1511:A *1516:A 0
5 *1513:A *1516:A 0
6 *1514:A *1516:A 0
7 *1515:A *1516:A 0
*RES
1 *1515:Y *1516:A 43.6977 
*END

*D_NET *499 0.000648297
*CONN
*I *1517:A I *D sg13cmos5l_inv_8
*I *1516:Y O *D sg13cmos5l_inv_8
*CAP
1 *1517:A 0.000324148
2 *1516:Y 0.000324148
3 *1517:A *1519:A 0
4 *1517:A *1667:A 0
5 *1516:A *1517:A 0
*RES
1 *1516:Y *1517:A 43.7642 
*END

*D_NET *500 0.000283795
*CONN
*I *1518:A I *D sg13cmos5l_inv_8
*I *1517:Y O *D sg13cmos5l_inv_8
*CAP
1 *1518:A 0.000141897
2 *1517:Y 0.000141897
3 *1518:A *1519:A 0
4 *1518:A *1520:A 0
5 *1515:A *1518:A 0
*RES
1 *1517:Y *1518:A 41.6171 
*END

*D_NET *501 0.000637255
*CONN
*I *1519:A I *D sg13cmos5l_inv_8
*I *1518:Y O *D sg13cmos5l_inv_8
*CAP
1 *1519:A 0.00014613
2 *1518:Y 0.000172497
3 *501:8 0.000318627
4 *1519:A *1520:A 0
5 *1517:A *1519:A 0
6 *1518:A *1519:A 0
7 *392:16 *1519:A 0
*RES
1 *1518:Y *501:8 42.0806 
2 *501:8 *1519:A 41.6171 
*END

*D_NET *502 0.00029149
*CONN
*I *1520:A I *D sg13cmos5l_inv_8
*I *1519:Y O *D sg13cmos5l_inv_8
*CAP
1 *1520:A 0.000145745
2 *1519:Y 0.000145745
3 *1520:A *1521:A 0
4 *1518:A *1520:A 0
5 *1519:A *1520:A 0
6 *1840:A *1520:A 0
*RES
1 *1519:Y *1520:A 41.6171 
*END

*D_NET *503 0.000462307
*CONN
*I *1521:A I *D sg13cmos5l_inv_8
*I *1520:Y O *D sg13cmos5l_inv_8
*CAP
1 *1521:A 0.000231153
2 *1520:Y 0.000231153
3 *1520:A *1521:A 0
4 *1840:A *1521:A 0
5 *392:16 *1521:A 0
*RES
1 *1520:Y *1521:A 42.4617 
*END

*D_NET *504 0.000172882
*CONN
*I *1522:A I *D sg13cmos5l_inv_8
*I *1521:Y O *D sg13cmos5l_inv_8
*CAP
1 *1522:A 8.64409e-05
2 *1521:Y 8.64409e-05
3 *1522:A *507:12 0
*RES
1 *1521:Y *1522:A 41.0918 
*END

*D_NET *505 0.00064089
*CONN
*I *1524:A I *D sg13cmos5l_inv_8
*I *1522:Y O *D sg13cmos5l_inv_8
*CAP
1 *1524:A 0.000126708
2 *1522:Y 0.000126708
3 *1524:A *507:12 0.000145052
4 *1371:A *1524:A 0.000242423
5 *1840:A *1524:A 0
*RES
1 *1522:Y *1524:A 41.6171 
*END

*D_NET *506 0.000347956
*CONN
*I *1534:A I *D sg13cmos5l_inv_8
*I *1523:Y O *D sg13cmos5l_inv_8
*CAP
1 *1534:A 0.000173978
2 *1523:Y 0.000173978
3 *1534:A *1911:B 0
*RES
1 *1523:Y *1534:A 41.6171 
*END

*D_NET *507 0.00106986
*CONN
*I *1525:A I *D sg13cmos5l_inv_8
*I *1524:Y O *D sg13cmos5l_inv_8
*CAP
1 *1525:A 0
2 *1524:Y 0.000462405
3 *507:12 0.000462405
4 *1404:A *507:12 0
5 *1522:A *507:12 0
6 *1524:A *507:12 0.000145052
7 *1842:A *507:12 0
8 *392:16 *507:12 0
*RES
1 *1524:Y *507:12 44.2951 
2 *507:12 *1525:A 40 
*END

*D_NET *508 0.000317001
*CONN
*I *1526:A I *D sg13cmos5l_inv_8
*I *1525:Y O *D sg13cmos5l_inv_8
*CAP
1 *1526:A 0.0001585
2 *1525:Y 0.0001585
3 *1526:A *1527:A 0
4 *1882:A *1526:A 0
5 *13:14 *1526:A 0
6 *358:12 *1526:A 0
*RES
1 *1525:Y *1526:A 41.6171 
*END

*D_NET *509 0.000718016
*CONN
*I *1527:A I *D sg13cmos5l_inv_8
*I *1526:Y O *D sg13cmos5l_inv_8
*CAP
1 *1527:A 0.000359008
2 *1526:Y 0.000359008
3 *1527:A *1528:A 0
4 *1402:A *1527:A 0
5 *1526:A *1527:A 0
6 *13:14 *1527:A 0
7 *358:12 *1527:A 0
*RES
1 *1526:Y *1527:A 43.3475 
*END

*D_NET *510 0.000521718
*CONN
*I *1528:A I *D sg13cmos5l_inv_8
*I *1527:Y O *D sg13cmos5l_inv_8
*CAP
1 *1528:A 0.000260859
2 *1527:Y 0.000260859
3 *1527:A *1528:A 0
4 *13:14 *1528:A 0
*RES
1 *1527:Y *1528:A 42.4308 
*END

*D_NET *511 0.00366599
*CONN
*I *1212:A1 I *D sg13cmos5l_mux2_1
*I *1204:A I *D sg13cmos5l_nor2b_1
*I *1528:Y O *D sg13cmos5l_inv_8
*CAP
1 *1212:A1 0.000162117
2 *1204:A 0.000819609
3 *1528:Y 0.000205135
4 *511:8 0.00118686
5 *1204:A *721:33 7.52149e-05
6 *1212:A1 *1201:B 0.000241847
7 *1212:A0 *1212:A1 4.77425e-05
8 *1400:A *1212:A1 0
9 *10:20 *1204:A 0.000927462
10 *12:12 *1204:A 0
11 *28:41 *1204:A 0
12 *385:8 *1204:A 0
13 *392:16 *1204:A 0
14 *392:16 *511:8 0
*RES
1 *1528:Y *511:8 41.5862 
2 *511:8 *1204:A 48.2606 
3 *511:8 *1212:A1 41.6171 
*END

*D_NET *512 0.000172882
*CONN
*I *1530:A I *D sg13cmos5l_inv_8
*I *1529:Y O *D sg13cmos5l_inv_8
*CAP
1 *1530:A 8.64409e-05
2 *1529:Y 8.64409e-05
3 *390:10 *1530:A 0
*RES
1 *1529:Y *1530:A 41.0918 
*END

*D_NET *513 0.000979485
*CONN
*I *1531:A I *D sg13cmos5l_inv_8
*I *1530:Y O *D sg13cmos5l_inv_8
*CAP
1 *1531:A 0.000384869
2 *1530:Y 0.000384869
3 *1531:A *1532:A 0
4 *1531:A *1845:B 0.000209747
5 *1843:A *1531:A 0
6 *392:16 *1531:A 0
*RES
1 *1530:Y *1531:A 44.1612 
*END

*D_NET *514 0.000520926
*CONN
*I *1532:A I *D sg13cmos5l_inv_8
*I *1531:Y O *D sg13cmos5l_inv_8
*CAP
1 *1532:A 0.000139307
2 *1531:Y 0.000139307
3 *1531:A *1532:A 0
4 *392:16 *1532:A 0.000242313
*RES
1 *1531:Y *1532:A 41.6171 
*END

*D_NET *515 0.00157568
*CONN
*I *1533:A I *D sg13cmos5l_inv_8
*I *1532:Y O *D sg13cmos5l_inv_8
*CAP
1 *1533:A 0
2 *1532:Y 0.000530257
3 *515:10 0.000530257
4 *1427:A *515:10 1.54556e-05
5 *92:14 *515:10 0
6 *392:16 *515:10 0
7 *393:12 *515:10 0.000499713
*RES
1 *1532:Y *515:10 45.1809 
2 *515:10 *1533:A 40 
*END

*D_NET *516 0.000479956
*CONN
*I *1535:A I *D sg13cmos5l_inv_8
*I *1533:Y O *D sg13cmos5l_inv_8
*CAP
1 *1535:A 0.000239978
2 *1533:Y 0.000239978
3 *1430:A *1535:A 0
4 *85:8 *1535:A 0
*RES
1 *1533:Y *1535:A 42.266 
*END

*D_NET *517 0.000364917
*CONN
*I *1545:A I *D sg13cmos5l_inv_8
*I *1534:Y O *D sg13cmos5l_inv_8
*CAP
1 *1545:A 0
2 *1534:Y 0.000182458
3 *517:8 0.000182458
4 *197:8 *517:8 0
*RES
1 *1534:Y *517:8 42.0806 
2 *517:8 *1545:A 40 
*END

*D_NET *518 0.000204754
*CONN
*I *1536:A I *D sg13cmos5l_inv_8
*I *1535:Y O *D sg13cmos5l_inv_8
*CAP
1 *1536:A 0.000102377
2 *1535:Y 0.000102377
3 *1536:A *1666:A 0
*RES
1 *1535:Y *1536:A 41.0918 
*END

*D_NET *519 0.0018972
*CONN
*I *1537:A I *D sg13cmos5l_inv_8
*I *1536:Y O *D sg13cmos5l_inv_8
*CAP
1 *1537:A 0.00063711
2 *1536:Y 0.000311489
3 *519:10 0.000948599
4 *1537:A *1538:A 0
5 *1430:A *1537:A 0
6 *1430:A *519:10 0
7 *1431:A *519:10 0
8 *1432:A *519:10 0
9 *1797:A *1537:A 0
10 *92:14 *519:10 0
11 *418:10 *1537:A 0
*RES
1 *1536:Y *519:10 42.987 
2 *519:10 *1537:A 46.1594 
*END

*D_NET *520 0.000728006
*CONN
*I *1538:A I *D sg13cmos5l_inv_8
*I *1537:Y O *D sg13cmos5l_inv_8
*CAP
1 *1538:A 0.000364003
2 *1537:Y 0.000364003
3 *1538:A *521:10 0
4 *1537:A *1538:A 0
*RES
1 *1537:Y *1538:A 43.3475 
*END

*D_NET *521 0.00227379
*CONN
*I *1539:A I *D sg13cmos5l_inv_8
*I *1538:Y O *D sg13cmos5l_inv_8
*CAP
1 *1539:A 0.000273906
2 *1538:Y 0.000407993
3 *521:10 0.000681899
4 *1433:A *1539:A 0.000144617
5 *1436:A *1539:A 0
6 *1538:A *521:10 0
7 *88:8 *521:10 0
8 *418:10 *521:10 0.000765375
*RES
1 *1538:Y *521:10 44.841 
2 *521:10 *1539:A 43.1312 
*END

*D_NET *522 0.000172882
*CONN
*I *1540:A I *D sg13cmos5l_inv_8
*I *1539:Y O *D sg13cmos5l_inv_8
*CAP
1 *1540:A 8.64409e-05
2 *1539:Y 8.64409e-05
*RES
1 *1539:Y *1540:A 41.0918 
*END

*D_NET *523 0.000273301
*CONN
*I *1541:A I *D sg13cmos5l_inv_8
*I *1540:Y O *D sg13cmos5l_inv_8
*CAP
1 *1541:A 0.00013665
2 *1540:Y 0.00013665
3 *1541:A *1542:A 0
*RES
1 *1540:Y *1541:A 41.6171 
*END

*D_NET *524 0.000408187
*CONN
*I *1542:A I *D sg13cmos5l_inv_8
*I *1541:Y O *D sg13cmos5l_inv_8
*CAP
1 *1542:A 0.000204093
2 *1541:Y 0.000204093
3 *1542:A *1543:A 0
4 *1541:A *1542:A 0
*RES
1 *1541:Y *1542:A 42.4617 
*END

*D_NET *525 0.000274448
*CONN
*I *1543:A I *D sg13cmos5l_inv_8
*I *1542:Y O *D sg13cmos5l_inv_8
*CAP
1 *1543:A 0.000137224
2 *1542:Y 0.000137224
3 *1542:A *1543:A 0
*RES
1 *1542:Y *1543:A 41.6171 
*END

*D_NET *526 0.000421309
*CONN
*I *1544:A I *D sg13cmos5l_inv_8
*I *1543:Y O *D sg13cmos5l_inv_8
*CAP
1 *1544:A 0.000210655
2 *1543:Y 0.000210655
3 *1544:A *1547:A 0
*RES
1 *1543:Y *1544:A 42.2454 
*END

*D_NET *527 0.000262313
*CONN
*I *1547:A I *D sg13cmos5l_inv_8
*I *1544:Y O *D sg13cmos5l_inv_8
*CAP
1 *1547:A 0.000131157
2 *1544:Y 0.000131157
3 *1547:A *1548:A 0
4 *1547:A *1549:A 0
5 *1544:A *1547:A 0
*RES
1 *1544:Y *1547:A 41.4008 
*END

*D_NET *528 0.000371276
*CONN
*I *1557:A I *D sg13cmos5l_inv_8
*I *1545:Y O *D sg13cmos5l_inv_8
*CAP
1 *1557:A 0.000185638
2 *1545:Y 0.000185638
3 *1557:A *1568:A 0
4 *1557:A *1698:A 0
5 *1557:A *675:12 0
*RES
1 *1545:Y *1557:A 41.751 
*END

*D_NET *529 0.00030498
*CONN
*I *1657:A I *D sg13cmos5l_inv_8
*I *1546:Y O *D sg13cmos5l_inv_8
*CAP
1 *1657:A 0.00015249
2 *1546:Y 0.00015249
3 *1371:A *1657:A 0
*RES
1 *1546:Y *1657:A 41.6171 
*END

*D_NET *530 0.000421309
*CONN
*I *1548:A I *D sg13cmos5l_inv_8
*I *1547:Y O *D sg13cmos5l_inv_8
*CAP
1 *1548:A 0.000210655
2 *1547:Y 0.000210655
3 *1548:A *1549:A 0
4 *1547:A *1548:A 0
*RES
1 *1547:Y *1548:A 42.2454 
*END

*D_NET *531 0.000262313
*CONN
*I *1549:A I *D sg13cmos5l_inv_8
*I *1548:Y O *D sg13cmos5l_inv_8
*CAP
1 *1549:A 0.000131157
2 *1548:Y 0.000131157
3 *1549:A *1551:A 0
4 *1547:A *1549:A 0
5 *1548:A *1549:A 0
*RES
1 *1548:Y *1549:A 41.4008 
*END

*D_NET *532 0.000446183
*CONN
*I *1550:A I *D sg13cmos5l_inv_8
*I *1549:Y O *D sg13cmos5l_inv_8
*CAP
1 *1550:A 0.000223091
2 *1549:Y 0.000223091
3 *1550:A *1551:A 0
4 *1550:A *1552:A 0
*RES
1 *1549:Y *1550:A 42.7089 
*END

*D_NET *533 0.000277814
*CONN
*I *1551:A I *D sg13cmos5l_inv_8
*I *1550:Y O *D sg13cmos5l_inv_8
*CAP
1 *1551:A 0.000138907
2 *1550:Y 0.000138907
3 *1551:A *1552:A 0
4 *1551:A *1553:A 0
5 *1549:A *1551:A 0
6 *1550:A *1551:A 0
*RES
1 *1550:Y *1551:A 41.6171 
*END

*D_NET *534 0.000450696
*CONN
*I *1552:A I *D sg13cmos5l_inv_8
*I *1551:Y O *D sg13cmos5l_inv_8
*CAP
1 *1552:A 0.000225348
2 *1551:Y 0.000225348
3 *1552:A *1553:A 0
4 *1550:A *1552:A 0
5 *1551:A *1552:A 0
*RES
1 *1551:Y *1552:A 42.7089 
*END

*D_NET *535 0.000273301
*CONN
*I *1553:A I *D sg13cmos5l_inv_8
*I *1552:Y O *D sg13cmos5l_inv_8
*CAP
1 *1553:A 0.00013665
2 *1552:Y 0.00013665
3 *1551:A *1553:A 0
4 *1552:A *1553:A 0
*RES
1 *1552:Y *1553:A 41.6171 
*END

*D_NET *536 0.000175683
*CONN
*I *1554:A I *D sg13cmos5l_inv_8
*I *1553:Y O *D sg13cmos5l_inv_8
*CAP
1 *1554:A 0
2 *1553:Y 8.78416e-05
3 *536:8 8.78416e-05
*RES
1 *1553:Y *536:8 41.0918 
2 *536:8 *1554:A 40 
*END

*D_NET *537 0.00016547
*CONN
*I *1555:A I *D sg13cmos5l_inv_8
*I *1554:Y O *D sg13cmos5l_inv_8
*CAP
1 *1555:A 0
2 *1554:Y 8.27351e-05
3 *537:8 8.27351e-05
*RES
1 *1554:Y *537:8 41.0918 
2 *537:8 *1555:A 40 
*END

*D_NET *538 0.000319873
*CONN
*I *1556:A I *D sg13cmos5l_inv_8
*I *1555:Y O *D sg13cmos5l_inv_8
*CAP
1 *1556:A 0.000159936
2 *1555:Y 0.000159936
3 *1556:A *1558:A 0
*RES
1 *1555:Y *1556:A 41.4008 
*END

*D_NET *539 0.000749944
*CONN
*I *1558:A I *D sg13cmos5l_inv_8
*I *1556:Y O *D sg13cmos5l_inv_8
*CAP
1 *1558:A 0.000374972
2 *1556:Y 0.000374972
3 *1556:A *1558:A 0
*RES
1 *1556:Y *1558:A 43.9964 
*END

*D_NET *540 0.000477443
*CONN
*I *1568:A I *D sg13cmos5l_inv_8
*I *1557:Y O *D sg13cmos5l_inv_8
*CAP
1 *1568:A 0.000238722
2 *1557:Y 0.000238722
3 *1568:A *1698:A 0
4 *1568:A *675:12 0
5 *1557:A *1568:A 0
*RES
1 *1557:Y *1568:A 42.4926 
*END

*D_NET *541 0.000558165
*CONN
*I *1559:A I *D sg13cmos5l_inv_8
*I *1558:Y O *D sg13cmos5l_inv_8
*CAP
1 *1559:A 0
2 *1558:Y 0.000279083
3 *541:8 0.000279083
*RES
1 *1558:Y *541:8 43.3166 
2 *541:8 *1559:A 40 
*END

*D_NET *542 0.000172882
*CONN
*I *1560:A I *D sg13cmos5l_inv_8
*I *1559:Y O *D sg13cmos5l_inv_8
*CAP
1 *1560:A 8.64409e-05
2 *1559:Y 8.64409e-05
*RES
1 *1559:Y *1560:A 41.0918 
*END

*D_NET *543 0.000618612
*CONN
*I *1561:A I *D sg13cmos5l_inv_8
*I *1560:Y O *D sg13cmos5l_inv_8
*CAP
1 *1561:A 0
2 *1560:Y 0.000309306
3 *543:10 0.000309306
4 *1877:A *543:10 0
5 *165:8 *543:10 0
*RES
1 *1560:Y *543:10 43.6977 
2 *543:10 *1561:A 40 
*END

*D_NET *544 0.000577036
*CONN
*I *1562:A I *D sg13cmos5l_inv_8
*I *1561:Y O *D sg13cmos5l_inv_8
*CAP
1 *1562:A 0
2 *1561:Y 0.000288518
3 *544:8 0.000288518
4 *161:10 *544:8 0
5 *169:8 *544:8 0
*RES
1 *1561:Y *544:8 43.5638 
2 *544:8 *1562:A 40 
*END

*D_NET *545 0.000196369
*CONN
*I *1563:A I *D sg13cmos5l_inv_8
*I *1562:Y O *D sg13cmos5l_inv_8
*CAP
1 *1563:A 0
2 *1562:Y 9.81844e-05
3 *545:8 9.81844e-05
4 *545:8 *563:10 0
*RES
1 *1562:Y *545:8 41.0918 
2 *545:8 *1563:A 40 
*END

*D_NET *546 0.000331353
*CONN
*I *1564:A I *D sg13cmos5l_inv_8
*I *1563:Y O *D sg13cmos5l_inv_8
*CAP
1 *1564:A 0.000165677
2 *1563:Y 0.000165677
3 *1564:A *1581:A 0
4 *1565:A *1564:A 0
5 *1847:A *1564:A 0
*RES
1 *1563:Y *1564:A 41.9673 
*END

*D_NET *547 0.000292741
*CONN
*I *1566:A I *D sg13cmos5l_inv_8
*I *1565:Y O *D sg13cmos5l_inv_8
*CAP
1 *1566:A 0.000146371
2 *1565:Y 0.000146371
3 *1566:A *1582:A 0
*RES
1 *1565:Y *1566:A 41.4008 
*END

*D_NET *548 0.000236626
*CONN
*I *1567:A I *D sg13cmos5l_inv_8
*I *1566:Y O *D sg13cmos5l_inv_8
*CAP
1 *1567:A 0.000118313
2 *1566:Y 0.000118313
*RES
1 *1566:Y *1567:A 41.0918 
*END

*D_NET *549 0.000355596
*CONN
*I *1569:A I *D sg13cmos5l_inv_8
*I *1567:Y O *D sg13cmos5l_inv_8
*CAP
1 *1569:A 0.000177798
2 *1567:Y 0.000177798
3 *1569:A *552:10 0
4 *1856:A *1569:A 0
5 *145:10 *1569:A 0
*RES
1 *1567:Y *1569:A 41.8334 
*END

*D_NET *550 0.000558788
*CONN
*I *1579:A I *D sg13cmos5l_inv_8
*I *1568:Y O *D sg13cmos5l_inv_8
*CAP
1 *1579:A 0.00013431
2 *1568:Y 0.00013431
3 *1579:A *1698:A 4.78556e-05
4 *1579:A *565:10 0.000242313
*RES
1 *1568:Y *1579:A 41.6171 
*END

*D_NET *551 0.000280545
*CONN
*I *1570:A I *D sg13cmos5l_inv_8
*I *1569:Y O *D sg13cmos5l_inv_8
*CAP
1 *1570:A 0.000140273
2 *1569:Y 0.000140273
3 *1570:A *1856:B 0
4 *1570:A *552:10 0
5 *1856:A *1570:A 0
*RES
1 *1569:Y *1570:A 41.6171 
*END

*D_NET *552 0.000955091
*CONN
*I *1571:A I *D sg13cmos5l_inv_8
*I *1570:Y O *D sg13cmos5l_inv_8
*CAP
1 *1571:A 0
2 *1570:Y 0.000477545
3 *552:10 0.000477545
4 *1569:A *552:10 0
5 *1570:A *552:10 0
6 *145:10 *552:10 0
7 *147:8 *552:10 0
*RES
1 *1570:Y *552:10 44.9337 
2 *552:10 *1571:A 40 
*END

*D_NET *553 0.000471578
*CONN
*I *1572:A I *D sg13cmos5l_inv_8
*I *1571:Y O *D sg13cmos5l_inv_8
*CAP
1 *1572:A 0.000235789
2 *1571:Y 0.000235789
3 *1572:A *1573:A 0
*RES
1 *1571:Y *1572:A 42.4926 
*END

*D_NET *554 0.000329349
*CONN
*I *1573:A I *D sg13cmos5l_inv_8
*I *1572:Y O *D sg13cmos5l_inv_8
*CAP
1 *1573:A 0.000164674
2 *1572:Y 0.000164674
3 *1572:A *1573:A 0
4 *1855:A *1573:A 0
*RES
1 *1572:Y *1573:A 41.1086 
*END

*D_NET *555 0.000172882
*CONN
*I *1574:A I *D sg13cmos5l_inv_8
*I *1573:Y O *D sg13cmos5l_inv_8
*CAP
1 *1574:A 8.64409e-05
2 *1573:Y 8.64409e-05
3 *1852:A *1574:A 0
*RES
1 *1573:Y *1574:A 41.0918 
*END

*D_NET *556 0.000640886
*CONN
*I *1575:A I *D sg13cmos5l_inv_8
*I *1574:Y O *D sg13cmos5l_inv_8
*CAP
1 *1575:A 0.000215652
2 *1574:Y 0.000215652
3 *1575:A *559:8 0.000209582
4 *1855:A *1575:A 0
*RES
1 *1574:Y *1575:A 42.4926 
*END

*D_NET *557 0.000379173
*CONN
*I *1576:A I *D sg13cmos5l_inv_8
*I *1575:Y O *D sg13cmos5l_inv_8
*CAP
1 *1576:A 0.000189586
2 *1575:Y 0.000189586
3 *1576:A *1589:A 0
4 *1576:A *559:8 0
5 *1576:A *568:8 0
*RES
1 *1575:Y *1576:A 41.751 
*END

*D_NET *558 0.000408689
*CONN
*I *1577:A I *D sg13cmos5l_inv_8
*I *1576:Y O *D sg13cmos5l_inv_8
*CAP
1 *1577:A 0.000131788
2 *1576:Y 0.000131788
3 *1577:A *559:8 0.000145113
4 *1577:A *568:8 0
5 *1855:A *1577:A 0
*RES
1 *1576:Y *1577:A 41.6171 
*END

*D_NET *559 0.00441227
*CONN
*I *1578:A I *D sg13cmos5l_inv_8
*I *1577:Y O *D sg13cmos5l_inv_8
*CAP
1 *1578:A 0
2 *1577:Y 0.000488467
3 *559:14 0.00142229
4 *559:8 0.00191076
5 *559:8 *1589:A 0
6 *559:8 *1616:A 0
7 *559:8 *568:8 0
8 *559:14 *599:8 0.000236057
9 *559:14 *600:10 0
10 *559:14 *601:10 0
11 *559:14 *603:12 0
12 *1575:A *559:8 0.000209582
13 *1576:A *559:8 0
14 *1577:A *559:8 0.000145113
15 *1855:A *559:8 0
*RES
1 *1577:Y *559:8 45.0779 
2 *559:8 *559:14 34.729 
3 *559:14 *1578:A 20 
*END

*D_NET *560 0.0087534
*CONN
*I *1580:A I *D sg13cmos5l_inv_8
*I *1578:Y O *D sg13cmos5l_inv_8
*CAP
1 *1580:A 5.36955e-05
2 *1578:Y 0.00161431
3 *560:14 0.000972625
4 *560:10 0.00253324
5 *1580:A *567:10 1.54556e-05
6 *560:10 *1601:A 0
7 *560:10 *1626:A 0
8 *560:10 *1627:A 0.000242105
9 *560:10 *1628:A 0
10 *560:10 *1634:A 0
11 *560:10 *565:10 0
12 *560:14 *562:14 0.00321854
13 *1470:A *560:10 0
14 *1471:A *560:10 0
15 *1472:A *560:10 0
16 *1473:A *560:10 0
17 *1485:A *560:10 0
18 *1486:A *560:10 0
19 *198:14 *560:10 0.000103421
*RES
1 *1578:Y *560:10 36.377 
2 *560:10 *560:14 34.935 
3 *560:14 *1580:A 40.5356 
*END

*D_NET *561 0.000172882
*CONN
*I *1590:A I *D sg13cmos5l_inv_8
*I *1579:Y O *D sg13cmos5l_inv_8
*CAP
1 *1590:A 8.64409e-05
2 *1579:Y 8.64409e-05
3 *198:14 *1590:A 0
*RES
1 *1579:Y *1590:A 41.0918 
*END

*D_NET *562 0.0119339
*CONN
*I *1581:A I *D sg13cmos5l_inv_8
*I *1580:Y O *D sg13cmos5l_inv_8
*CAP
1 *1581:A 0.0015553
2 *1580:Y 0
3 *562:14 0.00353711
4 *562:6 0.00198181
5 *1581:A *1631:A 0
6 *1581:A *1632:A 0
7 *1581:A *1633:A 0
8 *1581:A *563:10 0.000339251
9 *562:14 *567:10 0.000182525
10 *562:14 *582:8 0.000235228
11 *562:14 *615:8 0
12 *562:14 *675:12 0
13 *562:14 *719:8 0
14 *562:14 *723:27 0
15 *1465:A *562:14 0
16 *1466:A *1581:A 0
17 *1466:A *562:14 0
18 *1487:A *1581:A 0
19 *1488:A *1581:A 0
20 *1489:A *1581:A 0.000285252
21 *1491:A *1581:A 0
22 *1564:A *1581:A 0
23 *1820:A *562:14 0.000598866
24 *1821:A *562:14 0
25 *1822:A *562:14 0
26 *199:10 *562:14 0
27 *560:14 *562:14 0.00321854
*RES
1 *1580:Y *562:6 40 
2 *562:6 *562:14 48.1499 
3 *562:14 *1581:A 36.8096 
*END

*D_NET *563 0.00215865
*CONN
*I *1582:A I *D sg13cmos5l_inv_8
*I *1581:Y O *D sg13cmos5l_inv_8
*CAP
1 *1582:A 0.00038211
2 *1581:Y 0.00052759
3 *563:10 0.0009097
4 *1582:A *1583:A 0
5 *1582:A *565:10 0
6 *1566:A *1582:A 0
7 *1581:A *563:10 0.000339251
8 *545:8 *563:10 0
*RES
1 *1581:Y *563:10 45.8298 
2 *563:10 *1582:A 43.3475 
*END

*D_NET *564 0.000374171
*CONN
*I *1583:A I *D sg13cmos5l_inv_8
*I *1582:Y O *D sg13cmos5l_inv_8
*CAP
1 *1583:A 0.000187085
2 *1582:Y 0.000187085
3 *1582:A *1583:A 0
*RES
1 *1582:Y *1583:A 41.6171 
*END

*D_NET *565 0.00892699
*CONN
*I *1584:A I *D sg13cmos5l_inv_8
*I *1583:Y O *D sg13cmos5l_inv_8
*CAP
1 *1584:A 0
2 *1583:Y 0.00207985
3 *565:18 0.00151923
4 *565:10 0.00359908
5 *565:10 *1627:A 0
6 *565:10 *1628:A 0
7 *565:10 *1629:A 0
8 *565:10 *1630:A 0.000128161
9 *565:10 *1631:A 0
10 *565:10 *1698:A 0
11 *565:18 *677:8 0
12 *565:18 *678:12 0
13 *565:18 *686:8 0
14 *1469:A *565:10 0
15 *1470:A *565:10 0.000242483
16 *1471:A *565:10 0
17 *1486:A *565:10 0
18 *1487:A *565:10 0
19 *1488:A *565:10 0
20 *1579:A *565:10 0.000242313
21 *1582:A *565:10 0
22 *1819:A *565:10 0.000242181
23 *1822:A *565:10 0
24 *197:8 *565:18 0
25 *198:14 *565:10 0
26 *201:8 *565:18 0.000873686
27 *202:8 *565:18 0
28 *560:10 *565:10 0
*RES
1 *1583:Y *565:10 40.8314 
2 *565:10 *565:18 40.3013 
3 *565:18 *1584:A 40 
*END

*D_NET *566 0.00187844
*CONN
*I *1585:A I *D sg13cmos5l_inv_8
*I *1584:Y O *D sg13cmos5l_inv_8
*CAP
1 *1585:A 0.000211879
2 *1584:Y 0.000529142
3 *566:10 0.00074102
4 *1585:A *567:10 0
5 *1585:A *568:8 0
6 *566:10 *567:10 0.000396398
7 *566:10 *723:27 0
8 *1860:A *566:10 0
9 *1866:A *566:10 0
10 *1867:A *566:10 0
*RES
1 *1584:Y *566:10 46.6332 
2 *566:10 *1585:A 42.0497 
*END

*D_NET *567 0.0011929
*CONN
*I *1586:A I *D sg13cmos5l_inv_8
*I *1585:Y O *D sg13cmos5l_inv_8
*CAP
1 *1586:A 0
2 *1585:Y 0.000299263
3 *567:10 0.000299263
4 *567:10 *723:27 0
5 *1580:A *567:10 1.54556e-05
6 *1585:A *567:10 0
7 *562:14 *567:10 0.000182525
8 *566:10 *567:10 0.000396398
*RES
1 *1585:Y *567:10 43.9449 
2 *567:10 *1586:A 40 
*END

*D_NET *568 0.00549439
*CONN
*I *1587:A I *D sg13cmos5l_inv_8
*I *1586:Y O *D sg13cmos5l_inv_8
*CAP
1 *1587:A 0
2 *1586:Y 0.00195576
3 *568:8 0.00195576
4 *568:8 *1588:A 0.000242483
5 *568:8 *1589:A 0
6 *568:8 *1591:A 0.000241716
7 *568:8 *1592:A 0
8 *568:8 *1593:A 0
9 *568:8 *1594:A 0
10 *568:8 *1595:A 0.000404308
11 *568:8 *1596:A 0.00024222
12 *568:8 *1597:A 0
13 *568:8 *1598:A 0
14 *568:8 *1599:A 0
15 *568:8 *1602:A 0.000209856
16 *568:8 *1616:A 0
17 *568:8 *570:10 0
18 *1576:A *568:8 0
19 *1577:A *568:8 0
20 *1585:A *568:8 0
21 *1600:A *568:8 0
22 *1859:A *568:8 0.000242292
23 *1860:A *568:8 0
24 *1863:A *568:8 0
25 *559:8 *568:8 0
*RES
1 *1586:Y *568:8 41.4343 
2 *568:8 *1587:A 20 
*END

*D_NET *569 0.000504542
*CONN
*I *1588:A I *D sg13cmos5l_inv_8
*I *1587:Y O *D sg13cmos5l_inv_8
*CAP
1 *1588:A 0.00013103
2 *1587:Y 0.00013103
3 *568:8 *1588:A 0.000242483
*RES
1 *1587:Y *1588:A 41.6171 
*END

*D_NET *570 0.00114613
*CONN
*I *1589:A I *D sg13cmos5l_inv_8
*I *1588:Y O *D sg13cmos5l_inv_8
*CAP
1 *1589:A 0.000303596
2 *1588:Y 0.000269467
3 *570:10 0.000573063
4 *1589:A *1616:A 0
5 *1576:A *1589:A 0
6 *559:8 *1589:A 0
7 *568:8 *1589:A 0
8 *568:8 *570:10 0
*RES
1 *1588:Y *570:10 42.3381 
2 *570:10 *1589:A 42.9149 
*END

*D_NET *571 0.000856499
*CONN
*I *1591:A I *D sg13cmos5l_inv_8
*I *1589:Y O *D sg13cmos5l_inv_8
*CAP
1 *1591:A 0.000163764
2 *1589:Y 0.000143628
3 *571:8 0.000307392
4 *1591:A *1592:A 0
5 *568:8 *1591:A 0.000241716
*RES
1 *1589:Y *571:8 41.5862 
2 *571:8 *1591:A 41.6171 
*END

*D_NET *572 0.000356807
*CONN
*I *1601:A I *D sg13cmos5l_inv_8
*I *1590:Y O *D sg13cmos5l_inv_8
*CAP
1 *1601:A 0.000178404
2 *1590:Y 0.000178404
3 *1601:A *1634:A 0
4 *198:14 *1601:A 0
5 *560:10 *1601:A 0
*RES
1 *1590:Y *1601:A 41.751 
*END

*D_NET *573 0.000340179
*CONN
*I *1592:A I *D sg13cmos5l_inv_8
*I *1591:Y O *D sg13cmos5l_inv_8
*CAP
1 *1592:A 0.000170089
2 *1591:Y 0.000170089
3 *1591:A *1592:A 0
4 *568:8 *1592:A 0
*RES
1 *1591:Y *1592:A 41.6171 
*END

*D_NET *574 0.000409102
*CONN
*I *1593:A I *D sg13cmos5l_inv_8
*I *1592:Y O *D sg13cmos5l_inv_8
*CAP
1 *1593:A 0.000204551
2 *1592:Y 0.000204551
3 *568:8 *1593:A 0
*RES
1 *1592:Y *1593:A 41.751 
*END

*D_NET *575 0.000309687
*CONN
*I *1594:A I *D sg13cmos5l_inv_8
*I *1593:Y O *D sg13cmos5l_inv_8
*CAP
1 *1594:A 0.000154843
2 *1593:Y 0.000154843
3 *568:8 *1594:A 0
*RES
1 *1593:Y *1594:A 41.6171 
*END

*D_NET *576 0.00148658
*CONN
*I *1595:A I *D sg13cmos5l_inv_8
*I *1594:Y O *D sg13cmos5l_inv_8
*CAP
1 *1595:A 0.000410722
2 *1594:Y 0.000130413
3 *576:8 0.000541135
4 *568:8 *1595:A 0.000404308
*RES
1 *1594:Y *576:8 41.5862 
2 *576:8 *1595:A 44.4805 
*END

*D_NET *577 0.000785172
*CONN
*I *1596:A I *D sg13cmos5l_inv_8
*I *1595:Y O *D sg13cmos5l_inv_8
*CAP
1 *1596:A 0.000150537
2 *1595:Y 0.000120939
3 *577:8 0.000271476
4 *1596:A *1597:A 0
5 *568:8 *1596:A 0.00024222
*RES
1 *1595:Y *577:8 41.339 
2 *577:8 *1596:A 41.6171 
*END

*D_NET *578 0.000330387
*CONN
*I *1597:A I *D sg13cmos5l_inv_8
*I *1596:Y O *D sg13cmos5l_inv_8
*CAP
1 *1597:A 0.000165193
2 *1596:Y 0.000165193
3 *1597:A *1918:A 0
4 *1596:A *1597:A 0
5 *568:8 *1597:A 0
*RES
1 *1596:Y *1597:A 41.6171 
*END

*D_NET *579 0.000312978
*CONN
*I *1598:A I *D sg13cmos5l_inv_8
*I *1597:Y O *D sg13cmos5l_inv_8
*CAP
1 *1598:A 0.000156489
2 *1597:Y 0.000156489
3 *1598:A *1918:A 0
4 *1598:A *714:6 0
5 *568:8 *1598:A 0
*RES
1 *1597:Y *1598:A 41.751 
*END

*D_NET *580 0.000402853
*CONN
*I *1599:A I *D sg13cmos5l_inv_8
*I *1598:Y O *D sg13cmos5l_inv_8
*CAP
1 *1599:A 0.000161247
2 *1598:Y 0.000161247
3 *1600:A *1599:A 8.03582e-05
4 *1860:A *1599:A 0
5 *568:8 *1599:A 0
*RES
1 *1598:Y *1599:A 41.6171 
*END

*D_NET *581 0.000503422
*CONN
*I *1602:A I *D sg13cmos5l_inv_8
*I *1600:Y O *D sg13cmos5l_inv_8
*CAP
1 *1602:A 0.000146783
2 *1600:Y 0.000146783
3 *568:8 *1602:A 0.000209856
*RES
1 *1600:Y *1602:A 41.751 
*END

*D_NET *582 0.000382072
*CONN
*I *1612:A I *D sg13cmos5l_inv_8
*I *1601:Y O *D sg13cmos5l_inv_8
*CAP
1 *1612:A 0
2 *1601:Y 7.34218e-05
3 *582:8 7.34218e-05
4 *199:10 *582:8 0
5 *562:14 *582:8 0.000235228
*RES
1 *1601:Y *582:8 41.0918 
2 *582:8 *1612:A 40 
*END

*D_NET *583 0.000497737
*CONN
*I *1603:A I *D sg13cmos5l_inv_8
*I *1602:Y O *D sg13cmos5l_inv_8
*CAP
1 *1603:A 0.000248869
2 *1602:Y 0.000248869
3 *1603:A *1604:A 0
4 *1859:A *1603:A 0
*RES
1 *1602:Y *1603:A 42.9561 
*END

*D_NET *584 0.000295577
*CONN
*I *1604:A I *D sg13cmos5l_inv_8
*I *1603:Y O *D sg13cmos5l_inv_8
*CAP
1 *1604:A 0.000147789
2 *1603:Y 0.000147789
3 *1604:A *1605:A 0
4 *1604:A *1606:A 0
5 *1604:A *1608:A 0
6 *1603:A *1604:A 0
*RES
1 *1603:Y *1604:A 41.6171 
*END

*D_NET *585 0.000665882
*CONN
*I *1605:A I *D sg13cmos5l_inv_8
*I *1604:Y O *D sg13cmos5l_inv_8
*CAP
1 *1605:A 0.000205325
2 *1604:Y 0.000127616
3 *585:8 0.000332941
4 *1605:A *1606:A 0
5 *585:8 *723:27 0
6 *1604:A *1605:A 0
*RES
1 *1604:Y *585:8 41.5862 
2 *585:8 *1605:A 42.266 
*END

*D_NET *586 0.000912768
*CONN
*I *1606:A I *D sg13cmos5l_inv_8
*I *1605:Y O *D sg13cmos5l_inv_8
*CAP
1 *1606:A 0.000335142
2 *1605:Y 0.000335142
3 *1606:A *1607:A 0.000242483
4 *1606:A *1608:A 0
5 *1604:A *1606:A 0
6 *1605:A *1606:A 0
*RES
1 *1605:Y *1606:A 43.5638 
*END

*D_NET *587 0.000504542
*CONN
*I *1607:A I *D sg13cmos5l_inv_8
*I *1606:Y O *D sg13cmos5l_inv_8
*CAP
1 *1607:A 0.00013103
2 *1606:Y 0.00013103
3 *1606:A *1607:A 0.000242483
*RES
1 *1606:Y *1607:A 41.6171 
*END

*D_NET *588 0.000694438
*CONN
*I *1608:A I *D sg13cmos5l_inv_8
*I *1607:Y O *D sg13cmos5l_inv_8
*CAP
1 *1608:A 0.000347219
2 *1607:Y 0.000347219
3 *1604:A *1608:A 0
4 *1606:A *1608:A 0
*RES
1 *1607:Y *1608:A 43.6977 
*END

*D_NET *589 0.000290577
*CONN
*I *1609:A I *D sg13cmos5l_inv_8
*I *1608:Y O *D sg13cmos5l_inv_8
*CAP
1 *1609:A 0.000145289
2 *1608:Y 0.000145289
3 *1609:A *1611:A 0
*RES
1 *1608:Y *1609:A 41.6171 
*END

*D_NET *590 0.000311779
*CONN
*I *1610:A I *D sg13cmos5l_inv_8
*I *1609:Y O *D sg13cmos5l_inv_8
*CAP
1 *1610:A 0.00015589
2 *1609:Y 0.00015589
3 *1610:A *1611:A 0
4 *1610:A *1613:A 0
*RES
1 *1609:Y *1610:A 41.751 
*END

*D_NET *591 0.000437879
*CONN
*I *1611:A I *D sg13cmos5l_inv_8
*I *1610:Y O *D sg13cmos5l_inv_8
*CAP
1 *1611:A 0.000218939
2 *1610:Y 0.000218939
3 *1611:A *1613:A 0
4 *1611:A *1615:A 0
5 *1609:A *1611:A 0
6 *1610:A *1611:A 0
*RES
1 *1610:Y *1611:A 42.4926 
*END

*D_NET *592 0.00032045
*CONN
*I *1613:A I *D sg13cmos5l_inv_8
*I *1611:Y O *D sg13cmos5l_inv_8
*CAP
1 *1613:A 0.000160225
2 *1611:Y 0.000160225
3 *1610:A *1613:A 0
4 *1611:A *1613:A 0
*RES
1 *1611:Y *1613:A 41.751 
*END

*D_NET *593 0.00032401
*CONN
*I *1623:A I *D sg13cmos5l_inv_8
*I *1612:Y O *D sg13cmos5l_inv_8
*CAP
1 *1623:A 0.000162005
2 *1612:Y 0.000162005
3 *1623:A *1634:A 0
*RES
1 *1612:Y *1623:A 41.751 
*END

*D_NET *594 0.000460764
*CONN
*I *1614:A I *D sg13cmos5l_inv_8
*I *1613:Y O *D sg13cmos5l_inv_8
*CAP
1 *1614:A 0.000230382
2 *1613:Y 0.000230382
3 *1614:A *1615:A 0
4 *1614:A *1616:A 0
*RES
1 *1613:Y *1614:A 42.2145 
*END

*D_NET *595 0.000681247
*CONN
*I *1615:A I *D sg13cmos5l_inv_8
*I *1614:Y O *D sg13cmos5l_inv_8
*CAP
1 *1615:A 0.000300582
2 *1614:Y 0.000300582
3 *1615:A *1616:A 8.00842e-05
4 *1615:A *1618:A 0
5 *1611:A *1615:A 0
6 *1614:A *1615:A 0
*RES
1 *1614:Y *1615:A 43.193 
*END

*D_NET *596 0.00129549
*CONN
*I *1616:A I *D sg13cmos5l_inv_8
*I *1615:Y O *D sg13cmos5l_inv_8
*CAP
1 *1616:A 0.000607705
2 *1615:Y 0.000607705
3 *1616:A *1617:A 0
4 *1589:A *1616:A 0
5 *1614:A *1616:A 0
6 *1615:A *1616:A 8.00842e-05
7 *559:8 *1616:A 0
8 *568:8 *1616:A 0
*RES
1 *1615:Y *1616:A 45.2092 
*END

*D_NET *597 0.000328678
*CONN
*I *1617:A I *D sg13cmos5l_inv_8
*I *1616:Y O *D sg13cmos5l_inv_8
*CAP
1 *1617:A 0.000164339
2 *1616:Y 0.000164339
3 *1617:A *1618:A 0
4 *1616:A *1617:A 0
*RES
1 *1616:Y *1617:A 41.6171 
*END

*D_NET *598 0.000436433
*CONN
*I *1618:A I *D sg13cmos5l_inv_8
*I *1617:Y O *D sg13cmos5l_inv_8
*CAP
1 *1618:A 0.000218217
2 *1617:Y 0.000218217
3 *1618:A *601:10 0
4 *1615:A *1618:A 0
5 *1617:A *1618:A 0
*RES
1 *1617:Y *1618:A 42.6162 
*END

*D_NET *599 0.000748529
*CONN
*I *1619:A I *D sg13cmos5l_inv_8
*I *1618:Y O *D sg13cmos5l_inv_8
*CAP
1 *1619:A 0.000185361
2 *1618:Y 7.0875e-05
3 *599:8 0.000256236
4 *1619:A *600:10 0
5 *559:14 *599:8 0.000236057
*RES
1 *1618:Y *599:8 41.0918 
2 *599:8 *1619:A 41.6171 
*END

*D_NET *600 0.00133946
*CONN
*I *1620:A I *D sg13cmos5l_inv_8
*I *1619:Y O *D sg13cmos5l_inv_8
*CAP
1 *1620:A 0.000184211
2 *1619:Y 0.000343823
3 *600:10 0.000528034
4 *1620:A *601:10 0
5 *1620:A *603:12 0
6 *600:10 *601:10 0.000235556
7 *600:10 *603:12 4.78356e-05
8 *1619:A *600:10 0
9 *559:14 *600:10 0
*RES
1 *1619:Y *600:10 43.4196 
2 *600:10 *1620:A 41.6171 
*END

*D_NET *601 0.000980799
*CONN
*I *1621:A I *D sg13cmos5l_inv_8
*I *1620:Y O *D sg13cmos5l_inv_8
*CAP
1 *1621:A 0
2 *1620:Y 0.000372622
3 *601:10 0.000372622
4 *1618:A *601:10 0
5 *1620:A *601:10 0
6 *559:14 *601:10 0
7 *600:10 *601:10 0.000235556
*RES
1 *1620:Y *601:10 43.4814 
2 *601:10 *1621:A 40 
*END

*D_NET *602 0.000439331
*CONN
*I *1622:A I *D sg13cmos5l_inv_8
*I *1621:Y O *D sg13cmos5l_inv_8
*CAP
1 *1622:A 0.000147987
2 *1621:Y 0.000147987
3 *1622:A *603:12 0.000143358
*RES
1 *1621:Y *1622:A 41.4008 
*END

*D_NET *603 0.00168743
*CONN
*I *1624:A I *D sg13cmos5l_inv_8
*I *1622:Y O *D sg13cmos5l_inv_8
*CAP
1 *1624:A 0
2 *1622:Y 0.000748119
3 *603:12 0.000748119
4 *1620:A *603:12 0
5 *1622:A *603:12 0.000143358
6 *559:14 *603:12 0
7 *600:10 *603:12 4.78356e-05
*RES
1 *1622:Y *603:12 46.5508 
2 *603:12 *1624:A 40 
*END

*D_NET *604 0.0009986
*CONN
*I *1634:A I *D sg13cmos5l_inv_8
*I *1623:Y O *D sg13cmos5l_inv_8
*CAP
1 *1634:A 0.0004993
2 *1623:Y 0.0004993
3 *1474:A *1634:A 0
4 *1601:A *1634:A 0
5 *1623:A *1634:A 0
6 *198:14 *1634:A 0
7 *560:10 *1634:A 0
*RES
1 *1623:Y *1634:A 45.2736 
*END

*D_NET *605 0.000335754
*CONN
*I *1625:A I *D sg13cmos5l_inv_8
*I *1624:Y O *D sg13cmos5l_inv_8
*CAP
1 *1625:A 0.000167877
2 *1624:Y 0.000167877
3 *1854:A *1625:A 0
*RES
1 *1624:Y *1625:A 41.4008 
*END

*D_NET *606 0.000470928
*CONN
*I *1626:A I *D sg13cmos5l_inv_8
*I *1625:Y O *D sg13cmos5l_inv_8
*CAP
1 *1626:A 0.000235464
2 *1625:Y 0.000235464
3 *560:10 *1626:A 0
*RES
1 *1625:Y *1626:A 42.7089 
*END

*D_NET *607 0.00052637
*CONN
*I *1627:A I *D sg13cmos5l_inv_8
*I *1626:Y O *D sg13cmos5l_inv_8
*CAP
1 *1627:A 0.000142133
2 *1626:Y 0.000142133
3 *1627:A *1628:A 0
4 *560:10 *1627:A 0.000242105
5 *565:10 *1627:A 0
*RES
1 *1626:Y *1627:A 41.6171 
*END

*D_NET *608 0.000647632
*CONN
*I *1628:A I *D sg13cmos5l_inv_8
*I *1627:Y O *D sg13cmos5l_inv_8
*CAP
1 *1628:A 0.000175055
2 *1627:Y 0.000148761
3 *608:8 0.000323816
4 *1627:A *1628:A 0
5 *560:10 *1628:A 0
6 *565:10 *1628:A 0
*RES
1 *1627:Y *608:8 41.5862 
2 *608:8 *1628:A 41.6171 
*END

*D_NET *609 0.000377012
*CONN
*I *1629:A I *D sg13cmos5l_inv_8
*I *1628:Y O *D sg13cmos5l_inv_8
*CAP
1 *1629:A 0.00014836
2 *1628:Y 0.00014836
3 *1629:A *1630:A 8.02924e-05
4 *565:10 *1629:A 0
*RES
1 *1628:Y *1629:A 41.6171 
*END

*D_NET *610 0.000762212
*CONN
*I *1630:A I *D sg13cmos5l_inv_8
*I *1629:Y O *D sg13cmos5l_inv_8
*CAP
1 *1630:A 0.000276879
2 *1629:Y 0.000276879
3 *1629:A *1630:A 8.02924e-05
4 *565:10 *1630:A 0.000128161
*RES
1 *1629:Y *1630:A 43.105 
*END

*D_NET *611 0.000784326
*CONN
*I *1631:A I *D sg13cmos5l_inv_8
*I *1630:Y O *D sg13cmos5l_inv_8
*CAP
1 *1631:A 0.000392163
2 *1630:Y 0.000392163
3 *1631:A *1632:A 0
4 *1581:A *1631:A 0
5 *565:10 *1631:A 0
*RES
1 *1630:Y *1631:A 42.6398 
*END

*D_NET *612 0.000407464
*CONN
*I *1632:A I *D sg13cmos5l_inv_8
*I *1631:Y O *D sg13cmos5l_inv_8
*CAP
1 *1632:A 0.000203732
2 *1631:Y 0.000203732
3 *1581:A *1632:A 0
4 *1631:A *1632:A 0
*RES
1 *1631:Y *1632:A 41.6171 
*END

*D_NET *613 0.000824467
*CONN
*I *1633:A I *D sg13cmos5l_inv_8
*I *1632:Y O *D sg13cmos5l_inv_8
*CAP
1 *1633:A 0.00024411
2 *1632:Y 0.000168124
3 *613:8 0.000412233
4 *1633:A *1635:A 0
5 *1581:A *1633:A 0
6 *1636:A *1633:A 0
*RES
1 *1632:Y *613:8 41.8334 
2 *613:8 *1633:A 41.0692 
*END

*D_NET *614 0.000310161
*CONN
*I *1635:A I *D sg13cmos5l_inv_8
*I *1633:Y O *D sg13cmos5l_inv_8
*CAP
1 *1635:A 0.000155081
2 *1633:Y 0.000155081
3 *1633:A *1635:A 0
4 *1636:A *1635:A 0
5 *161:10 *1635:A 0
*RES
1 *1633:Y *1635:A 41.4008 
*END

*D_NET *615 0.001966
*CONN
*I *1645:A I *D sg13cmos5l_inv_8
*I *1634:Y O *D sg13cmos5l_inv_8
*CAP
1 *1645:A 0.000179196
2 *1634:Y 0.000731302
3 *615:8 0.000910498
4 *1645:A *1668:A 0
5 *615:8 *723:27 0
6 *1909:A *1645:A 0.000145003
7 *199:10 *615:8 0
8 *562:14 *615:8 0
*RES
1 *1634:Y *615:8 46.283 
2 *615:8 *1645:A 41.6171 
*END

*D_NET *616 0.000424163
*CONN
*I *1637:A I *D sg13cmos5l_inv_8
*I *1636:Y O *D sg13cmos5l_inv_8
*CAP
1 *1637:A 0.000212081
2 *1636:Y 0.000212081
3 *1637:A *1638:A 0
4 *1869:A *1637:A 0
*RES
1 *1636:Y *1637:A 41.171 
*END

*D_NET *617 0.00030686
*CONN
*I *1638:A I *D sg13cmos5l_inv_8
*I *1637:Y O *D sg13cmos5l_inv_8
*CAP
1 *1638:A 0.00015343
2 *1637:Y 0.00015343
3 *1638:A *1639:A 0
4 *1637:A *1638:A 0
5 *1869:A *1638:A 0
*RES
1 *1637:Y *1638:A 41.4008 
*END

*D_NET *618 0.000430349
*CONN
*I *1639:A I *D sg13cmos5l_inv_8
*I *1638:Y O *D sg13cmos5l_inv_8
*CAP
1 *1639:A 0.000215175
2 *1638:Y 0.000215175
3 *1639:A *1640:A 0
4 *1638:A *1639:A 0
*RES
1 *1638:Y *1639:A 41.9982 
*END

*D_NET *619 0.000796324
*CONN
*I *1640:A I *D sg13cmos5l_inv_8
*I *1639:Y O *D sg13cmos5l_inv_8
*CAP
1 *1640:A 0.000398162
2 *1639:Y 0.000398162
3 *1640:A *1641:A 0
4 *1640:A *1642:A 0
5 *1640:A *1643:A 0
6 *1639:A *1640:A 0
*RES
1 *1639:Y *1640:A 43.5638 
*END

*D_NET *620 0.000349188
*CONN
*I *1641:A I *D sg13cmos5l_inv_8
*I *1640:Y O *D sg13cmos5l_inv_8
*CAP
1 *1641:A 0.000174594
2 *1640:Y 0.000174594
3 *1641:A *1643:A 0
4 *1640:A *1641:A 0
*RES
1 *1640:Y *1641:A 41.6171 
*END

*D_NET *621 0.000813057
*CONN
*I *1642:A I *D sg13cmos5l_inv_8
*I *1641:Y O *D sg13cmos5l_inv_8
*CAP
1 *1642:A 0.000186507
2 *1641:Y 0.000220021
3 *621:8 0.000406529
4 *1642:A *1643:A 0
5 *1640:A *1642:A 0
*RES
1 *1641:Y *621:8 42.0806 
2 *621:8 *1642:A 41.6171 
*END

*D_NET *622 0.00030752
*CONN
*I *1643:A I *D sg13cmos5l_inv_8
*I *1642:Y O *D sg13cmos5l_inv_8
*CAP
1 *1643:A 0.00015376
2 *1642:Y 0.00015376
3 *1640:A *1643:A 0
4 *1641:A *1643:A 0
5 *1642:A *1643:A 0
*RES
1 *1642:Y *1643:A 41.4008 
*END

*D_NET *623 0.00158146
*CONN
*I *1644:A I *D sg13cmos5l_inv_8
*I *1643:Y O *D sg13cmos5l_inv_8
*CAP
1 *1644:A 5.20561e-05
2 *1643:Y 0.000738675
3 *623:8 0.000790731
4 *1644:A *1647:A 0
*RES
1 *1643:Y *623:8 48.5078 
2 *623:8 *1644:A 40.5356 
*END

*D_NET *624 0.000462273
*CONN
*I *1646:A I *D sg13cmos5l_inv_8
*I *1644:Y O *D sg13cmos5l_inv_8
*CAP
1 *1646:A 0.000158725
2 *1644:Y 0.000158725
3 *1646:A *626:10 0.000144822
4 *1448:A *1646:A 0
*RES
1 *1644:Y *1646:A 41.6171 
*END

*D_NET *625 0.000363232
*CONN
*I *1656:A I *D sg13cmos5l_inv_8
*I *1645:Y O *D sg13cmos5l_inv_8
*CAP
1 *1656:A 0.000181616
2 *1645:Y 0.000181616
3 *1656:A *1668:A 0
4 *1656:A *1673:A 0
*RES
1 *1645:Y *1656:A 41.751 
*END

*D_NET *626 0.000841457
*CONN
*I *1647:A I *D sg13cmos5l_inv_8
*I *1646:Y O *D sg13cmos5l_inv_8
*CAP
1 *1647:A 4.37996e-05
2 *1646:Y 0.000264333
3 *626:10 0.000308133
4 *1448:A *1647:A 8.03692e-05
5 *1448:A *626:10 0
6 *1644:A *1647:A 0
7 *1646:A *626:10 0.000144822
*RES
1 *1646:Y *626:10 43.0179 
2 *626:10 *1647:A 40.5356 
*END

*D_NET *627 0.000333203
*CONN
*I *1648:A I *D sg13cmos5l_inv_8
*I *1647:Y O *D sg13cmos5l_inv_8
*CAP
1 *1648:A 0.000166602
2 *1647:Y 0.000166602
3 *1448:A *1648:A 0
*RES
1 *1647:Y *1648:A 41.4008 
*END

*D_NET *628 0.000604315
*CONN
*I *1649:A I *D sg13cmos5l_inv_8
*I *1648:Y O *D sg13cmos5l_inv_8
*CAP
1 *1649:A 0.000302157
2 *1648:Y 0.000302157
3 *1649:A *1650:A 0
4 *1649:A *1651:A 0
*RES
1 *1648:Y *1649:A 43.3475 
*END

*D_NET *629 0.000263697
*CONN
*I *1650:A I *D sg13cmos5l_inv_8
*I *1649:Y O *D sg13cmos5l_inv_8
*CAP
1 *1650:A 0.000131848
2 *1649:Y 0.000131848
3 *1650:A *1651:A 0
4 *1649:A *1650:A 0
*RES
1 *1649:Y *1650:A 40.5736 
*END

*D_NET *630 0.000258477
*CONN
*I *1651:A I *D sg13cmos5l_inv_8
*I *1650:Y O *D sg13cmos5l_inv_8
*CAP
1 *1651:A 0.000129238
2 *1650:Y 0.000129238
3 *1649:A *1651:A 0
4 *1650:A *1651:A 0
*RES
1 *1650:Y *1651:A 41.4008 
*END

*D_NET *631 0.000172882
*CONN
*I *1652:A I *D sg13cmos5l_inv_8
*I *1651:Y O *D sg13cmos5l_inv_8
*CAP
1 *1652:A 8.64409e-05
2 *1651:Y 8.64409e-05
*RES
1 *1651:Y *1652:A 41.0918 
*END

*D_NET *632 0.000418317
*CONN
*I *1653:A I *D sg13cmos5l_inv_8
*I *1652:Y O *D sg13cmos5l_inv_8
*CAP
1 *1653:A 0.000136687
2 *1652:Y 0.000136687
3 *1653:A *633:10 0.000144942
*RES
1 *1652:Y *1653:A 41.6171 
*END

*D_NET *633 0.000719396
*CONN
*I *1654:A I *D sg13cmos5l_inv_8
*I *1653:Y O *D sg13cmos5l_inv_8
*CAP
1 *1654:A 0
2 *1653:Y 0.000287227
3 *633:10 0.000287227
4 *1653:A *633:10 0.000144942
*RES
1 *1653:Y *633:10 43.4505 
2 *633:10 *1654:A 40 
*END

*D_NET *634 0.000256327
*CONN
*I *1655:A I *D sg13cmos5l_inv_8
*I *1654:Y O *D sg13cmos5l_inv_8
*CAP
1 *1655:A 0.000128163
2 *1654:Y 0.000128163
3 *1655:A *1658:A 0
*RES
1 *1654:Y *1655:A 41.4008 
*END

*D_NET *635 0.000917494
*CONN
*I *1658:A I *D sg13cmos5l_inv_8
*I *1655:Y O *D sg13cmos5l_inv_8
*CAP
1 *1658:A 0.000353819
2 *1655:Y 0.000353819
3 *1658:A *1659:A 0
4 *1658:A *1660:A 0.000209856
5 *1658:A *1661:A 0
6 *1655:A *1658:A 0
*RES
1 *1655:Y *1658:A 43.977 
*END

*D_NET *636 0.000934804
*CONN
*I *1668:A I *D sg13cmos5l_inv_8
*I *1656:Y O *D sg13cmos5l_inv_8
*CAP
1 *1668:A 0.000467402
2 *1656:Y 0.000467402
3 *1668:A *1672:A 0
4 *1645:A *1668:A 0
5 *1656:A *1668:A 0
6 *1909:A *1668:A 0
*RES
1 *1656:Y *1668:A 44.429 
*END

*D_NET *637 0.000172882
*CONN
*I *1681:A I *D sg13cmos5l_inv_8
*I *1657:Y O *D sg13cmos5l_inv_8
*CAP
1 *1681:A 8.64409e-05
2 *1657:Y 8.64409e-05
3 *1840:A *1681:A 0
*RES
1 *1657:Y *1681:A 41.0918 
*END

*D_NET *638 0.000283698
*CONN
*I *1659:A I *D sg13cmos5l_inv_8
*I *1658:Y O *D sg13cmos5l_inv_8
*CAP
1 *1659:A 0.000141849
2 *1658:Y 0.000141849
3 *1659:A *1660:A 0
4 *1659:A *1661:A 0
5 *1658:A *1659:A 0
*RES
1 *1658:Y *1659:A 41.4008 
*END

*D_NET *639 0.00084806
*CONN
*I *1660:A I *D sg13cmos5l_inv_8
*I *1659:Y O *D sg13cmos5l_inv_8
*CAP
1 *1660:A 0.000319102
2 *1659:Y 0.000319102
3 *1660:A *1661:A 0
4 *1509:A *1660:A 0
5 *1658:A *1660:A 0.000209856
6 *1659:A *1660:A 0
*RES
1 *1659:Y *1660:A 43.5638 
*END

*D_NET *640 0.0013701
*CONN
*I *1661:A I *D sg13cmos5l_inv_8
*I *1660:Y O *D sg13cmos5l_inv_8
*CAP
1 *1661:A 0.000504852
2 *1660:Y 0.000172497
3 *640:8 0.000677349
4 *1436:A *1661:A 1.54008e-05
5 *1658:A *1661:A 0
6 *1659:A *1661:A 0
7 *1660:A *1661:A 0
*RES
1 *1660:Y *640:8 42.0806 
2 *640:8 *1661:A 45.5105 
*END

*D_NET *641 0.00131257
*CONN
*I *1662:A I *D sg13cmos5l_inv_8
*I *1661:Y O *D sg13cmos5l_inv_8
*CAP
1 *1662:A 0.000326984
2 *1661:Y 0.000329303
3 *641:8 0.000656287
4 *1662:A *1663:A 0
5 *1662:A *1664:A 0
*RES
1 *1661:Y *641:8 43.5638 
2 *641:8 *1662:A 43.3475 
*END

*D_NET *642 0.00027282
*CONN
*I *1663:A I *D sg13cmos5l_inv_8
*I *1662:Y O *D sg13cmos5l_inv_8
*CAP
1 *1663:A 0.00013641
2 *1662:Y 0.00013641
3 *1663:A *1664:A 0
4 *1663:A *1665:A 0
5 *1662:A *1663:A 0
*RES
1 *1662:Y *1663:A 41.4008 
*END

*D_NET *643 0.000646172
*CONN
*I *1664:A I *D sg13cmos5l_inv_8
*I *1663:Y O *D sg13cmos5l_inv_8
*CAP
1 *1664:A 0.000150589
2 *1663:Y 0.000172497
3 *643:8 0.000323086
4 *1664:A *1665:A 0
5 *1664:A *1666:A 0
6 *1662:A *1664:A 0
7 *1663:A *1664:A 0
*RES
1 *1663:Y *643:8 42.0806 
2 *643:8 *1664:A 41.6171 
*END

*D_NET *644 0.000260012
*CONN
*I *1665:A I *D sg13cmos5l_inv_8
*I *1664:Y O *D sg13cmos5l_inv_8
*CAP
1 *1665:A 0.000130006
2 *1664:Y 0.000130006
3 *1665:A *1666:A 0
4 *1663:A *1665:A 0
5 *1664:A *1665:A 0
*RES
1 *1664:Y *1665:A 41.4008 
*END

*D_NET *645 0.000652786
*CONN
*I *1666:A I *D sg13cmos5l_inv_8
*I *1665:Y O *D sg13cmos5l_inv_8
*CAP
1 *1666:A 0.000326393
2 *1665:Y 0.000326393
3 *1666:A *1669:A 0
4 *1666:A *1670:A 0
5 *1536:A *1666:A 0
6 *1664:A *1666:A 0
7 *1665:A *1666:A 0
*RES
1 *1665:Y *1666:A 43.8522 
*END

*D_NET *646 0.000422118
*CONN
*I *1667:A I *D sg13cmos5l_inv_8
*I *1666:Y O *D sg13cmos5l_inv_8
*CAP
1 *1667:A 0.000138588
2 *1666:Y 0.000138588
3 *1667:A *1669:A 0.000144942
4 *1517:A *1667:A 0
5 *1793:A *1667:A 0
6 *85:8 *1667:A 0
*RES
1 *1666:Y *1667:A 41.6171 
*END

*D_NET *647 0.000845934
*CONN
*I *1669:A I *D sg13cmos5l_inv_8
*I *1667:Y O *D sg13cmos5l_inv_8
*CAP
1 *1669:A 0.000350496
2 *1667:Y 0.000350496
3 *1669:A *1670:A 0
4 *1666:A *1669:A 0
5 *1667:A *1669:A 0.000144942
6 *85:8 *1669:A 0
*RES
1 *1667:Y *1669:A 44.1509 
*END

*D_NET *648 0.000478003
*CONN
*I *1672:A I *D sg13cmos5l_inv_8
*I *1668:Y O *D sg13cmos5l_inv_8
*CAP
1 *1672:A 0.000239002
2 *1668:Y 0.000239002
3 *1672:A *1674:A 0
4 *1668:A *1672:A 0
*RES
1 *1668:Y *1672:A 42.8119 
*END

*D_NET *649 0.0009248
*CONN
*I *1670:A I *D sg13cmos5l_inv_8
*I *1669:Y O *D sg13cmos5l_inv_8
*CAP
1 *1670:A 0.000292558
2 *1669:Y 0.000292558
3 *1666:A *1670:A 0
4 *1669:A *1670:A 0
5 *85:8 *1670:A 0.000339683
*RES
1 *1669:Y *1670:A 43.605 
*END

*D_NET *650 0.000515748
*CONN
*I *1671:A I *D sg13cmos5l_inv_8
*I *1670:Y O *D sg13cmos5l_inv_8
*CAP
1 *1671:A 0.000136718
2 *1670:Y 0.000136718
3 *1671:A *1845:B 0
4 *392:16 *1671:A 0.000242313
*RES
1 *1670:Y *1671:A 41.6171 
*END

*D_NET *651 0.00420456
*CONN
*I *1201:A I *D sg13cmos5l_nand2_1
*I *1671:Y O *D sg13cmos5l_inv_8
*CAP
1 *1201:A 0
2 *1671:Y 6.31739e-05
3 *651:14 0.000795285
4 *651:8 0.000858459
5 *651:14 *1201:B 0
6 *651:14 *712:8 0
7 *1399:A *651:14 0.000144308
8 *1404:A *651:14 0.00130508
9 *387:10 *651:14 0.00103825
10 *392:16 *651:8 0
11 *392:16 *651:14 0
*RES
1 *1671:Y *651:8 40.5356 
2 *651:8 *651:14 31.2064 
3 *651:14 *1201:A 20 
*END

*D_NET *652 0.000358618
*CONN
*I *1673:A I *D sg13cmos5l_inv_8
*I *1672:Y O *D sg13cmos5l_inv_8
*CAP
1 *1673:A 0.000179309
2 *1672:Y 0.000179309
3 *1673:A *1674:A 0
4 *1673:A *1675:A 0
5 *1656:A *1673:A 0
*RES
1 *1672:Y *1673:A 41.751 
*END

*D_NET *653 0.000645692
*CONN
*I *1674:A I *D sg13cmos5l_inv_8
*I *1673:Y O *D sg13cmos5l_inv_8
*CAP
1 *1674:A 0.00025043
2 *1673:Y 0.00025043
3 *1674:A *1675:A 0.000144833
4 *1672:A *1674:A 0
5 *1673:A *1674:A 0
*RES
1 *1673:Y *1674:A 42.4926 
*END

*D_NET *654 0.00127779
*CONN
*I *1675:A I *D sg13cmos5l_inv_8
*I *1674:Y O *D sg13cmos5l_inv_8
*CAP
1 *1675:A 0.000558748
2 *1674:Y 0.000558748
3 *1675:A *1676:A 0
4 *1675:A *1677:A 1.54556e-05
5 *1673:A *1675:A 0
6 *1674:A *1675:A 0.000144833
*RES
1 *1674:Y *1675:A 46.3448 
*END

*D_NET *655 0.000567637
*CONN
*I *1676:A I *D sg13cmos5l_inv_8
*I *1675:Y O *D sg13cmos5l_inv_8
*CAP
1 *1676:A 0.000178995
2 *1675:Y 0.000178995
3 *1676:A *1677:A 0.000209648
4 *1675:A *1676:A 0
*RES
1 *1675:Y *1676:A 41.9982 
*END

*D_NET *656 0.00112927
*CONN
*I *1677:A I *D sg13cmos5l_inv_8
*I *1676:Y O *D sg13cmos5l_inv_8
*CAP
1 *1677:A 0.000314829
2 *1676:Y 0.000314829
3 *1677:A *1678:A 0.000274507
4 *1677:A *1679:A 0
5 *1675:A *1677:A 1.54556e-05
6 *1676:A *1677:A 0.000209648
*RES
1 *1676:Y *1677:A 43.605 
*END

*D_NET *657 0.00151478
*CONN
*I *1678:A I *D sg13cmos5l_inv_8
*I *1677:Y O *D sg13cmos5l_inv_8
*CAP
1 *1678:A 0.000612434
2 *1677:Y 0.000612434
3 *1678:A *1679:A 0
4 *1678:A *1682:A 0
5 *1678:A *1683:A 1.54008e-05
6 *1677:A *1678:A 0.000274507
*RES
1 *1677:Y *1678:A 46.0376 
*END

*D_NET *658 0.000399026
*CONN
*I *1679:A I *D sg13cmos5l_inv_8
*I *1678:Y O *D sg13cmos5l_inv_8
*CAP
1 *1679:A 0.000199513
2 *1678:Y 0.000199513
3 *1679:A *659:10 0
4 *1677:A *1679:A 0
5 *1678:A *1679:A 0
6 *1910:A *1679:A 0
*RES
1 *1678:Y *1679:A 42.2145 
*END

*D_NET *659 0.000964231
*CONN
*I *1680:A I *D sg13cmos5l_inv_8
*I *1679:Y O *D sg13cmos5l_inv_8
*CAP
1 *1680:A 0
2 *1679:Y 0.000482116
3 *659:10 0.000482116
4 *659:10 *678:12 0
5 *1679:A *659:10 0
6 *1910:A *659:10 0
*RES
1 *1679:Y *659:10 44.5938 
2 *659:10 *1680:A 40 
*END

*D_NET *660 0.00130454
*CONN
*I *1682:A I *D sg13cmos5l_inv_8
*I *1680:Y O *D sg13cmos5l_inv_8
*CAP
1 *1682:A 0.000483068
2 *1680:Y 0.000483068
3 *1682:A *1683:A 0
4 *1682:A *1684:A 0.000338398
5 *1678:A *1682:A 0
*RES
1 *1680:Y *1682:A 45.2839 
*END

*D_NET *661 0.00039897
*CONN
*I *1692:A I *D sg13cmos5l_inv_8
*I *1681:Y O *D sg13cmos5l_inv_8
*CAP
1 *1692:A 0.000199485
2 *1681:Y 0.000199485
3 *1692:A *1703:A 0
4 *1253:A *1692:A 0
5 *65:10 *1692:A 0
*RES
1 *1681:Y *1692:A 42.3175 
*END

*D_NET *662 0.000735598
*CONN
*I *1683:A I *D sg13cmos5l_inv_8
*I *1682:Y O *D sg13cmos5l_inv_8
*CAP
1 *1683:A 0.000360099
2 *1682:Y 0.000360099
3 *1683:A *1684:A 0
4 *1678:A *1683:A 1.54008e-05
5 *1682:A *1683:A 0
*RES
1 *1682:Y *1683:A 43.605 
*END

*D_NET *663 0.00148654
*CONN
*I *1684:A I *D sg13cmos5l_inv_8
*I *1683:Y O *D sg13cmos5l_inv_8
*CAP
1 *1684:A 0.00057407
2 *1683:Y 0.00057407
3 *1684:A *1689:A 0
4 *1684:A *1712:A 0
5 *1682:A *1684:A 0.000338398
6 *1683:A *1684:A 0
*RES
1 *1683:Y *1684:A 45.768 
*END

*D_NET *664 0.00035258
*CONN
*I *1685:A I *D sg13cmos5l_inv_8
*I *1684:Y O *D sg13cmos5l_inv_8
*CAP
1 *1685:A 0.00017629
2 *1684:Y 0.00017629
3 *1687:A *1685:A 0
*RES
1 *1684:Y *1685:A 41.9982 
*END

*D_NET *665 0.000333845
*CONN
*I *1686:A I *D sg13cmos5l_inv_8
*I *1685:Y O *D sg13cmos5l_inv_8
*CAP
1 *1686:A 0.000166923
2 *1685:Y 0.000166923
3 *1686:A *1688:A 0
4 *1687:A *1686:A 0
*RES
1 *1685:Y *1686:A 41.6171 
*END

*D_NET *666 0.00044588
*CONN
*I *1688:A I *D sg13cmos5l_inv_8
*I *1687:Y O *D sg13cmos5l_inv_8
*CAP
1 *1688:A 0.000150482
2 *1687:Y 0.000150482
3 *1688:A *1689:A 0.000144915
4 *1688:A *1690:A 0
5 *1686:A *1688:A 0
*RES
1 *1687:Y *1688:A 41.6171 
*END

*D_NET *667 0.000889159
*CONN
*I *1689:A I *D sg13cmos5l_inv_8
*I *1688:Y O *D sg13cmos5l_inv_8
*CAP
1 *1689:A 0.000372122
2 *1688:Y 0.000372122
3 *1684:A *1689:A 0
4 *1687:A *1689:A 0
5 *1688:A *1689:A 0.000144915
*RES
1 *1688:Y *1689:A 44.2951 
*END

*D_NET *668 0.000326629
*CONN
*I *1690:A I *D sg13cmos5l_inv_8
*I *1689:Y O *D sg13cmos5l_inv_8
*CAP
1 *1690:A 0.000163314
2 *1689:Y 0.000163314
3 *1690:A *1691:A 0
4 *1690:A *1693:A 0
5 *1688:A *1690:A 0
*RES
1 *1689:Y *1690:A 41.6171 
*END

*D_NET *669 0.00119343
*CONN
*I *1691:A I *D sg13cmos5l_inv_8
*I *1690:Y O *D sg13cmos5l_inv_8
*CAP
1 *1691:A 0.000164452
2 *1690:Y 0.000154311
3 *669:8 0.000318762
4 *1691:A *1693:A 0
5 *1691:A *1702:A 0
6 *669:8 *673:12 0.000555909
7 *1690:A *1691:A 0
*RES
1 *1690:Y *669:8 42.575 
2 *669:8 *1691:A 41.6171 
*END

*D_NET *670 0.000353559
*CONN
*I *1693:A I *D sg13cmos5l_inv_8
*I *1691:Y O *D sg13cmos5l_inv_8
*CAP
1 *1693:A 0.00017678
2 *1691:Y 0.00017678
3 *1690:A *1693:A 0
4 *1691:A *1693:A 0
*RES
1 *1691:Y *1693:A 41.6171 
*END

*D_NET *671 0.00030498
*CONN
*I *1703:A I *D sg13cmos5l_inv_8
*I *1692:Y O *D sg13cmos5l_inv_8
*CAP
1 *1703:A 0.00015249
2 *1692:Y 0.00015249
3 *1692:A *1703:A 0
*RES
1 *1692:Y *1703:A 41.6171 
*END

*D_NET *672 0.000436031
*CONN
*I *1694:A I *D sg13cmos5l_inv_8
*I *1693:Y O *D sg13cmos5l_inv_8
*CAP
1 *1694:A 0
2 *1693:Y 0.000218015
3 *672:8 0.000218015
4 *672:8 *673:12 0
*RES
1 *1693:Y *672:8 42.0806 
2 *672:8 *1694:A 40 
*END

*D_NET *673 0.00410774
*CONN
*I *1695:A I *D sg13cmos5l_inv_8
*I *1694:Y O *D sg13cmos5l_inv_8
*CAP
1 *1695:A 0
2 *1694:Y 0
3 *673:12 0.00131177
4 *673:6 0.00131177
5 *1687:A *673:12 0.000480193
6 *1891:A *673:12 0.000448099
7 *1894:A *673:12 0
8 *183:14 *673:12 0
9 *669:8 *673:12 0.000555909
10 *672:8 *673:12 0
*RES
1 *1694:Y *673:6 40 
2 *673:6 *673:12 36.7066 
3 *673:12 *1695:A 20 
*END

*D_NET *674 0.00362352
*CONN
*I *1696:A I *D sg13cmos5l_inv_8
*I *1695:Y O *D sg13cmos5l_inv_8
*CAP
1 *1696:A 0
2 *1695:Y 0
3 *674:12 0.00181176
4 *674:6 0.00181176
5 *1310:A *674:12 0
6 *1311:A *674:12 0
7 *1313:A *674:12 0
8 *1314:A *674:12 0
9 *1315:A *674:12 0
10 *54:10 *674:12 0
11 *59:10 *674:12 0
12 *183:14 *674:12 0
13 *293:10 *674:12 0
14 *295:8 *674:12 0
15 *300:8 *674:12 0
*RES
1 *1695:Y *674:6 40 
2 *674:6 *674:12 38.8126 
3 *674:12 *1696:A 20 
*END

*D_NET *675 0.0048169
*CONN
*I *1697:A I *D sg13cmos5l_inv_8
*I *1696:Y O *D sg13cmos5l_inv_8
*CAP
1 *1697:A 0
2 *1696:Y 0.000558934
3 *675:12 0.000984978
4 *675:8 0.00154391
5 *675:8 *700:14 0.00172908
6 *675:12 *1698:A 0
7 *675:12 *1911:B 0
8 *1296:A *675:12 0
9 *1557:A *675:12 0
10 *1568:A *675:12 0
11 *1822:A *675:12 0
12 *1911:A *675:12 0
13 *59:10 *675:8 0
14 *194:12 *675:12 0
15 *562:14 *675:12 0
*RES
1 *1696:Y *675:8 48.0134 
2 *675:8 *675:12 30.0528 
3 *675:12 *1697:A 20 
*END

*D_NET *676 0.00128182
*CONN
*I *1698:A I *D sg13cmos5l_inv_8
*I *1697:Y O *D sg13cmos5l_inv_8
*CAP
1 *1698:A 0.000616981
2 *1697:Y 0.000616981
3 *1557:A *1698:A 0
4 *1568:A *1698:A 0
5 *1579:A *1698:A 4.78556e-05
6 *1903:A *1698:A 0
7 *565:10 *1698:A 0
8 *675:12 *1698:A 0
*RES
1 *1697:Y *1698:A 46.7362 
*END

*D_NET *677 0.00127119
*CONN
*I *1699:A I *D sg13cmos5l_inv_8
*I *1698:Y O *D sg13cmos5l_inv_8
*CAP
1 *1699:A 0
2 *1698:Y 0.000278551
3 *677:8 0.000278551
4 *194:12 *677:8 0
5 *202:8 *677:8 0.000714089
6 *565:18 *677:8 0
*RES
1 *1698:Y *677:8 44.3054 
2 *677:8 *1699:A 40 
*END

*D_NET *678 0.0022853
*CONN
*I *1700:A I *D sg13cmos5l_inv_8
*I *1699:Y O *D sg13cmos5l_inv_8
*CAP
1 *1700:A 0
2 *1699:Y 0
3 *678:12 0.00114265
4 *678:6 0.00114265
5 *678:12 *1701:A 0
6 *201:8 *678:12 0
7 *565:18 *678:12 0
8 *659:10 *678:12 0
*RES
1 *1699:Y *678:6 40 
2 *678:6 *678:12 32.3806 
3 *678:12 *1700:A 20 
*END

*D_NET *679 0.00175489
*CONN
*I *1701:A I *D sg13cmos5l_inv_8
*I *1700:Y O *D sg13cmos5l_inv_8
*CAP
1 *1701:A 0.000756377
2 *1700:Y 0.000756377
3 *1701:A *1705:A 0
4 *1701:A *1707:A 0
5 *1701:A *1708:A 0.000242138
6 *1701:A *1709:A 0
7 *1701:A *1710:A 0
8 *1701:A *1711:A 0
9 *678:12 *1701:A 0
*RES
1 *1700:Y *1701:A 47.4572 
*END

*D_NET *680 0.000392215
*CONN
*I *1702:A I *D sg13cmos5l_inv_8
*I *1701:Y O *D sg13cmos5l_inv_8
*CAP
1 *1702:A 0.000196108
2 *1701:Y 0.000196108
3 *1702:A *1704:A 0
4 *1691:A *1702:A 0
*RES
1 *1701:Y *1702:A 42.2454 
*END

*D_NET *681 0.00027772
*CONN
*I *1704:A I *D sg13cmos5l_inv_8
*I *1702:Y O *D sg13cmos5l_inv_8
*CAP
1 *1704:A 0.00013886
2 *1702:Y 0.00013886
3 *1702:A *1704:A 0
*RES
1 *1702:Y *1704:A 41.4008 
*END

*D_NET *682 0.000172882
*CONN
*I *1714:A I *D sg13cmos5l_inv_8
*I *1703:Y O *D sg13cmos5l_inv_8
*CAP
1 *1714:A 8.64409e-05
2 *1703:Y 8.64409e-05
*RES
1 *1703:Y *1714:A 41.0918 
*END

*D_NET *683 0.000294319
*CONN
*I *1705:A I *D sg13cmos5l_inv_8
*I *1704:Y O *D sg13cmos5l_inv_8
*CAP
1 *1705:A 0.000147159
2 *1704:Y 0.000147159
3 *1701:A *1705:A 0
*RES
1 *1704:Y *1705:A 41.6171 
*END

*D_NET *684 0.000320013
*CONN
*I *1706:A I *D sg13cmos5l_inv_8
*I *1705:Y O *D sg13cmos5l_inv_8
*CAP
1 *1706:A 0.000160006
2 *1705:Y 0.000160006
*RES
1 *1705:Y *1706:A 41.4008 
*END

*D_NET *685 0.000312548
*CONN
*I *1707:A I *D sg13cmos5l_inv_8
*I *1706:Y O *D sg13cmos5l_inv_8
*CAP
1 *1707:A 0.000156274
2 *1706:Y 0.000156274
3 *1707:A *1708:A 0
4 *1701:A *1707:A 0
*RES
1 *1706:Y *1707:A 41.6171 
*END

*D_NET *686 0.00083365
*CONN
*I *1708:A I *D sg13cmos5l_inv_8
*I *1707:Y O *D sg13cmos5l_inv_8
*CAP
1 *1708:A 0.000145294
2 *1707:Y 0.000150463
3 *686:8 0.000295756
4 *1701:A *1708:A 0.000242138
5 *1707:A *1708:A 0
6 *565:18 *686:8 0
*RES
1 *1707:Y *686:8 41.8334 
2 *686:8 *1708:A 41.6171 
*END

*D_NET *687 0.000428756
*CONN
*I *1709:A I *D sg13cmos5l_inv_8
*I *1708:Y O *D sg13cmos5l_inv_8
*CAP
1 *1709:A 0.000141907
2 *1708:Y 0.000141907
3 *1709:A *1710:A 0.000144942
4 *1701:A *1709:A 0
*RES
1 *1708:Y *1709:A 41.6171 
*END

*D_NET *688 0.000889618
*CONN
*I *1710:A I *D sg13cmos5l_inv_8
*I *1709:Y O *D sg13cmos5l_inv_8
*CAP
1 *1710:A 0.000372338
2 *1709:Y 0.000372338
3 *1710:A *1712:A 0
4 *1701:A *1710:A 0
5 *1709:A *1710:A 0.000144942
*RES
1 *1709:Y *1710:A 43.3475 
*END

*D_NET *689 0.00058856
*CONN
*I *1711:A I *D sg13cmos5l_inv_8
*I *1710:Y O *D sg13cmos5l_inv_8
*CAP
1 *1711:A 0.00029428
2 *1710:Y 0.00029428
3 *1711:A *1712:A 0
4 *1701:A *1711:A 0
*RES
1 *1710:Y *1711:A 43.2033 
*END

*D_NET *690 0.00042949
*CONN
*I *1712:A I *D sg13cmos5l_inv_8
*I *1711:Y O *D sg13cmos5l_inv_8
*CAP
1 *1712:A 0.000214745
2 *1711:Y 0.000214745
3 *1684:A *1712:A 0
4 *1710:A *1712:A 0
5 *1711:A *1712:A 0
*RES
1 *1711:Y *1712:A 41.9673 
*END

*D_NET *691 0.00105618
*CONN
*I *1713:A I *D sg13cmos5l_inv_8
*I *1712:Y O *D sg13cmos5l_inv_8
*CAP
1 *1713:A 0.000167756
2 *1712:Y 0.000360332
3 *691:8 0.000528088
4 *1713:A *1715:A 0
*RES
1 *1712:Y *691:8 44.0582 
2 *691:8 *1713:A 41.6171 
*END

*D_NET *692 0.000321091
*CONN
*I *1715:A I *D sg13cmos5l_inv_8
*I *1713:Y O *D sg13cmos5l_inv_8
*CAP
1 *1715:A 0.000160546
2 *1713:Y 0.000160546
3 *1713:A *1715:A 0
*RES
1 *1713:Y *1715:A 41.6171 
*END

*D_NET *693 0.00066293
*CONN
*I *1725:A I *D sg13cmos5l_inv_8
*I *1714:Y O *D sg13cmos5l_inv_8
*CAP
1 *1725:A 0.000331465
2 *1714:Y 0.000331465
3 *1725:A *1224:A 0
4 *1235:A *1725:A 0
5 *1246:A *1725:A 0
*RES
1 *1714:Y *1725:A 43.3475 
*END

*D_NET *694 0.00127344
*CONN
*I *1716:A I *D sg13cmos5l_inv_8
*I *1715:Y O *D sg13cmos5l_inv_8
*CAP
1 *1716:A 0.000164764
2 *1715:Y 0.000471956
3 *694:8 0.00063672
4 *1716:A *1717:A 0
5 *191:8 *694:8 0
*RES
1 *1715:Y *694:8 44.3054 
2 *694:8 *1716:A 41.4008 
*END

*D_NET *695 0.000296538
*CONN
*I *1717:A I *D sg13cmos5l_inv_8
*I *1716:Y O *D sg13cmos5l_inv_8
*CAP
1 *1717:A 0.000148269
2 *1716:Y 0.000148269
3 *1717:A *1719:A 0
4 *1716:A *1717:A 0
*RES
1 *1716:Y *1717:A 41.4008 
*END

*D_NET *696 0.000510758
*CONN
*I *1718:A I *D sg13cmos5l_inv_8
*I *1717:Y O *D sg13cmos5l_inv_8
*CAP
1 *1718:A 0.000255379
2 *1717:Y 0.000255379
3 *1718:A *1719:A 0
4 *186:8 *1718:A 0
*RES
1 *1717:Y *1718:A 41.8817 
*END

*D_NET *697 0.000337259
*CONN
*I *1719:A I *D sg13cmos5l_inv_8
*I *1718:Y O *D sg13cmos5l_inv_8
*CAP
1 *1719:A 0.00016863
2 *1718:Y 0.00016863
3 *1719:A *718:10 0
4 *1717:A *1719:A 0
5 *1718:A *1719:A 0
*RES
1 *1718:Y *1719:A 41.6171 
*END

*D_NET *698 0.000172882
*CONN
*I *1720:A I *D sg13cmos5l_inv_8
*I *1719:Y O *D sg13cmos5l_inv_8
*CAP
1 *1720:A 8.64409e-05
2 *1719:Y 8.64409e-05
3 *1904:A *1720:A 0
*RES
1 *1719:Y *1720:A 41.0918 
*END

*D_NET *699 0.000320013
*CONN
*I *1721:A I *D sg13cmos5l_inv_8
*I *1720:Y O *D sg13cmos5l_inv_8
*CAP
1 *1721:A 0.000160006
2 *1720:Y 0.000160006
3 *1721:A *700:8 0
*RES
1 *1720:Y *1721:A 41.4008 
*END

*D_NET *700 0.00609837
*CONN
*I *1723:A I *D sg13cmos5l_inv_8
*I *1722:Y O *D sg13cmos5l_inv_8
*CAP
1 *1723:A 0
2 *1722:Y 0.000241079
3 *700:14 0.00120833
4 *700:8 0.00144941
5 *700:14 *701:10 0.000241116
6 *1721:A *700:8 0
7 *1722:A *700:8 8.0194e-05
8 *1900:A *700:8 0
9 *1902:A *700:8 0.000273562
10 *55:10 *700:14 0
11 *58:10 *700:14 0
12 *59:10 *700:14 0
13 *194:12 *700:8 0
14 *286:10 *700:14 0.000875588
15 *675:8 *700:14 0.00172908
*RES
1 *1722:Y *700:8 42.4823 
2 *700:8 *700:14 35.7487 
3 *700:14 *1723:A 20 
*END

*D_NET *701 0.00266565
*CONN
*I *1724:A I *D sg13cmos5l_inv_8
*I *1723:Y O *D sg13cmos5l_inv_8
*CAP
1 *1724:A 0.000137401
2 *1723:Y 0.000850664
3 *701:10 0.000988065
4 *1724:A *1214:A 0
5 *1761:A *701:10 0
6 *58:10 *701:10 0
7 *59:10 *701:10 0.000448401
8 *700:14 *701:10 0.000241116
*RES
1 *1723:Y *701:10 46.2933 
2 *701:10 *1724:A 41.1845 
*END

*D_NET *702 0.000292295
*CONN
*I *1214:A I *D sg13cmos5l_inv_8
*I *1724:Y O *D sg13cmos5l_inv_8
*CAP
1 *1214:A 0.000146148
2 *1724:Y 0.000146148
3 *1216:A *1214:A 0
4 *1724:A *1214:A 0
*RES
1 *1724:Y *1214:A 41.6171 
*END

*D_NET *703 0.000378504
*CONN
*I *1224:A I *D sg13cmos5l_inv_8
*I *1725:Y O *D sg13cmos5l_inv_8
*CAP
1 *1224:A 0.000189252
2 *1725:Y 0.000189252
3 *1235:A *1224:A 0
4 *1246:A *1224:A 0
5 *1725:A *1224:A 0
*RES
1 *1725:Y *1224:A 41.751 
*END

*D_NET *704 0.000397898
*CONN
*I *1735:B I *D sg13cmos5l_nand2_1
*I *1736:L_LO O *D sg13cmos5l_tielo
*CAP
1 *1735:B 0.000198949
2 *1736:L_LO 0.000198949
*RES
1 *1736:L_LO *1735:B 41.4008 
*END

*D_NET *705 0.000408564
*CONN
*I *1208:A I *D sg13cmos5l_inv_1
*I *1913:X O *D sg13cmos5l_buf_1
*CAP
1 *1208:A 0.000204282
2 *1913:X 0.000204282
3 *1744:A *1208:A 0
4 *15:10 *1208:A 0
*RES
1 *1913:X *1208:A 41.9982 
*END

*D_NET *706 0.00709308
*CONN
*I *1779:B I *D sg13cmos5l_nand2_1
*I *1780:L_LO O *D sg13cmos5l_tielo
*CAP
1 *1779:B 0
2 *1780:L_LO 0.000934531
3 *706:20 0.0011672
4 *706:16 0.00210174
5 *1252:A *706:20 0.000242313
6 *1772:A *706:16 0
7 *1773:A *706:20 0.000241886
8 *1778:A *706:20 0
9 *22:24 *706:16 0.000932501
10 *61:20 *706:16 0.000453047
11 *63:12 *706:16 0
12 *65:10 *706:20 0.000889331
13 *67:12 *706:20 0
14 *345:10 *706:16 0
15 *357:20 *706:16 0.000130532
*RES
1 *1780:L_LO *706:16 49.5996 
2 *706:16 *706:20 32.2158 
3 *706:20 *1779:B 20 
*END

*D_NET *707 0.000708674
*CONN
*I *1790:B I *D sg13cmos5l_nand2_1
*I *1791:L_LO O *D sg13cmos5l_tielo
*CAP
1 *1790:B 0.000354337
2 *1791:L_LO 0.000354337
*RES
1 *1791:L_LO *1790:B 42.6986 
*END

*D_NET *708 0.00147535
*CONN
*I *1801:B I *D sg13cmos5l_nand2_1
*I *1802:L_LO O *D sg13cmos5l_tielo
*CAP
1 *1801:B 0.000495293
2 *1802:L_LO 0.000495293
3 *1418:A *1801:B 0
4 *1419:A *1801:B 0.000242281
5 *1420:A *1801:B 0.000242483
6 *1421:A *1801:B 0
7 *1801:A *1801:B 0
*RES
1 *1802:L_LO *1801:B 45.5208 
*END

*D_NET *709 0.000871998
*CONN
*I *1812:B I *D sg13cmos5l_nand2_1
*I *1813:L_LO O *D sg13cmos5l_tielo
*CAP
1 *1812:B 0
2 *1813:L_LO 0.000435999
3 *709:10 0.000435999
4 *1809:A *709:10 0
5 *1810:A *709:10 0
*RES
1 *1813:L_LO *709:10 45.0264 
2 *709:10 *1812:B 40 
*END

*D_NET *710 0.000962823
*CONN
*I *1823:B I *D sg13cmos5l_nand2_1
*I *1824:L_LO O *D sg13cmos5l_tielo
*CAP
1 *1823:B 0
2 *1824:L_LO 0.000256489
3 *710:10 0.000256489
4 *710:10 *723:27 0.000449845
*RES
1 *1824:L_LO *710:10 43.4814 
2 *710:10 *1823:B 40 
*END

*D_NET *711 0.00111111
*CONN
*I *1834:B I *D sg13cmos5l_nand2_1
*I *1835:L_LO O *D sg13cmos5l_tielo
*CAP
1 *1834:B 0.000355038
2 *1835:L_LO 0.000355038
3 *1832:A *1834:B 0.00020901
4 *1833:A *1834:B 0.000112749
5 *125:10 *1834:B 7.92788e-05
*RES
1 *1835:L_LO *1834:B 43.7904 
*END

*D_NET *712 0.00192865
*CONN
*I *1845:B I *D sg13cmos5l_nand2_1
*I *1846:L_LO O *D sg13cmos5l_tielo
*CAP
1 *1845:B 0.000368292
2 *1846:L_LO 0.000175638
3 *712:8 0.000543929
4 *1531:A *1845:B 0.000209747
5 *1671:A *1845:B 0
6 *1840:A *1845:B 0.000631049
7 *1843:A *1845:B 0
8 *392:16 *1845:B 0
9 *651:14 *712:8 0
*RES
1 *1846:L_LO *712:8 41.5862 
2 *712:8 *1845:B 44.429 
*END

*D_NET *713 0.00197585
*CONN
*I *1856:B I *D sg13cmos5l_nand2_1
*I *1857:L_LO O *D sg13cmos5l_tielo
*CAP
1 *1856:B 0.00027234
2 *1857:L_LO 0.000715582
3 *713:8 0.000987923
4 *1570:A *1856:B 0
5 *1848:A *1856:B 0
6 *1849:A *1856:B 0
7 *1856:A *1856:B 0
8 *139:8 *713:8 0
*RES
1 *1857:L_LO *713:8 49.0022 
2 *713:8 *1856:B 42.6986 
*END

*D_NET *714 0.00253844
*CONN
*I *1867:B I *D sg13cmos5l_nand2_1
*I *1868:L_LO O *D sg13cmos5l_tielo
*CAP
1 *1867:B 0
2 *1868:L_LO 0.00115966
3 *714:6 0.00115966
4 *714:6 *1918:A 0
5 *1598:A *714:6 0
6 *1860:A *714:6 0
7 *1861:A *714:6 0
8 *1862:A *714:6 0
9 *1867:A *714:6 0.000219129
*RES
1 *1868:L_LO *714:6 30.4854 
2 *714:6 *1867:B 20 
*END

*D_NET *715 0.000184422
*CONN
*I *1878:B I *D sg13cmos5l_nand2_1
*I *1879:L_LO O *D sg13cmos5l_tielo
*CAP
1 *1878:B 9.22112e-05
2 *1879:L_LO 9.22112e-05
3 *1878:A *1878:B 0
*RES
1 *1879:L_LO *1878:B 41.133 
*END

*D_NET *716 0.00309278
*CONN
*I *1200:S I *D sg13cmos5l_mux2_2
*I *1914:X O *D sg13cmos5l_buf_1
*CAP
1 *1200:S 0
2 *1914:X 5.77676e-05
3 *716:12 0.00102406
4 *716:8 0.00108183
5 *1383:A *716:8 0
6 *1739:A *716:8 0
7 *1880:A *716:12 0
8 *1914:A *716:8 0
9 *28:16 *716:12 0.000929122
10 *30:8 *716:12 0
11 *31:10 *716:12 0
12 *179:8 *716:12 0
13 *350:10 *716:12 0
*RES
1 *1914:X *716:8 40.5356 
2 *716:8 *716:12 31.4742 
3 *716:12 *1200:S 20 
*END

*D_NET *717 0.00281041
*CONN
*I *1889:B I *D sg13cmos5l_nand2_1
*I *1890:L_LO O *D sg13cmos5l_tielo
*CAP
1 *1889:B 0.000822867
2 *1890:L_LO 0.000437685
3 *717:10 0.00126055
4 *1324:A *1889:B 0
5 *1372:A *1889:B 0.000289306
6 *1728:A *1889:B 0
7 *1880:A *1889:B 0
8 *180:10 *1889:B 0
9 *350:10 *1889:B 0
10 *351:10 *1889:B 0
*RES
1 *1890:L_LO *717:10 43.914 
2 *717:10 *1889:B 47.9928 
*END

*D_NET *718 0.00223134
*CONN
*I *1900:B I *D sg13cmos5l_nand2_1
*I *1901:L_LO O *D sg13cmos5l_tielo
*CAP
1 *1900:B 0
2 *1901:L_LO 0.000891251
3 *718:10 0.000891251
4 *1719:A *718:10 0
5 *1900:A *718:10 0.000448842
6 *191:8 *718:10 0
7 *293:10 *718:10 0
*RES
1 *1901:L_LO *718:10 49.167 
2 *718:10 *1900:B 40 
*END

*D_NET *719 0.00130615
*CONN
*I *1911:B I *D sg13cmos5l_nand2_1
*I *1912:L_LO O *D sg13cmos5l_tielo
*CAP
1 *1911:B 0.000436854
2 *1912:L_LO 0.00021622
3 *719:8 0.000653074
4 *1292:A *1911:B 0
5 *1534:A *1911:B 0
6 *1911:A *1911:B 0
7 *562:14 *719:8 0
8 *675:12 *1911:B 0
*RES
1 *1912:L_LO *719:8 42.575 
2 *719:8 *1911:B 44.429 
*END

*D_NET *720 0.00465637
*CONN
*I *1202:B_N I *D sg13cmos5l_nor2b_1
*I *1210:A I *D sg13cmos5l_nor2_1
*I *1205:A I *D sg13cmos5l_nor3_2
*I *1915:X O *D sg13cmos5l_buf_1
*CAP
1 *1202:B_N 0
2 *1210:A 9.03069e-05
3 *1205:A 0
4 *1915:X 0.000165091
5 *720:25 0.000977751
6 *720:10 0.00106218
7 *720:6 0.000339825
8 *720:25 *721:10 0
9 *1203:B_N *720:25 0.000209593
10 *1211:B *1210:A 0
11 *1386:A *720:6 0
12 *1781:A *720:25 4.77537e-05
13 *1915:A *720:6 0
14 *1915:A *720:10 0.000209779
15 *10:12 *720:10 0.000209856
16 *10:12 *720:25 0.000210026
17 *11:10 *720:25 0
18 *28:56 *1210:A 4.77425e-05
19 *72:12 *1210:A 0
20 *73:8 *720:25 0.00108647
*RES
1 *1915:X *720:6 21.6171 
2 *720:6 *720:10 2.1836 
3 *720:10 *1205:A 20 
4 *720:10 *720:25 30.1764 
5 *720:25 *1210:A 40.8858 
6 *720:6 *1202:B_N 20 
*END

*D_NET *721 0.00524227
*CONN
*I *1212:S I *D sg13cmos5l_mux2_1
*I *1203:A I *D sg13cmos5l_nor2b_1
*I *1204:B_N I *D sg13cmos5l_nor2b_1
*I *1205:B I *D sg13cmos5l_nor3_2
*I *1916:X O *D sg13cmos5l_buf_1
*CAP
1 *1212:S 0
2 *1203:A 0
3 *1204:B_N 0
4 *1205:B 0.000353427
5 *1916:X 0.000528536
6 *721:51 0.000680487
7 *721:33 0.000111509
8 *721:12 0.00062961
9 *721:10 0.00026679
10 *721:8 0.00131114
11 *721:8 *722:8 0
12 *721:51 *722:14 0
13 *1203:B_N *721:12 0
14 *1204:A *721:33 7.52149e-05
15 *1388:A *721:12 0
16 *1389:A *721:8 0
17 *1391:A *721:8 0
18 *1392:A *721:8 0
19 *1398:A *1205:B 0
20 *1400:A *721:51 0
21 *10:12 *1205:B 4.79124e-05
22 *10:20 *721:33 0
23 *12:12 *721:33 0.000128576
24 *28:41 *1205:B 0
25 *73:8 *721:51 0.000873514
26 *128:8 *721:51 0.000235556
27 *384:8 *721:51 0
28 *720:25 *721:10 0
*RES
1 *1916:X *721:8 25.7371 
2 *721:8 *721:10 0.9682 
3 *721:10 *721:12 1.6171 
4 *721:12 *1205:B 23.5329 
5 *721:12 *721:33 41.4111 
6 *721:33 *1204:B_N 20 
7 *721:10 *1203:A 20 
8 *721:8 *721:51 47.9928 
9 *721:51 *1212:S 20 
*END

*D_NET *722 0.00683365
*CONN
*I *1206:A I *D sg13cmos5l_or4_1
*I *1201:B I *D sg13cmos5l_nand2_1
*I *1917:X O *D sg13cmos5l_buf_1
*CAP
1 *1206:A 0
2 *1201:B 0.00018738
3 *1917:X 0.00111774
4 *722:33 0.000153956
5 *722:16 0.000534058
6 *722:14 0.000990203
7 *722:8 0.00191522
8 *1212:A1 *1201:B 0.000241847
9 *1392:A *722:8 0
10 *1399:A *1201:B 0
11 *1400:A *722:16 0
12 *1916:A *722:8 0.000242203
13 *1917:A *722:8 4.7803e-05
14 *11:10 *722:33 0.000287672
15 *73:8 *722:14 0
16 *74:8 *722:14 0
17 *76:10 *722:14 0
18 *127:14 *722:16 8.0216e-05
19 *127:27 *722:16 0.000161763
20 *128:8 *722:14 0
21 *384:8 *722:14 0.000873601
22 *386:10 *722:14 0
23 *387:10 *722:33 0
24 *651:14 *1201:B 0
25 *721:8 *722:8 0
26 *721:51 *722:14 0
*RES
1 *1917:X *722:8 31.9171 
2 *722:8 *722:14 49.7438 
3 *722:14 *722:16 2.0497 
4 *722:16 *1201:B 21.9673 
5 *722:16 *722:33 41.6583 
6 *722:33 *1206:A 20 
*END

*D_NET *723 0.0187761
*CONN
*I *1918:A I *D sg13cmos5l_buf_1
*I *1213:A I *D sg13cmos5l_inv_8
*I *1209:Y O *D sg13cmos5l_a21oi_2
*CAP
1 *1918:A 0.000652926
2 *1213:A 0.000117965
3 *1209:Y 0.000686848
4 *723:27 0.00714541
5 *723:25 0.00674873
6 *723:12 0.00106106
7 osc *1918:A 0
8 *1324:A *1213:A 0
9 *1597:A *1918:A 0
10 *1598:A *1918:A 0
11 *1728:A *1213:A 1.54556e-05
12 *13:14 *723:12 0
13 *15:22 *723:12 1.53846e-05
14 *28:33 *723:12 0.000112267
15 *70:12 *723:27 0
16 *109:8 *723:27 0.000289002
17 *175:10 *723:12 0
18 *180:10 *723:12 0
19 *199:10 *723:27 0
20 *247:10 *723:27 0.000767122
21 *351:10 *723:12 0
22 *351:10 *723:25 0
23 *351:10 *723:27 0
24 *358:12 *1213:A 0
25 *366:8 *723:27 0
26 *409:10 *723:27 0.00071409
27 *421:18 *723:27 0
28 *562:14 *723:27 0
29 *566:10 *723:27 0
30 *567:10 *723:27 0
31 *585:8 *723:27 0
32 *615:8 *723:27 0
33 *710:10 *723:27 0.000449845
34 *714:6 *1918:A 0
*RES
1 *1209:Y *723:12 47.8795 
2 *723:12 *1213:A 41.1845 
3 *723:12 *723:25 3.0488 
4 *723:25 *723:27 81.679 
5 *723:27 *1918:A 46.1594 
*END

*D_NET *724 0.00116125
*CONN
*I *1746:B I *D sg13cmos5l_nand2_1
*I *1747:L_LO O *D sg13cmos5l_tielo
*CAP
1 *1746:B 0.000580624
2 *1747:L_LO 0.000580624
3 *1738:A *1746:B 0
4 *1746:A *1746:B 0
*RES
1 *1747:L_LO *1746:B 44.8616 
*END

*D_NET *725 0.00112385
*CONN
*I *1757:B I *D sg13cmos5l_nand2_1
*I *1758:L_LO O *D sg13cmos5l_tielo
*CAP
1 *1757:B 0.000440769
2 *1758:L_LO 0.000440769
3 *1412:A *1757:B 0
4 *1749:A *1757:B 0
5 *1751:A *1757:B 0
6 *1752:A *1757:B 0.000242313
7 *1754:A *1757:B 0
8 *1755:A *1757:B 0
9 *43:10 *1757:B 0
*RES
1 *1758:L_LO *1757:B 44.8822 
*END

*D_NET *726 0.00345607
*CONN
*I *1768:B I *D sg13cmos5l_nand2_1
*I *1769:L_LO O *D sg13cmos5l_tielo
*CAP
1 *1768:B 0
2 *1769:L_LO 0
3 *726:14 0.00168799
4 *726:6 0.00168799
5 *1288:A *726:14 0
6 *1291:A *726:14 0
7 *1292:A *726:14 0
8 *1293:A *726:14 0
9 *1294:A *726:14 0
10 *1297:A *726:14 0
11 *1309:A *726:14 0
12 *56:12 *726:14 0
13 *59:10 *726:14 0
14 *277:10 *726:14 0
15 *286:10 *726:14 8.00842e-05
*RES
1 *1769:L_LO *726:6 40 
2 *726:6 *726:14 37.922 
3 *726:14 *1768:B 20 
*END
