*SPEF "ieee 1481-1999"
*DESIGN "f_load_binary"
*DATE "22:19:15 Thursday October 01, 2026"
*VENDOR "The OpenROAD Project"
*PROGRAM "OpenROAD"
*VERSION "dcf36133a369abc8f3c5e5738cd4d82e4903c0e0"
*DESIGN_FLOW "NAME_SCOPE LOCAL" "PIN_CAP NONE"
*DIVIDER /
*DELIMITER :
*BUS_DELIMITER []
*T_UNIT 1 NS
*C_UNIT 1 PF
*R_UNIT 1 OHM
*L_UNIT 1 HENRY

*NAME_MAP
*3 en[0]
*4 en[1]
*5 en[2]
*6 en[3]
*7 en[4]
*8 osc
*9 _000_
*10 _001_
*11 _002_
*12 _003_
*13 _004_
*14 _005_
*15 _006_
*16 _007_
*17 _008_
*18 _009_
*19 _010_
*20 _011_
*21 _012_
*22 _013_
*23 _014_
*24 _015_
*25 _016_
*26 _017_
*27 _018_
*28 _019_
*29 _020_
*30 _021_
*31 _022_
*32 _023_
*33 _024_
*34 _025_
*35 _026_
*36 _027_
*37 _028_
*38 _029_
*39 _030_
*40 _031_
*41 _032_
*42 _033_
*43 _034_
*44 clknet_0_g_branch\[0\]\.gclk
*45 clknet_0_g_branch\[1\]\.gclk
*46 clknet_0_g_branch\[2\]\.gclk
*47 clknet_0_g_branch\[3\]\.gclk
*48 clknet_0_g_branch\[4\]\.gclk
*49 clknet_0_osc
*50 clknet_1_0__leaf_g_branch\[0\]\.gclk
*51 clknet_1_0__leaf_g_branch\[1\]\.gclk
*52 clknet_1_0__leaf_g_branch\[2\]\.gclk
*53 clknet_1_0__leaf_g_branch\[3\]\.gclk
*54 clknet_1_0__leaf_g_branch\[4\]\.gclk
*55 clknet_1_0__leaf_osc
*56 clknet_1_1__leaf_g_branch\[0\]\.gclk
*57 clknet_1_1__leaf_g_branch\[1\]\.gclk
*58 clknet_1_1__leaf_g_branch\[2\]\.gclk
*59 clknet_1_1__leaf_g_branch\[3\]\.gclk
*60 clknet_1_1__leaf_g_branch\[4\]\.gclk
*61 clknet_1_1__leaf_osc
*62 g_branch\[0\]\.fb
*63 g_branch\[0\]\.gclk
*64 g_branch\[0\]\.q\[0\]
*65 g_branch\[0\]\.q\[10\]
*66 g_branch\[0\]\.q\[11\]
*67 g_branch\[0\]\.q\[1\]
*68 g_branch\[0\]\.q\[2\]
*69 g_branch\[0\]\.q\[3\]
*70 g_branch\[0\]\.q\[4\]
*71 g_branch\[0\]\.q\[5\]
*72 g_branch\[0\]\.q\[6\]
*73 g_branch\[0\]\.q\[7\]
*74 g_branch\[0\]\.q\[8\]
*75 g_branch\[0\]\.q\[9\]
*76 g_branch\[1\]\.fb
*77 g_branch\[1\]\.gclk
*78 g_branch\[1\]\.q\[0\]
*79 g_branch\[1\]\.q\[10\]
*80 g_branch\[1\]\.q\[11\]
*81 g_branch\[1\]\.q\[1\]
*82 g_branch\[1\]\.q\[2\]
*83 g_branch\[1\]\.q\[3\]
*84 g_branch\[1\]\.q\[4\]
*85 g_branch\[1\]\.q\[5\]
*86 g_branch\[1\]\.q\[6\]
*87 g_branch\[1\]\.q\[7\]
*88 g_branch\[1\]\.q\[8\]
*89 g_branch\[1\]\.q\[9\]
*90 g_branch\[2\]\.fb
*91 g_branch\[2\]\.gclk
*92 g_branch\[2\]\.q\[0\]
*93 g_branch\[2\]\.q\[10\]
*94 g_branch\[2\]\.q\[11\]
*95 g_branch\[2\]\.q\[1\]
*96 g_branch\[2\]\.q\[2\]
*97 g_branch\[2\]\.q\[3\]
*98 g_branch\[2\]\.q\[4\]
*99 g_branch\[2\]\.q\[5\]
*100 g_branch\[2\]\.q\[6\]
*101 g_branch\[2\]\.q\[7\]
*102 g_branch\[2\]\.q\[8\]
*103 g_branch\[2\]\.q\[9\]
*104 g_branch\[3\]\.fb
*105 g_branch\[3\]\.gclk
*106 g_branch\[3\]\.q\[0\]
*107 g_branch\[3\]\.q\[10\]
*108 g_branch\[3\]\.q\[11\]
*109 g_branch\[3\]\.q\[1\]
*110 g_branch\[3\]\.q\[2\]
*111 g_branch\[3\]\.q\[3\]
*112 g_branch\[3\]\.q\[4\]
*113 g_branch\[3\]\.q\[5\]
*114 g_branch\[3\]\.q\[6\]
*115 g_branch\[3\]\.q\[7\]
*116 g_branch\[3\]\.q\[8\]
*117 g_branch\[3\]\.q\[9\]
*118 g_branch\[4\]\.fb
*119 g_branch\[4\]\.gclk
*120 g_branch\[4\]\.q\[0\]
*121 g_branch\[4\]\.q\[10\]
*122 g_branch\[4\]\.q\[11\]
*123 g_branch\[4\]\.q\[1\]
*124 g_branch\[4\]\.q\[2\]
*125 g_branch\[4\]\.q\[3\]
*126 g_branch\[4\]\.q\[4\]
*127 g_branch\[4\]\.q\[5\]
*128 g_branch\[4\]\.q\[6\]
*129 g_branch\[4\]\.q\[7\]
*130 g_branch\[4\]\.q\[8\]
*131 g_branch\[4\]\.q\[9\]
*132 net1
*133 net10
*134 net11
*135 net12
*136 net13
*137 net14
*138 net15
*139 net16
*140 net17
*141 net18
*142 net19
*143 net2
*144 net20
*145 net21
*146 net22
*147 net23
*148 net24
*149 net25
*150 net26
*151 net27
*152 net28
*153 net29
*154 net3
*155 net30
*156 net31
*157 net32
*158 net33
*159 net34
*160 net35
*161 net36
*162 net37
*163 net38
*164 net39
*165 net4
*166 net40
*167 net41
*168 net42
*169 net43
*170 net44
*171 net45
*172 net46
*173 net47
*174 net48
*175 net49
*176 net5
*177 net50
*178 net51
*179 net52
*180 net53
*181 net54
*182 net55
*183 net56
*184 net57
*185 net58
*186 net59
*187 net6
*188 net60
*189 net61
*190 net62
*191 net63
*192 net64
*193 net65
*194 net66
*195 net67
*196 net68
*197 net69
*198 net7
*199 net70
*200 net71
*201 net72
*202 net73
*203 net74
*204 net75
*205 net8
*206 net9
*207 FILLER_0_0
*208 FILLER_0_123
*209 FILLER_0_130
*210 FILLER_0_132
*211 FILLER_0_168
*212 FILLER_0_19
*213 FILLER_0_218
*214 FILLER_0_228
*215 FILLER_0_235
*216 FILLER_0_249
*217 FILLER_0_26
*218 FILLER_0_28
*219 FILLER_0_286
*220 FILLER_10_0
*221 FILLER_10_123
*222 FILLER_10_130
*223 FILLER_10_134
*224 FILLER_10_144
*225 FILLER_10_146
*226 FILLER_10_19
*227 FILLER_10_21
*228 FILLER_10_228
*229 FILLER_10_235
*230 FILLER_10_26
*231 FILLER_10_28
*232 FILLER_10_293
*233 FILLER_10_295
*234 FILLER_1_0
*235 FILLER_1_123
*236 FILLER_1_130
*237 FILLER_1_132
*238 FILLER_1_180
*239 FILLER_1_19
*240 FILLER_1_226
*241 FILLER_1_233
*242 FILLER_1_246
*243 FILLER_1_26
*244 FILLER_1_93
*245 FILLER_1_95
*246 FILLER_2_0
*247 FILLER_2_123
*248 FILLER_2_130
*249 FILLER_2_132
*250 FILLER_2_177
*251 FILLER_2_179
*252 FILLER_2_19
*253 FILLER_2_228
*254 FILLER_2_235
*255 FILLER_2_237
*256 FILLER_2_26
*257 FILLER_2_28
*258 FILLER_2_7
*259 FILLER_2_9
*260 FILLER_3_0
*261 FILLER_3_123
*262 FILLER_3_130
*263 FILLER_3_132
*264 FILLER_3_19
*265 FILLER_3_209
*266 FILLER_3_228
*267 FILLER_3_235
*268 FILLER_3_246
*269 FILLER_3_26
*270 FILLER_3_28
*271 FILLER_3_81
*272 FILLER_4_0
*273 FILLER_4_120
*274 FILLER_4_127
*275 FILLER_4_131
*276 FILLER_4_155
*277 FILLER_4_19
*278 FILLER_4_228
*279 FILLER_4_235
*280 FILLER_4_26
*281 FILLER_4_28
*282 FILLER_4_7
*283 FILLER_4_83
*284 FILLER_4_85
*285 FILLER_5_0
*286 FILLER_5_123
*287 FILLER_5_130
*288 FILLER_5_132
*289 FILLER_5_151
*290 FILLER_5_19
*291 FILLER_5_2
*292 FILLER_5_200
*293 FILLER_5_228
*294 FILLER_5_235
*295 FILLER_5_255
*296 FILLER_5_26
*297 FILLER_5_28
*298 FILLER_5_293
*299 FILLER_5_295
*300 FILLER_5_68
*301 FILLER_6_0
*302 FILLER_6_123
*303 FILLER_6_130
*304 FILLER_6_132
*305 FILLER_6_146
*306 FILLER_6_19
*307 FILLER_6_2
*308 FILLER_6_228
*309 FILLER_6_235
*310 FILLER_6_26
*311 FILLER_6_28
*312 FILLER_6_293
*313 FILLER_6_295
*314 FILLER_7_0
*315 FILLER_7_123
*316 FILLER_7_130
*317 FILLER_7_132
*318 FILLER_7_145
*319 FILLER_7_19
*320 FILLER_7_200
*321 FILLER_7_228
*322 FILLER_7_235
*323 FILLER_7_26
*324 FILLER_7_281
*325 FILLER_7_30
*326 FILLER_7_7
*327 FILLER_7_80
*328 FILLER_7_9
*329 FILLER_8_0
*330 FILLER_8_123
*331 FILLER_8_130
*332 FILLER_8_134
*333 FILLER_8_153
*334 FILLER_8_155
*335 FILLER_8_19
*336 FILLER_8_21
*337 FILLER_8_228
*338 FILLER_8_235
*339 FILLER_8_26
*340 FILLER_8_35
*341 FILLER_8_4
*342 FILLER_8_81
*343 FILLER_9_0
*344 FILLER_9_123
*345 FILLER_9_130
*346 FILLER_9_132
*347 FILLER_9_145
*348 FILLER_9_186
*349 FILLER_9_19
*350 FILLER_9_21
*351 FILLER_9_228
*352 FILLER_9_235
*353 FILLER_9_239
*354 FILLER_9_26
*355 FILLER_9_28
*356 FILLER_9_293
*357 FILLER_9_295
*358 FILLER_9_7
*359 FILLER_9_9
*360 _035_
*361 _036_
*362 _037_
*363 _038_
*364 _039_
*365 _040_
*366 _041_
*367 _042_
*368 _043_
*369 _044_
*370 _045_
*371 _046_
*372 _047_
*373 _048_
*374 _049_
*375 _050_
*376 _051_
*377 _052_
*378 _053_
*379 _054_
*380 _055_
*381 _056_
*382 _057_
*383 _058_
*384 _059_
*385 _060_
*386 _061_
*387 _062_
*388 _063_
*389 _064_
*390 _065_
*391 _066_
*392 _067_
*393 _068_
*394 _069_
*395 _070_
*396 _071_
*397 _072_
*398 _073_
*399 _074_
*400 _075_
*401 _076_
*402 _077_
*403 _078_
*404 _079_
*405 _080_
*406 _081_
*407 _082_
*408 _083_
*409 _084_
*410 _085_
*411 _086_
*412 _087_
*413 _088_
*414 _089_
*415 _090_
*416 _091_
*417 _092_
*418 _093_
*419 _094_
*420 _095_
*421 _096_
*422 _097_
*423 _098_
*424 _099_
*425 _100_
*426 _101_
*427 _102_
*428 _103_
*429 _104_
*430 _105_
*431 _106_
*432 _107_
*433 _108_
*434 _109_
*435 _110_
*436 _111_
*437 _112_
*438 _113_
*439 _114_
*440 _115_
*441 _116_
*442 _117_
*443 _118_
*444 _119_
*445 _120_
*446 _121_
*447 _122_
*448 _123_
*449 _124_
*450 _125_
*451 _126_
*452 _127_
*453 _128_
*454 _129_
*455 _130_
*456 _131_
*457 _132_
*458 _133_
*459 _134_
*460 _135_
*461 _136_
*462 _137_
*463 _138_
*464 _139_
*465 clkbuf_0_g_branch\[0\]\.gclk
*466 clkbuf_0_g_branch\[1\]\.gclk
*467 clkbuf_0_g_branch\[2\]\.gclk
*468 clkbuf_0_g_branch\[3\]\.gclk
*469 clkbuf_0_g_branch\[4\]\.gclk
*470 clkbuf_0_osc
*471 clkbuf_1_0__f_g_branch\[0\]\.gclk
*472 clkbuf_1_0__f_g_branch\[1\]\.gclk
*473 clkbuf_1_0__f_g_branch\[2\]\.gclk
*474 clkbuf_1_0__f_g_branch\[3\]\.gclk
*475 clkbuf_1_0__f_g_branch\[4\]\.gclk
*476 clkbuf_1_0__f_osc
*477 clkbuf_1_1__f_g_branch\[0\]\.gclk
*478 clkbuf_1_1__f_g_branch\[1\]\.gclk
*479 clkbuf_1_1__f_g_branch\[2\]\.gclk
*480 clkbuf_1_1__f_g_branch\[3\]\.gclk
*481 clkbuf_1_1__f_g_branch\[4\]\.gclk
*482 clkbuf_1_1__f_osc
*483 clkload0
*484 fanout10
*485 fanout11
*486 fanout12
*487 fanout13
*488 fanout14
*489 fanout15
*490 fanout6
*491 fanout7
*492 fanout8
*493 fanout9
*494 hold16
*495 hold17
*496 hold18
*497 hold19
*498 hold20
*499 hold21
*500 hold22
*501 hold23
*502 hold24
*503 hold25
*504 hold26
*505 hold27
*506 hold28
*507 hold29
*508 hold30
*509 hold31
*510 hold32
*511 hold33
*512 hold34
*513 hold35
*514 hold36
*515 hold37
*516 hold38
*517 hold39
*518 hold40
*519 hold41
*520 hold42
*521 hold43
*522 hold44
*523 hold45
*524 hold46
*525 hold47
*526 hold48
*527 hold49
*528 hold50
*529 hold51
*530 hold52
*531 hold53
*532 hold54
*533 hold55
*534 hold56
*535 hold57
*536 hold58
*537 hold59
*538 hold60
*539 hold61
*540 hold62
*541 hold63
*542 hold64
*543 hold65
*544 hold66
*545 hold67
*546 hold68
*547 hold69
*548 hold70
*549 hold71
*550 hold72
*551 hold73
*552 hold74
*553 hold75
*554 input1
*555 input2
*556 input3
*557 input4
*558 input5

*PORTS
en[0] I
en[1] I
en[2] I
en[3] I
en[4] I
osc I

*D_NET *3 0.0014016
*CONN
*P en[0] I
*I *554:A I *D sg13cmos5l_buf_1
*CAP
1 en[0] 0.0007008
2 *554:A 0
3 *3:13 0.0007008
4 *3:13 *558:A 0
5 *3:13 *73:12 0
6 *3:13 *132:10 0
*RES
1 en[0] *3:13 48.3533 
2 *3:13 *554:A 20 
*END

*D_NET *4 0.00156044
*CONN
*P en[1] I
*I *555:A I *D sg13cmos5l_buf_1
*CAP
1 en[1] 0.000642969
2 *555:A 0
3 *4:13 0.000642969
4 *4:13 *441:RESET_B 0
5 *4:13 *477:A 0
6 *4:13 *44:50 0
7 *4:13 *56:8 0
8 *4:13 *76:30 0.000274507
*RES
1 en[1] *4:13 47.5499 
2 *4:13 *555:A 20 
*END

*D_NET *5 0.00273025
*CONN
*P en[2] I
*I *556:A I *D sg13cmos5l_buf_1
*CAP
1 en[2] 0.000932695
2 *556:A 0.000311404
3 *5:9 0.0012441
4 *556:A *526:A 0
5 *556:A *78:12 0
6 *556:A *190:10 0.00024205
7 *5:9 *78:12 0
*RES
1 en[2] *5:9 31.6184 
2 *5:9 *556:A 43.3475 
*END

*D_NET *6 0.00832291
*CONN
*P en[3] I
*I *557:A I *D sg13cmos5l_buf_1
*CAP
1 en[3] 0.0021964
2 *557:A 0.000112164
3 *6:9 0.00230856
4 *557:A *121:14 0.000209422
5 *557:A *141:25 0.000209422
6 *6:9 *409:RESET_B 0
7 *6:9 *409:D 0
8 *6:9 *409:CLK 0
9 *6:9 *126:12 0.00328695
10 *6:9 *141:25 0
11 *6:9 *178:10 0
12 *6:9 *198:12 0
13 *6:9 *198:25 0
*RES
1 en[3] *6:9 44.6891 
2 *6:9 *557:A 41.4008 
*END

*D_NET *7 0.0221529
*CONN
*P en[4] I
*I *558:A I *D sg13cmos5l_buf_1
*CAP
1 en[4] 0.00070462
2 *558:A 0.000338052
3 *7:17 0.00564188
4 *7:15 0.00600845
5 *558:A *362:B 0
6 *558:A *73:12 0
7 *558:A *132:10 0
8 *7:15 *414:CLK 0.000273299
9 *7:15 *48:38 0
10 *7:15 *60:27 0
11 *7:15 *166:12 0
12 *7:15 *202:8 0.000434902
13 *7:17 *362:A 0.000234224
14 *7:17 *442:D 0
15 *7:17 *447:RESET_B 0
16 *7:17 *460:D 0.000980408
17 *7:17 *462:RESET_B 0
18 *7:17 *507:A 0
19 *7:17 *26:10 0
20 *7:17 *28:8 0
21 *7:17 *45:25 0
22 *7:17 *48:38 0
23 *7:17 *51:8 0
24 *7:17 *54:10 0.000982154
25 *7:17 *54:57 0.00196841
26 *7:17 *57:8 0
27 *7:17 *76:30 0.000554076
28 *7:17 *85:8 0.00076629
29 *7:17 *125:8 0
30 *7:17 *135:32 0.000929035
31 *7:17 *135:57 0
32 *7:17 *137:72 0
33 *7:17 *137:83 0
34 *7:17 *144:21 0
35 *7:17 *147:10 0
36 *7:17 *153:12 0
37 *7:17 *153:25 0.00194328
38 *7:17 *162:36 0
39 *7:17 *166:12 0
40 *7:17 *176:22 0.000393822
41 *7:17 *187:42 0
42 *7:17 *187:46 0
43 *7:17 *190:10 0
44 *7:17 *190:12 0
45 *7:17 *198:10 0
46 *7:17 *198:49 0
47 *3:13 *558:A 0
*RES
1 en[4] *7:15 28.343 
2 *7:15 *7:17 64.375 
3 *7:17 *558:A 43.3625 
*END

*D_NET *8 0.0085308
*CONN
*P osc I
*I *470:A I *D sg13cmos5l_buf_8
*CAP
1 osc 0.000186771
2 *470:A 6.7433e-05
3 *8:14 0.00407863
4 *8:12 0.00419797
5 *470:A *190:48 0
6 *8:12 *141:10 0
7 *8:14 *392:A 0
8 *8:14 *398:B 0
9 *8:14 *415:D 0
10 *8:14 *427:CLK 0
11 *8:14 *22:18 0
12 *8:14 *49:35 0
13 *8:14 *59:54 0
14 *8:14 *115:14 0
15 *8:14 *121:8 0
16 *8:14 *206:33 0
*RES
1 osc *8:12 42.1321 
2 *8:12 *8:14 33.9694 
3 *8:14 *470:A 40.5356 
*END

*D_NET *9 0.0148214
*CONN
*I *384:B I *D sg13cmos5l_xnor2_1
*I *383:Y O *D sg13cmos5l_xnor2_1
*CAP
1 *384:B 6.84294e-05
2 *383:Y 2.46565e-05
3 *9:10 0.00264664
4 *9:8 0.00260286
5 *384:B *384:A 0.000112228
6 *384:B *535:A 0
7 *9:10 *41:8 0.00131641
8 *9:10 *43:10 0.00805014
9 *9:10 *96:8 0
10 *9:10 *165:26 0
11 *9:10 *182:8 0
*RES
1 *383:Y *9:8 40.3193 
2 *9:8 *9:10 36.9358 
3 *9:10 *384:B 40.7519 
*END

*D_NET *10 0.0129339
*CONN
*I *385:B I *D sg13cmos5l_xnor2_1
*I *384:Y O *D sg13cmos5l_xnor2_1
*CAP
1 *385:B 0.000611758
2 *384:Y 0.000240528
3 *10:14 0.00355571
4 *10:8 0.00318448
5 *385:B *42:14 1.54008e-05
6 *385:B *43:8 0
7 *385:B *90:10 0
8 *385:B *191:10 0
9 *385:B *200:14 0
10 *10:8 *439:RESET_B 4.77425e-05
11 *10:8 *142:26 0
12 *10:8 *184:8 0
13 *10:14 *378:D 0.000714833
14 *10:14 *435:CLK 0.000342122
15 *10:14 *90:14 0
16 *10:14 *93:10 0
17 *10:14 *100:8 0.00108665
18 *10:14 *176:38 0
19 *10:14 *180:8 0.00274009
20 *10:14 *193:31 0.000394566
21 *10:14 *206:22 0
*RES
1 *384:Y *10:8 42.266 
2 *10:8 *10:14 35.844 
3 *10:14 *385:B 45.0779 
*END

*D_NET *11 0.00447503
*CONN
*I *390:A I *D sg13cmos5l_nand3_1
*I *387:Y O *D sg13cmos5l_nor4_2
*CAP
1 *390:A 0.000272425
2 *387:Y 0.000432471
3 *11:10 0.000704897
4 *390:A *151:26 0.00050279
5 *390:A *152:10 0.000770526
6 *390:A *165:22 0.00140724
7 *11:10 *387:C 0
8 *11:10 *61:34 0
9 *11:10 *106:10 0
10 *11:10 *125:20 0.000175799
11 *11:10 *164:27 0.000208878
12 *11:10 *205:30 0
*RES
1 *387:Y *11:10 44.1303 
2 *11:10 *390:A 46.5302 
*END

*D_NET *12 0.00493603
*CONN
*I *390:B I *D sg13cmos5l_nand3_1
*I *388:Y O *D sg13cmos5l_nor4_2
*CAP
1 *390:B 0.000537042
2 *388:Y 0.000631944
3 *12:8 0.00116899
4 *390:B *390:C 1.54556e-05
5 *390:B *393:B 0
6 *390:B *152:10 0
7 *390:B *152:16 0.00077681
8 *12:8 *114:12 0.000821484
9 *12:8 *152:10 0.000984313
10 *12:8 *165:22 0
*RES
1 *388:Y *12:8 49.991 
2 *12:8 *390:B 47.0452 
*END

*D_NET *13 0.0002167
*CONN
*I *390:C I *D sg13cmos5l_nand3_1
*I *389:Y O *D sg13cmos5l_nor3_1
*CAP
1 *390:C 0.000100622
2 *389:Y 0.000100622
3 *390:C *393:B 0
4 *390:C *394:A 0
5 *390:C *148:20 0
6 *390:B *390:C 1.54556e-05
*RES
1 *389:Y *390:C 41.133 
*END

*D_NET *14 0.000491054
*CONN
*I *394:A I *D sg13cmos5l_xnor2_1
*I *390:Y O *D sg13cmos5l_nand3_1
*CAP
1 *394:A 0.000245527
2 *390:Y 0.000245527
3 *394:A *417:D 0
4 *394:A *424:D 0
5 *394:A *17:10 0
6 *390:C *394:A 0
*RES
1 *390:Y *394:A 42.6209 
*END

*D_NET *15 0.00940405
*CONN
*I *393:A I *D sg13cmos5l_xnor2_1
*I *391:X O *D sg13cmos5l_xor2_1
*CAP
1 *393:A 0
2 *391:X 7.82804e-05
3 *15:14 0.00247077
4 *15:8 0.00254905
5 *15:8 *391:B 0.000144767
6 *15:8 *130:10 0.000144767
7 *15:14 *392:B 0
8 *15:14 *393:B 0.000403961
9 *15:14 *106:10 0
10 *15:14 *113:8 0
11 *15:14 *151:18 0
12 *15:14 *164:8 0.000340375
13 *15:14 *176:38 0
14 *15:14 *192:14 0
15 *15:14 *196:23 0.00327207
*RES
1 *391:X *15:8 40.9682 
2 *15:8 *15:14 48.2632 
3 *15:14 *393:A 20 
*END

*D_NET *16 0.00289132
*CONN
*I *393:B I *D sg13cmos5l_xnor2_1
*I *392:Y O *D sg13cmos5l_xnor2_1
*CAP
1 *393:B 0.00106652
2 *392:Y 0.00106652
3 *393:B *392:B 0
4 *393:B *417:RESET_B 0.000306569
5 *393:B *420:RESET_B 4.77537e-05
6 *393:B *424:CLK 0
7 *393:B *17:10 0
8 *393:B *110:10 0
9 *393:B *151:18 0
10 *390:B *393:B 0
11 *390:C *393:B 0
12 *15:14 *393:B 0.000403961
*RES
1 *392:Y *393:B 49.5549 
*END

*D_NET *17 0.00127493
*CONN
*I *394:B I *D sg13cmos5l_xnor2_1
*I *393:Y O *D sg13cmos5l_xnor2_1
*CAP
1 *394:B 0
2 *393:Y 0.000386525
3 *17:10 0.000386525
4 *17:10 *110:10 0
5 *17:10 *176:38 0.000501875
6 *393:B *17:10 0
7 *394:A *17:10 0
*RES
1 *393:Y *17:10 44.3775 
2 *17:10 *394:B 40 
*END

*D_NET *18 0.00389329
*CONN
*I *399:A I *D sg13cmos5l_nand3_1
*I *396:Y O *D sg13cmos5l_nor4_2
*CAP
1 *399:A 0
2 *396:Y 0.00127912
3 *18:24 0.000231412
4 *18:14 0.00151053
5 *18:14 *396:C 0
6 *18:14 *396:D 0
7 *18:14 *399:B 0.000144931
8 *18:14 *403:A 0
9 *18:14 *515:A 0
10 *18:14 *54:57 0.000176604
11 *18:14 *119:21 0
12 *18:14 *178:14 0
13 *18:14 *178:26 0
14 *18:14 *187:31 4.78195e-05
15 *18:14 *188:31 0
16 *18:24 *399:B 0.000208747
17 *18:24 *21:10 0.000111804
18 *18:24 *59:54 0.000182315
19 *18:24 *119:21 0
20 *18:24 *181:8 0
*RES
1 *396:Y *18:14 31.551 
2 *18:14 *18:24 42.5956 
3 *18:24 *399:A 20 
*END

*D_NET *19 0.00196645
*CONN
*I *399:B I *D sg13cmos5l_nand3_1
*I *397:Y O *D sg13cmos5l_nor4_2
*CAP
1 *399:B 0.000403138
2 *397:Y 0.000315255
3 *19:14 0.000718393
4 *399:B *20:22 4.77425e-05
5 *399:B *21:10 0
6 *399:B *119:21 0
7 *19:14 *397:B 0
8 *19:14 *118:8 0
9 *19:14 *119:21 0
10 *19:14 *151:8 0
11 *19:14 *162:12 0.000128248
12 *19:14 *187:23 0
13 *18:14 *399:B 0.000144931
14 *18:24 *399:B 0.000208747
*RES
1 *397:Y *19:14 43.3166 
2 *19:14 *399:B 44.017 
*END

*D_NET *20 0.0059846
*CONN
*I *399:C I *D sg13cmos5l_nand3_1
*I *398:Y O *D sg13cmos5l_nor3_1
*CAP
1 *399:C 0
2 *398:Y 0.000127402
3 *20:22 0.00164899
4 *20:8 0.00177639
5 *20:8 *398:A 0.00024222
6 *20:8 *398:B 0.00024222
7 *20:22 *397:C 0
8 *20:22 *403:A 0
9 *20:22 *411:CLK 0
10 *20:22 *425:RESET_B 0
11 *20:22 *515:A 0.000533448
12 *20:22 *22:10 0.000598319
13 *20:22 *60:8 0
14 *20:22 *60:10 0
15 *20:22 *60:12 0
16 *20:22 *128:8 0
17 *20:22 *159:10 0.000767865
18 *20:22 *166:12 0
19 *20:22 *188:31 0
20 *20:22 *206:45 0
21 *399:B *20:22 4.77425e-05
*RES
1 *398:Y *20:8 41.6171 
2 *20:8 *20:22 37.3349 
3 *20:22 *399:C 20 
*END

*D_NET *21 0.00172688
*CONN
*I *403:A I *D sg13cmos5l_xnor2_1
*I *399:Y O *D sg13cmos5l_nand3_1
*CAP
1 *403:A 0.000211798
2 *399:Y 0.000288122
3 *21:10 0.00049992
4 *403:A *515:A 0.000274529
5 *21:10 *119:21 0
6 *21:10 *206:45 0.000340704
7 *399:B *21:10 0
8 *18:14 *403:A 0
9 *18:24 *21:10 0.000111804
10 *20:22 *403:A 0
*RES
1 *399:Y *21:10 42.987 
2 *21:10 *403:A 42.0497 
*END

*D_NET *22 0.00877138
*CONN
*I *402:A I *D sg13cmos5l_xnor2_1
*I *400:X O *D sg13cmos5l_xor2_1
*CAP
1 *402:A 0.000441076
2 *400:X 0.000894276
3 *22:18 0.00118453
4 *22:10 0.00163773
5 *402:A *402:B 0.00109339
6 *402:A *505:A 8.02269e-05
7 *402:A *112:32 0.00029097
8 *22:10 *414:RESET_B 0
9 *22:10 *23:14 0.000695475
10 *22:10 *188:31 0.000338213
11 *22:10 *198:27 0
12 *22:10 *198:29 0
13 *22:18 *415:D 0.000822971
14 *22:18 *427:CLK 0
15 *22:18 *59:54 0
16 *22:18 *107:12 0
17 *22:18 *131:16 0
18 *22:18 *159:10 0
19 *22:18 *165:18 0.00069419
20 *8:14 *22:18 0
21 *20:22 *22:10 0.000598319
*RES
1 *400:X *22:10 49.7541 
2 *22:10 *22:18 48.9507 
3 *22:18 *402:A 45.768 
*END

*D_NET *23 0.0078523
*CONN
*I *402:B I *D sg13cmos5l_xnor2_1
*I *401:Y O *D sg13cmos5l_xnor2_1
*CAP
1 *402:B 0.000457092
2 *401:Y 0.000328902
3 *23:14 0.00135234
4 *23:8 0.00122415
5 *402:B *423:RESET_B 0.000608855
6 *402:B *24:8 8.02269e-05
7 *402:B *112:20 0.000715248
8 *402:B *112:32 0.00012816
9 *402:B *116:8 0.000927375
10 *402:B *168:10 0
11 *23:8 *166:12 0
12 *23:8 *187:93 0
13 *23:14 *411:CLK 0
14 *23:14 *415:RESET_B 0
15 *23:14 *428:RESET_B 0
16 *23:14 *59:12 0
17 *23:14 *59:48 0
18 *23:14 *198:29 0
19 *23:14 *206:45 0.000241088
20 *23:14 *206:49 0
21 *402:A *402:B 0.00109339
22 *22:10 *23:14 0.000695475
*RES
1 *401:Y *23:8 43.3166 
2 *23:8 *23:14 48.9713 
3 *23:14 *402:B 49.2597 
*END

*D_NET *24 0.00554837
*CONN
*I *403:B I *D sg13cmos5l_xnor2_1
*I *402:Y O *D sg13cmos5l_xnor2_1
*CAP
1 *403:B 0.000711844
2 *402:Y 0.000544539
3 *24:8 0.00125638
4 *403:B *128:8 0
5 *403:B *140:12 0.00172742
6 *403:B *188:8 0
7 *24:8 *505:A 0
8 *24:8 *121:14 0.000306794
9 *24:8 *130:10 0.000921162
10 *402:B *24:8 8.02269e-05
*RES
1 *402:Y *24:8 46.1594 
2 *24:8 *403:B 49.4966 
*END

*D_NET *25 0.00195297
*CONN
*I *363:A I *D sg13cmos5l_nand3_1
*I *360:Y O *D sg13cmos5l_nor4_2
*CAP
1 *363:A 0.000695039
2 *360:Y 0.000695039
3 *363:A *363:C 0
4 *363:A *522:A 0.00014445
5 *363:A *55:20 0
6 *363:A *176:22 0
7 *363:A *176:36 0.00014391
8 *363:A *183:10 0.000274529
*RES
1 *360:Y *363:A 46.592 
*END

*D_NET *26 0.00153537
*CONN
*I *363:B I *D sg13cmos5l_nand3_1
*I *361:Y O *D sg13cmos5l_nor4_2
*CAP
1 *363:B 0
2 *361:Y 0.000353577
3 *26:10 0.000353577
4 *26:10 *534:A 0.000274057
5 *26:10 *28:8 0
6 *26:10 *137:27 0
7 *26:10 *153:12 0.000554163
8 *7:17 *26:10 0
*RES
1 *361:Y *26:10 44.4084 
2 *26:10 *363:B 40 
*END

*D_NET *27 0.00211534
*CONN
*I *363:C I *D sg13cmos5l_nand3_1
*I *362:Y O *D sg13cmos5l_nor3_1
*CAP
1 *363:C 2.6946e-05
2 *362:Y 0.000570457
3 *27:8 0.000597403
4 *363:C *160:12 0
5 *363:C *176:22 4.78521e-05
6 *27:8 *460:D 0
7 *27:8 *28:8 0.000872684
8 *27:8 *153:12 0
9 *363:A *363:C 0
*RES
1 *362:Y *27:8 45.7886 
2 *27:8 *363:C 40.3193 
*END

*D_NET *28 0.00219357
*CONN
*I *367:A I *D sg13cmos5l_xnor2_1
*I *363:Y O *D sg13cmos5l_nand3_1
*CAP
1 *367:A 5.16786e-05
2 *363:Y 0.000217725
3 *28:8 0.000269403
4 *367:A *367:B 1.54556e-05
5 *367:A *149:8 0
6 *28:8 *460:D 0.00076662
7 *28:8 *153:12 0
8 *7:17 *28:8 0
9 *26:10 *28:8 0
10 *27:8 *28:8 0.000872684
*RES
1 *363:Y *28:8 44.3054 
2 *28:8 *367:A 40.5356 
*END

*D_NET *29 0.000628506
*CONN
*I *366:A I *D sg13cmos5l_xnor2_1
*I *364:X O *D sg13cmos5l_xor2_1
*CAP
1 *366:A 0.000274161
2 *364:X 0.000274161
3 *366:A *366:B 0
4 *366:A *367:B 0
5 *366:A *376:B 8.0185e-05
*RES
1 *364:X *366:A 42.987 
*END

*D_NET *30 0.000241977
*CONN
*I *366:B I *D sg13cmos5l_xnor2_1
*I *365:Y O *D sg13cmos5l_xnor2_1
*CAP
1 *366:B 0.000120988
2 *365:Y 0.000120988
3 *366:B *367:B 0
4 *366:B *201:12 0
5 *366:A *366:B 0
*RES
1 *365:Y *366:B 41.4111 
*END

*D_NET *31 0.00156047
*CONN
*I *367:B I *D sg13cmos5l_xnor2_1
*I *366:Y O *D sg13cmos5l_xnor2_1
*CAP
1 *367:B 0.000692598
2 *366:Y 0.000692598
3 *367:B *364:B 0
4 *367:B *376:B 0.00014436
5 *367:B *62:14 0
6 *367:B *72:16 1.54556e-05
7 *367:B *149:8 0
8 *366:A *367:B 0
9 *366:B *367:B 0
10 *367:A *367:B 1.54556e-05
*RES
1 *366:Y *367:B 46.6126 
*END

*D_NET *32 0.00492892
*CONN
*I *372:A I *D sg13cmos5l_nand3_1
*I *369:Y O *D sg13cmos5l_nor4_2
*CAP
1 *372:A 0.000869635
2 *369:Y 0.000847036
3 *32:16 0.00171667
4 *372:A *449:RESET_B 0
5 *372:A *35:10 0.000435203
6 *372:A *36:18 0.000208747
7 *372:A *38:16 0
8 *372:A *57:44 0.000337558
9 *372:A *136:16 0
10 *372:A *143:37 0
11 *372:A *154:20 0
12 *32:16 *369:D 0
13 *32:16 *371:A 0.000145108
14 *32:16 *371:B 0
15 *32:16 *447:RESET_B 0
16 *32:16 *494:A 8.03692e-05
17 *32:16 *553:A 0
18 *32:16 *33:10 0.000273196
19 *32:16 *186:8 1.54008e-05
*RES
1 *369:Y *32:16 48.1176 
2 *32:16 *372:A 48.6108 
*END

*D_NET *33 0.0044941
*CONN
*I *372:B I *D sg13cmos5l_nand3_1
*I *370:Y O *D sg13cmos5l_nor4_2
*CAP
1 *372:B 0.000598701
2 *370:Y 0.000541815
3 *33:10 0.00114052
4 *372:B *372:C 0.000176872
5 *372:B *36:10 0.00124852
6 *372:B *36:18 0.000208747
7 *372:B *49:19 0
8 *372:B *49:35 0
9 *372:B *88:8 0
10 *33:10 *369:D 0
11 *33:10 *373:B 0
12 *33:10 *476:A 0
13 *33:10 *494:A 0.00030573
14 *33:10 *514:A 0
15 *33:10 *49:19 0
16 *32:16 *33:10 0.000273196
*RES
1 *370:Y *33:10 45.7371 
2 *33:10 *372:B 47.6529 
*END

*D_NET *34 0.00230967
*CONN
*I *372:C I *D sg13cmos5l_nand3_1
*I *371:Y O *D sg13cmos5l_nor3_1
*CAP
1 *372:C 0.000112718
2 *371:Y 0.000449964
3 *34:10 0.000562682
4 *372:C *154:20 8.00842e-05
5 *34:10 *371:B 0
6 *34:10 *371:C 0
7 *34:10 *36:10 0.000927353
8 *372:B *372:C 0.000176872
*RES
1 *371:Y *34:10 45.5517 
2 *34:10 *372:C 41.1845 
*END

*D_NET *35 0.0136389
*CONN
*I *376:A I *D sg13cmos5l_xnor2_1
*I *372:Y O *D sg13cmos5l_nand3_1
*CAP
1 *376:A 0
2 *372:Y 0.000320063
3 *35:18 0.00406992
4 *35:10 0.00438998
5 *35:10 *38:14 0.000499886
6 *35:18 *365:A 0
7 *35:18 *379:D 0
8 *35:18 *38:16 0.00140835
9 *35:18 *49:19 0
10 *35:18 *49:35 0
11 *35:18 *50:22 0
12 *35:18 *62:14 0.000607108
13 *35:18 *161:8 0
14 *35:18 *167:10 0.00103353
15 *35:18 *170:18 0.000874846
16 *35:18 *171:25 0
17 *35:18 *182:33 0
18 *35:18 *197:8 0
19 *35:18 *197:14 0
20 *372:A *35:10 0.000435203
*RES
1 *372:Y *35:10 43.6977 
2 *35:10 *35:18 39.9949 
3 *35:18 *376:A 40 
*END

*D_NET *36 0.00573858
*CONN
*I *375:A I *D sg13cmos5l_xnor2_1
*I *373:X O *D sg13cmos5l_xor2_1
*CAP
1 *375:A 0.000161608
2 *373:X 0.000591619
3 *36:18 0.000618254
4 *36:10 0.00104827
5 *375:A *375:B 1.54008e-05
6 *375:A *524:A 0.000241127
7 *375:A *38:14 0
8 *36:10 *373:B 0.000209637
9 *36:10 *161:8 0.000237204
10 *36:18 *524:A 0
11 *36:18 *38:14 0
12 *36:18 *154:20 0
13 *36:18 *154:43 2.20966e-05
14 *372:B *36:10 0.00124852
15 *372:B *36:18 0.000208747
16 *372:A *36:18 0.000208747
17 *34:10 *36:10 0.000927353
*RES
1 *373:X *36:10 49.6305 
2 *36:10 *36:18 44.3775 
3 *36:18 *375:A 41.6171 
*END

*D_NET *37 0.000795339
*CONN
*I *375:B I *D sg13cmos5l_xnor2_1
*I *374:Y O *D sg13cmos5l_xnor2_1
*CAP
1 *375:B 0.000145567
2 *374:Y 0.00013999
3 *37:8 0.000285557
4 *375:B *424:D 0
5 *375:B *524:A 0
6 *375:B *154:43 0.000208824
7 *37:8 *142:12 0
8 *37:8 *176:38 0
9 *37:8 *206:22 0
10 *375:A *375:B 1.54008e-05
*RES
1 *374:Y *37:8 41.339 
2 *37:8 *375:B 41.4008 
*END

*D_NET *38 0.0127259
*CONN
*I *376:B I *D sg13cmos5l_xnor2_1
*I *375:Y O *D sg13cmos5l_xnor2_1
*CAP
1 *376:B 7.81008e-05
2 *375:Y 0.000777001
3 *38:16 0.00435641
4 *38:14 0.00505531
5 *376:B *364:B 0
6 *38:14 *511:A 0.000144179
7 *38:14 *57:44 0
8 *38:14 *142:12 0
9 *38:14 *154:43 0
10 *38:14 *190:48 0
11 *38:16 *57:44 0.000182121
12 *38:16 *76:8 0
13 *38:16 *91:15 0
14 *38:16 *135:10 0
15 *38:16 *143:37 0
16 *366:A *376:B 8.0185e-05
17 *367:B *376:B 0.00014436
18 *372:A *38:16 0
19 *375:A *38:14 0
20 *35:10 *38:14 0.000499886
21 *35:18 *38:16 0.00140835
22 *36:18 *38:14 0
*RES
1 *375:Y *38:14 47.6117 
2 *38:14 *38:16 37.6774 
3 *38:16 *376:B 40.9682 
*END

*D_NET *39 0.000133739
*CONN
*I *381:A I *D sg13cmos5l_nand3_1
*I *378:Y O *D sg13cmos5l_nor4_2
*CAP
1 *381:A 6.68694e-05
2 *378:Y 6.68694e-05
*RES
1 *378:Y *381:A 40.8446 
*END

*D_NET *40 0.00334302
*CONN
*I *381:B I *D sg13cmos5l_nand3_1
*I *379:Y O *D sg13cmos5l_nor4_2
*CAP
1 *381:B 0.000269175
2 *379:Y 0.000837015
3 *40:12 0.00110619
4 *381:B *378:D 0
5 *381:B *41:22 1.54556e-05
6 *381:B *42:8 0
7 *381:B *182:25 0
8 *40:12 *379:B 8.00842e-05
9 *40:12 *171:25 0.0010351
10 *40:12 *182:33 0
11 *40:12 *200:14 0
*RES
1 *379:Y *40:12 48.0958 
2 *40:12 *381:B 42.266 
*END

*D_NET *41 0.00912674
*CONN
*I *381:C I *D sg13cmos5l_nand3_1
*I *380:Y O *D sg13cmos5l_nor3_1
*CAP
1 *381:C 0
2 *380:Y 0.000598559
3 *41:22 0.00151504
4 *41:14 0.00165569
5 *41:8 0.000739216
6 *41:8 *165:26 0
7 *41:14 *479:A 0
8 *41:22 *378:D 0
9 *41:22 *433:CLK 0
10 *41:22 *99:8 0.000660226
11 *41:22 *133:14 0
12 *41:22 *133:16 0
13 *41:22 *165:26 0
14 *41:22 *182:25 0.000791319
15 *41:22 *184:14 0
16 *41:22 *193:31 0
17 *41:22 *206:8 0.00183482
18 *381:B *41:22 1.54556e-05
19 *9:10 *41:8 0.00131641
*RES
1 *380:Y *41:8 48.0134 
2 *41:8 *41:14 41.1845 
3 *41:14 *41:22 37.5821 
4 *41:22 *381:C 20 
*END

*D_NET *42 0.00873762
*CONN
*I *385:A I *D sg13cmos5l_xnor2_1
*I *381:Y O *D sg13cmos5l_nand3_1
*CAP
1 *385:A 0
2 *381:Y 0.000343723
3 *42:14 0.00133007
4 *42:8 0.00167379
5 *42:8 *459:D 0.000273562
6 *42:8 *182:25 0
7 *42:8 *200:8 0
8 *42:14 *365:A 0.000872771
9 *42:14 *197:14 0.00127733
10 *42:14 *200:14 0
11 *42:14 *201:12 0.00295098
12 *381:B *42:8 0
13 *385:B *42:14 1.54008e-05
*RES
1 *381:Y *42:8 43.1312 
2 *42:8 *42:14 38.746 
3 *42:14 *385:A 20 
*END

*D_NET *43 0.0147063
*CONN
*I *384:A I *D sg13cmos5l_xnor2_1
*I *382:X O *D sg13cmos5l_xor2_1
*CAP
1 *384:A 0.000101575
2 *382:X 0.000759271
3 *43:10 0.00235159
4 *43:8 0.00300929
5 *384:A *156:26 0
6 *43:8 *383:A 0
7 *43:8 *383:B 0.00027443
8 *43:8 *510:A 0
9 *43:8 *90:10 0
10 *43:8 *95:12 0
11 *43:8 *191:10 0
12 *43:8 *200:14 4.77425e-05
13 *384:B *384:A 0.000112228
14 *385:B *43:8 0
15 *9:10 *43:10 0.00805014
*RES
1 *382:X *43:8 47.2409 
2 *43:8 *43:10 37.4302 
3 *43:10 *384:A 40.9682 
*END

*D_NET *44 0.00388266
*CONN
*I *477:A I *D sg13cmos5l_buf_8
*I *471:A I *D sg13cmos5l_buf_8
*I *465:X O *D sg13cmos5l_buf_8
*CAP
1 *477:A 0.000158653
2 *471:A 0.000140752
3 *465:X 0.000187521
4 *44:50 0.00116495
5 *44:37 0.00100629
6 *44:21 0.00058886
7 *44:8 0.00063563
8 *471:A *46:17 0
9 *471:A *50:8 0
10 *477:A *462:D 0
11 *44:8 *137:89 0
12 *44:21 *72:8 0
13 *44:21 *137:89 0
14 *44:50 *462:D 0
15 *44:50 *465:A 0
16 *44:50 *486:A 0
17 *44:50 *547:A 0
18 *44:50 *55:20 0
19 *44:50 *74:10 0
20 *44:50 *76:20 0
21 *44:50 *76:30 0
22 *44:50 *81:18 0
23 *44:50 *91:15 0
24 *44:50 *143:14 0
25 *44:50 *199:14 0
26 *4:13 *477:A 0
27 *4:13 *44:50 0
*RES
1 *465:X *44:8 21.751 
2 *44:8 *44:21 4.5011 
3 *44:21 *471:A 21.1845 
4 *465:X *44:37 40 
5 *44:37 *44:50 29.8983 
6 *44:50 *477:A 21.8128 
*END

*D_NET *45 0.00505615
*CONN
*I *478:A I *D sg13cmos5l_buf_8
*I *472:A I *D sg13cmos5l_buf_8
*I *466:X O *D sg13cmos5l_buf_8
*CAP
1 *478:A 0
2 *472:A 0
3 *466:X 6.83324e-05
4 *45:25 0.00109986
5 *45:13 0.00135988
6 *45:8 0.00252807
7 *45:13 *447:RESET_B 0
8 *45:13 *51:8 0
9 *45:13 *135:32 0
10 *45:13 *135:57 0
11 *45:13 *169:8 0
12 *45:13 *169:25 0
13 *45:13 *175:14 0
14 *45:13 *199:57 0
15 *45:25 *371:B 0
16 *45:25 *447:RESET_B 0
17 *45:25 *57:8 0
18 *45:25 *57:14 0
19 *45:25 *147:10 0
20 *45:25 *175:14 0
21 *7:17 *45:25 0
*RES
1 *466:X *45:8 40.5356 
2 *45:8 *45:13 12.7102 
3 *45:13 *472:A 40 
4 *45:8 *45:25 9.991 
5 *45:25 *478:A 40 
*END

*D_NET *46 0.00680521
*CONN
*I *479:A I *D sg13cmos5l_buf_8
*I *473:A I *D sg13cmos5l_buf_8
*I *467:X O *D sg13cmos5l_buf_8
*CAP
1 *479:A 0.000137034
2 *473:A 0.000204852
3 *467:X 0.000163779
4 *46:35 0.00170371
5 *46:17 0.00153512
6 *46:11 0.00289694
7 *46:6 0.000163779
8 *473:A *433:D 0
9 *479:A *58:8 0
10 *479:A *58:44 0
11 *46:6 *379:C 0
12 *46:17 *433:D 0
13 *46:17 *102:10 0
14 *46:17 *156:8 0
15 *46:17 *184:33 0
16 *46:17 *184:37 0
17 *46:35 *379:C 0
18 *46:35 *58:8 0
19 *46:35 *156:8 0
20 *46:35 *158:12 0
21 *471:A *46:17 0
22 *41:14 *479:A 0
*RES
1 *467:X *46:6 21.4008 
2 *46:6 *46:11 20 
3 *46:11 *46:17 31.1137 
4 *46:17 *473:A 21.7819 
5 *46:11 *46:35 32.7823 
6 *46:35 *479:A 21.1845 
*END

*D_NET *47 0.00512159
*CONN
*I *480:A I *D sg13cmos5l_buf_8
*I *474:A I *D sg13cmos5l_buf_8
*I *468:X O *D sg13cmos5l_buf_8
*CAP
1 *480:A 0
2 *474:A 0.000106475
3 *468:X 0
4 *47:36 0.00141338
5 *47:31 0.00141338
6 *47:15 0.00114742
7 *47:6 0.00104094
8 *474:A *115:8 0
9 *47:15 *53:18 0
10 *47:15 *61:24 0
11 *47:15 *115:8 0
12 *47:15 *205:56 0
13 *47:15 *205:84 0
14 *47:36 *427:D 0
15 *47:36 *59:8 0
16 *47:36 *112:20 0
17 *47:36 *116:8 0
18 *47:36 *148:8 0
*RES
1 *468:X *47:6 40 
2 *47:6 *47:15 28.7344 
3 *47:15 *474:A 20.9682 
4 *468:X *47:31 40 
5 *47:31 *47:36 12.463 
6 *47:36 *480:A 40 
*END

*D_NET *48 0.00524049
*CONN
*I *481:A I *D sg13cmos5l_buf_8
*I *475:A I *D sg13cmos5l_buf_8
*I *469:X O *D sg13cmos5l_buf_8
*CAP
1 *481:A 0.000123527
2 *475:A 5.67958e-05
3 *469:X 0
4 *48:38 0.00129832
5 *48:29 0.00117479
6 *48:11 0.00132192
7 *48:6 0.00126513
8 *475:A *194:10 0
9 *481:A *130:10 0
10 *481:A *131:16 0
11 *48:11 *54:10 0
12 *48:11 *178:26 0
13 *48:11 *194:27 0
14 *48:11 *198:10 0
15 *48:11 *198:12 0
16 *48:38 *121:14 0
17 *48:38 *130:10 0
18 *48:38 *131:16 0
19 *48:38 *165:10 0
20 *48:38 *166:8 0
21 *48:38 *178:10 0
22 *48:38 *178:26 0
23 *48:38 *198:12 0
24 *7:15 *48:38 0
25 *7:17 *48:38 0
*RES
1 *469:X *48:6 40 
2 *48:6 *48:11 11.4742 
3 *48:11 *475:A 40.5356 
4 *469:X *48:29 40 
5 *48:29 *48:38 30.9907 
6 *48:38 *481:A 20.7269 
*END

*D_NET *49 0.00377291
*CONN
*I *482:A I *D sg13cmos5l_buf_8
*I *476:A I *D sg13cmos5l_buf_8
*I *470:X O *D sg13cmos5l_buf_8
*CAP
1 *482:A 9.19145e-05
2 *476:A 0.000103923
3 *470:X 0.000157558
4 *49:35 0.000905373
5 *49:19 0.000738805
6 *49:13 0.00153306
7 *49:6 0.000242277
8 *476:A *373:B 0
9 *482:A *125:12 0
10 *49:6 *190:48 0
11 *49:6 *199:57 0
12 *49:13 *190:48 0
13 *49:13 *199:57 0
14 *49:19 *373:B 0
15 *49:19 *88:8 0
16 *49:35 *57:44 0
17 *49:35 *89:8 0
18 *49:35 *125:12 0
19 *49:35 *136:8 0
20 *49:35 *136:16 0
21 *49:35 *206:33 0
22 *372:B *49:19 0
23 *372:B *49:35 0
24 *8:14 *49:35 0
25 *33:10 *476:A 0
26 *33:10 *49:19 0
27 *35:18 *49:19 0
28 *35:18 *49:35 0
*RES
1 *470:X *49:6 21.1845 
2 *49:6 *49:13 20.7519 
3 *49:13 *49:19 25.3045 
4 *49:19 *476:A 20.9682 
5 *49:13 *49:35 27.7765 
6 *49:35 *482:A 20.9682 
*END

*D_NET *50 0.00549067
*CONN
*I *459:CLK I *D sg13cmos5l_dfrbpq_1
*I *457:CLK I *D sg13cmos5l_dfrbpq_1
*I *456:CLK I *D sg13cmos5l_dfrbpq_1
*I *453:CLK I *D sg13cmos5l_dfrbpq_1
*I *455:CLK I *D sg13cmos5l_dfrbpq_1
*I *454:CLK I *D sg13cmos5l_dfrbpq_1
*I *471:X O *D sg13cmos5l_buf_8
*CAP
1 *459:CLK 0.000390639
2 *457:CLK 0.000243246
3 *456:CLK 0
4 *453:CLK 0
5 *455:CLK 0
6 *454:CLK 0.000279804
7 *471:X 0.000244162
8 *50:24 0.000477596
9 *50:22 0.000643565
10 *50:14 0.00103953
11 *50:8 0.000985316
12 *454:CLK *454:RESET_B 0
13 *454:CLK *97:10 0
14 *457:CLK *72:8 0.000272538
15 *459:CLK *200:14 0
16 *50:8 *68:12 0
17 *50:14 *64:8 7.51285e-05
18 *50:22 *534:A 4.78524e-05
19 *50:22 *137:27 0
20 *50:22 *170:18 0.000182109
21 *50:22 *197:14 0.000609183
22 *50:24 *137:27 0
23 *471:A *50:8 0
24 *35:18 *50:22 0
*RES
1 *471:X *50:8 41.9617 
2 *50:8 *50:14 22.9252 
3 *50:14 *50:22 45.0882 
4 *50:22 *50:24 1.8334 
5 *50:24 *454:CLK 22.1498 
6 *50:24 *455:CLK 20 
7 *50:22 *453:CLK 20 
8 *50:14 *456:CLK 20 
9 *50:14 *457:CLK 22.4308 
10 *50:8 *459:CLK 43.3578 
*END

*D_NET *51 0.00423413
*CONN
*I *446:CLK I *D sg13cmos5l_dfrbpq_1
*I *441:CLK I *D sg13cmos5l_dfrbpq_1
*I *442:CLK I *D sg13cmos5l_dfrbpq_1
*I *445:CLK I *D sg13cmos5l_dfrbpq_1
*I *443:CLK I *D sg13cmos5l_dfrbpq_1
*I *444:CLK I *D sg13cmos5l_dfrbpq_1
*I *472:X O *D sg13cmos5l_buf_8
*CAP
1 *446:CLK 0
2 *441:CLK 0.000186617
3 *442:CLK 0
4 *445:CLK 0
5 *443:CLK 0
6 *444:CLK 0.000221895
7 *472:X 0.000563375
8 *51:43 0.000402307
9 *51:22 0.000463588
10 *51:16 0.000425268
11 *51:14 0.000413129
12 *51:12 5.59116e-05
13 *51:8 0.000605424
14 *441:CLK *441:RESET_B 0
15 *441:CLK *442:RESET_B 0
16 *444:CLK *444:RESET_B 0
17 *444:CLK *91:15 0
18 *51:8 *507:A 0
19 *51:8 *76:30 0.000394738
20 *51:8 *135:32 0.000501874
21 *51:16 *135:19 0
22 *51:16 *135:36 0
23 *51:22 *444:RESET_B 0
24 *51:22 *135:19 0
25 *51:43 *441:RESET_B 0
26 *51:43 *442:RESET_B 0
27 *7:17 *51:8 0
28 *45:13 *51:8 0
*RES
1 *472:X *51:8 45.7886 
2 *51:8 *51:12 20.5356 
3 *51:12 *51:14 0.3502 
4 *51:14 *51:16 1.8334 
5 *51:16 *51:22 2.7192 
6 *51:22 *444:CLK 22.1836 
7 *51:22 *443:CLK 20 
8 *51:16 *445:CLK 20 
9 *51:14 *51:43 2.266 
10 *51:43 *442:CLK 20 
11 *51:43 *441:CLK 22.1836 
12 *51:12 *446:CLK 20 
*END

*D_NET *52 0.00896978
*CONN
*I *435:CLK I *D sg13cmos5l_dfrbpq_1
*I *433:CLK I *D sg13cmos5l_dfrbpq_1
*I *429:CLK I *D sg13cmos5l_dfrbpq_1
*I *430:CLK I *D sg13cmos5l_dfrbpq_1
*I *432:CLK I *D sg13cmos5l_dfrbpq_1
*I *431:CLK I *D sg13cmos5l_dfrbpq_1
*I *473:X O *D sg13cmos5l_buf_8
*CAP
1 *435:CLK 0.000522236
2 *433:CLK 0.000185455
3 *429:CLK 0
4 *430:CLK 0.000238175
5 *432:CLK 0
6 *431:CLK 0.000330891
7 *473:X 0.000233504
8 *52:50 0.000781008
9 *52:41 0.000270134
10 *52:30 0.000508022
11 *52:10 0.000446816
12 *52:8 0.00042246
13 *430:CLK *430:RESET_B 0
14 *430:CLK *133:28 0
15 *431:CLK *431:RESET_B 0
16 *431:CLK *90:14 0.000556238
17 *431:CLK *92:12 0.000556238
18 *431:CLK *133:38 0
19 *433:CLK *378:D 0
20 *433:CLK *193:31 0.000144089
21 *435:CLK *90:14 0.000500717
22 *435:CLK *176:36 0
23 *435:CLK *176:38 0.000342122
24 *52:8 *432:D 4.77425e-05
25 *52:8 *433:RESET_B 0
26 *52:10 *90:14 0.000662301
27 *52:10 *92:12 0.000640533
28 *52:30 *90:14 0.000288502
29 *52:30 *92:12 0.000160341
30 *52:30 *193:23 0
31 *52:41 *90:14 0.000554994
32 *52:41 *176:36 0
33 *52:41 *193:23 0
34 *52:50 *90:14 0.000235141
35 *52:50 *176:36 0
36 *10:14 *435:CLK 0.000342122
37 *41:22 *433:CLK 0
*RES
1 *473:X *52:8 42.266 
2 *52:8 *52:10 3.0694 
3 *52:10 *431:CLK 44.841 
4 *52:10 *432:CLK 40 
5 *52:8 *52:30 1.339 
6 *52:30 *430:CLK 42.266 
7 *52:30 *52:41 2.575 
8 *52:41 *429:CLK 40 
9 *52:41 *52:50 1.0918 
10 *52:50 *433:CLK 41.8334 
11 *52:50 *435:CLK 46.7774 
*END

*D_NET *53 0.00581742
*CONN
*I *426:CLK I *D sg13cmos5l_dfrbpq_1
*I *420:CLK I *D sg13cmos5l_dfrbpq_1
*I *417:CLK I *D sg13cmos5l_dfrbpq_1
*I *418:CLK I *D sg13cmos5l_dfrbpq_1
*I *419:CLK I *D sg13cmos5l_dfrbpq_1
*I *424:CLK I *D sg13cmos5l_dfrbpq_1
*I *474:X O *D sg13cmos5l_buf_8
*CAP
1 *426:CLK 0
2 *420:CLK 2.64393e-05
3 *417:CLK 0
4 *418:CLK 0.000477405
5 *419:CLK 0
6 *424:CLK 0.000255621
7 *474:X 0.000255621
8 *53:60 0.000352741
9 *53:24 0.000678822
10 *53:22 0.000476584
11 *53:18 0.000717628
12 *53:16 0.000768764
13 *418:CLK *418:D 0
14 *418:CLK *205:23 0
15 *424:CLK *392:B 0
16 *424:CLK *151:18 0
17 *53:18 *61:24 0
18 *53:18 *125:12 0
19 *53:22 *61:24 0
20 *53:22 *125:12 0
21 *53:22 *205:30 0
22 *53:22 *205:84 0
23 *53:24 *418:D 0
24 *53:24 *125:12 0.000112048
25 *53:24 *151:18 0
26 *53:24 *205:30 0
27 *53:60 *125:12 0
28 *53:60 *151:8 0.00069398
29 *53:60 *151:18 0.000394239
30 *53:60 *206:33 0.000607525
31 *53:60 *206:45 0
32 *393:B *424:CLK 0
33 *47:15 *53:18 0
*RES
1 *474:X *424:CLK 42.0812 
2 *474:X *53:16 20 
3 *53:16 *53:18 3.5638 
4 *53:18 *53:22 2.6162 
5 *53:22 *53:24 1.8334 
6 *53:24 *419:CLK 20 
7 *53:24 *418:CLK 25.1912 
8 *53:22 *417:CLK 20 
9 *53:18 *420:CLK 20.3502 
10 *53:16 *53:60 45.5826 
11 *53:60 *426:CLK 20 
*END

*D_NET *54 0.0089997
*CONN
*I *410:CLK I *D sg13cmos5l_dfrbpq_1
*I *409:CLK I *D sg13cmos5l_dfrbpq_1
*I *405:CLK I *D sg13cmos5l_dfrbpq_1
*I *407:CLK I *D sg13cmos5l_dfrbpq_1
*I *406:CLK I *D sg13cmos5l_dfrbpq_1
*I *408:CLK I *D sg13cmos5l_dfrbpq_1
*I *475:X O *D sg13cmos5l_buf_8
*CAP
1 *410:CLK 0
2 *409:CLK 0.000197254
3 *405:CLK 0
4 *407:CLK 0
5 *406:CLK 0.000224394
6 *408:CLK 0
7 *475:X 0.000269953
8 *54:57 0.000516251
9 *54:37 0.000316887
10 *54:23 0.00042427
11 *54:14 0.000318243
12 *54:12 0.000238
13 *54:10 0.000786204
14 *406:CLK *406:RESET_B 0
15 *406:CLK *187:48 0
16 *406:CLK *195:10 0
17 *409:CLK *405:RESET_B 0
18 *409:CLK *409:RESET_B 0
19 *54:10 *406:D 0
20 *54:10 *194:10 0
21 *54:10 *194:27 0.000719869
22 *54:10 *198:10 0
23 *54:14 *405:RESET_B 0
24 *54:14 *409:RESET_B 0
25 *54:23 *409:RESET_B 0
26 *54:23 *187:48 0
27 *54:23 *187:71 0
28 *54:23 *195:10 0
29 *54:37 *405:RESET_B 0
30 *54:37 *409:RESET_B 0
31 *54:57 *178:26 0.000449137
32 *54:57 *188:31 0
33 *54:57 *194:27 0.00141207
34 *6:9 *409:CLK 0
35 *7:17 *54:10 0.000982154
36 *7:17 *54:57 0.00196841
37 *18:14 *54:57 0.000176604
38 *48:11 *54:10 0
*RES
1 *475:X *54:10 45.0882 
2 *54:10 *54:12 20 
3 *54:12 *54:14 1.1845 
4 *54:14 *408:CLK 20 
5 *54:14 *54:23 2.1836 
6 *54:23 *406:CLK 22.266 
7 *54:23 *407:CLK 20 
8 *54:12 *54:37 1.1845 
9 *54:37 *405:CLK 20 
10 *54:37 *409:CLK 22.1836 
11 *54:10 *54:57 30.4339 
12 *54:57 *410:CLK 20 
*END

*D_NET *55 0.00982054
*CONN
*I *377:A I *D sg13cmos5l_and2_1
*I *368:B I *D sg13cmos5l_and2_1
*I *386:A I *D sg13cmos5l_and2_1
*I *476:X O *D sg13cmos5l_buf_8
*CAP
1 *377:A 0.000161521
2 *368:B 0
3 *386:A 0
4 *476:X 0.000205653
5 *55:20 0.00151054
6 *55:12 0.00247045
7 *55:8 0.00132709
8 *377:A *369:A 0
9 *377:A *369:D 0
10 *377:A *370:A 1.54008e-05
11 *55:8 *369:D 0
12 *55:8 *169:25 1.54556e-05
13 *55:8 *186:18 0
14 *55:12 *368:A 0
15 *55:12 *507:A 0
16 *55:12 *84:8 0.000499887
17 *55:12 *169:25 0
18 *55:12 *179:25 0
19 *55:12 *199:14 0.00156749
20 *55:12 *199:24 0.000659725
21 *55:12 *199:57 0.00012816
22 *55:20 *368:A 0
23 *55:20 *457:D 0
24 *55:20 *464:D 0.000531652
25 *55:20 *508:A 0.000242056
26 *55:20 *522:A 0.000144755
27 *55:20 *72:16 0
28 *55:20 *76:20 0
29 *55:20 *133:38 0
30 *55:20 *138:23 0
31 *55:20 *160:12 0.000340704
32 *55:20 *176:22 0
33 *363:A *55:20 0
34 *44:50 *55:20 0
*RES
1 *476:X *55:8 21.0433 
2 *55:8 *55:12 32.7102 
3 *55:12 *55:20 35.759 
4 *55:20 *386:A 20 
5 *55:12 *368:B 40 
6 *55:8 *377:A 21.4008 
*END

*D_NET *56 0.00602994
*CONN
*I *461:CLK I *D sg13cmos5l_dfrbpq_1
*I *462:CLK I *D sg13cmos5l_dfrbpq_1
*I *463:CLK I *D sg13cmos5l_dfrbpq_1
*I *460:CLK I *D sg13cmos5l_dfrbpq_1
*I *458:CLK I *D sg13cmos5l_dfrbpq_1
*I *464:CLK I *D sg13cmos5l_dfrbpq_1
*I *477:X O *D sg13cmos5l_buf_8
*CAP
1 *461:CLK 0.000132804
2 *462:CLK 4.28228e-05
3 *463:CLK 0
4 *460:CLK 0.000275355
5 *458:CLK 0
6 *464:CLK 0.000230248
7 *477:X 0.000247722
8 *56:36 0.000651669
9 *56:18 0.000489323
10 *56:14 0.000783763
11 *56:12 0.000416663
12 *56:8 0.000605992
13 *460:CLK *361:C 0
14 *460:CLK *75:14 0.000448515
15 *460:CLK *137:27 0
16 *460:CLK *144:21 0.000449015
17 *461:CLK *462:RESET_B 0.000209506
18 *461:CLK *462:D 0
19 *462:CLK *462:RESET_B 0
20 *462:CLK *137:64 0
21 *464:CLK *458:RESET_B 0
22 *464:CLK *137:89 0
23 *464:CLK *138:12 0
24 *56:8 *198:10 0
25 *56:12 *198:10 0
26 *56:14 *461:RESET_B 1.54008e-05
27 *56:14 *461:D 0
28 *56:14 *462:RESET_B 0
29 *56:18 *461:RESET_B 4.77425e-05
30 *56:18 *137:89 0
31 *56:36 *75:14 0.000342951
32 *56:36 *137:72 0
33 *56:36 *144:21 0.000640447
34 *56:36 *198:10 0
35 *4:13 *56:8 0
*RES
1 *477:X *56:8 42.8222 
2 *56:8 *56:12 22.575 
3 *56:12 *56:14 1.4008 
4 *56:14 *56:18 2.6162 
5 *56:18 *464:CLK 22.1836 
6 *56:18 *458:CLK 20 
7 *56:14 *56:36 24.5526 
8 *56:36 *460:CLK 43.914 
9 *56:36 *463:CLK 40 
10 *56:12 *462:CLK 20.5356 
11 *56:8 *461:CLK 41.4008 
*END

*D_NET *57 0.00615787
*CONN
*I *451:CLK I *D sg13cmos5l_dfrbpq_1
*I *448:CLK I *D sg13cmos5l_dfrbpq_1
*I *450:CLK I *D sg13cmos5l_dfrbpq_1
*I *449:CLK I *D sg13cmos5l_dfrbpq_1
*I *452:CLK I *D sg13cmos5l_dfrbpq_1
*I *447:CLK I *D sg13cmos5l_dfrbpq_1
*I *478:X O *D sg13cmos5l_buf_8
*CAP
1 *451:CLK 7.328e-05
2 *448:CLK 0
3 *450:CLK 0
4 *449:CLK 0
5 *452:CLK 0.000184088
6 *447:CLK 0
7 *478:X 0.000411731
8 *57:44 0.000293309
9 *57:34 0.000566373
10 *57:30 0.00042694
11 *57:28 0.000227156
12 *57:14 0.000658775
13 *57:8 0.000886418
14 *451:CLK *174:12 0
15 *451:CLK *190:48 0
16 *452:CLK *553:A 0
17 *452:CLK *136:49 0
18 *57:8 *147:10 0.00112872
19 *57:14 *451:D 0
20 *57:14 *553:A 0
21 *57:14 *136:34 8.0216e-05
22 *57:14 *136:49 0
23 *57:14 *147:10 0.00050329
24 *57:30 *174:12 0
25 *57:30 *190:48 0
26 *57:34 *154:20 0
27 *57:34 *190:48 0
28 *57:44 *136:16 2.20966e-05
29 *57:44 *190:48 0.000175798
30 *372:A *57:44 0.000337558
31 *7:17 *57:8 0
32 *38:14 *57:44 0
33 *38:16 *57:44 0.000182121
34 *45:25 *57:8 0
35 *45:25 *57:14 0
36 *49:35 *57:44 0
*RES
1 *478:X *57:8 45.2942 
2 *57:8 *57:14 25.0264 
3 *57:14 *447:CLK 20 
4 *57:14 *452:CLK 21.8334 
5 *57:8 *57:28 20 
6 *57:28 *57:30 1.4008 
7 *57:30 *57:34 2.8634 
8 *57:34 *57:44 43.5226 
9 *57:44 *449:CLK 20 
10 *57:34 *450:CLK 20 
11 *57:30 *448:CLK 20 
12 *57:28 *451:CLK 20.8858 
*END

*D_NET *58 0.00675018
*CONN
*I *438:CLK I *D sg13cmos5l_dfrbpq_1
*I *436:CLK I *D sg13cmos5l_dfrbpq_1
*I *439:CLK I *D sg13cmos5l_dfrbpq_1
*I *440:CLK I *D sg13cmos5l_dfrbpq_1
*I *437:CLK I *D sg13cmos5l_dfrbpq_1
*I *434:CLK I *D sg13cmos5l_dfrbpq_1
*I *479:X O *D sg13cmos5l_buf_8
*CAP
1 *438:CLK 0.000251249
2 *436:CLK 0
3 *439:CLK 0
4 *440:CLK 0.000121129
5 *437:CLK 0
6 *434:CLK 0.000461056
7 *479:X 0.000702012
8 *58:53 0.000468623
9 *58:44 0.000433347
10 *58:14 0.000597217
11 *58:12 0.00157325
12 *58:8 0.001802
13 *434:CLK *434:RESET_B 0
14 *434:CLK *435:RESET_B 0
15 *438:CLK *500:A 0
16 *438:CLK *514:A 0
17 *440:CLK *379:C 0
18 *440:CLK *437:RESET_B 0
19 *440:CLK *440:RESET_B 0
20 *58:8 *500:A 0
21 *58:12 *146:16 0.000340288
22 *58:12 *156:8 0
23 *58:44 *535:A 0
24 *58:44 *184:8 0
25 *58:53 *500:A 0
26 *58:53 *514:A 0
27 *479:A *58:8 0
28 *479:A *58:44 0
29 *46:35 *58:8 0
*RES
1 *479:X *58:8 44.429 
2 *58:8 *58:12 27.7662 
3 *58:12 *58:14 1.1845 
4 *58:14 *434:CLK 24.3466 
5 *58:14 *437:CLK 20 
6 *58:12 *440:CLK 21.1845 
7 *479:X *58:44 22.6162 
8 *58:44 *439:CLK 20 
9 *58:44 *58:53 1.9988 
10 *58:53 *436:CLK 20 
11 *58:53 *438:CLK 22.266 
*END

*D_NET *59 0.00770242
*CONN
*I *427:CLK I *D sg13cmos5l_dfrbpq_1
*I *421:CLK I *D sg13cmos5l_dfrbpq_1
*I *425:CLK I *D sg13cmos5l_dfrbpq_1
*I *428:CLK I *D sg13cmos5l_dfrbpq_1
*I *423:CLK I *D sg13cmos5l_dfrbpq_1
*I *422:CLK I *D sg13cmos5l_dfrbpq_1
*I *480:X O *D sg13cmos5l_buf_8
*CAP
1 *427:CLK 0.0001724
2 *421:CLK 0
3 *425:CLK 0
4 *428:CLK 0.000307138
5 *423:CLK 0
6 *422:CLK 8.31541e-05
7 *480:X 0.000644247
8 *59:54 0.00114712
9 *59:48 0.00156705
10 *59:25 0.000493113
11 *59:16 0.000562398
12 *59:12 0.000346003
13 *59:10 0.000300266
14 *59:8 0.000644247
15 *427:CLK *165:18 0
16 *428:CLK *423:RESET_B 0
17 *428:CLK *428:RESET_B 0
18 *428:CLK *165:18 0
19 *59:8 *116:8 0
20 *59:25 *423:RESET_B 0
21 *59:25 *428:RESET_B 0
22 *59:48 *165:18 0
23 *59:54 *115:14 0.00125297
24 *59:54 *195:10 0
25 *59:54 *206:45 0
26 *8:14 *427:CLK 0
27 *8:14 *59:54 0
28 *18:24 *59:54 0.000182315
29 *22:18 *427:CLK 0
30 *22:18 *59:54 0
31 *23:14 *59:12 0
32 *23:14 *59:48 0
33 *47:36 *59:8 0
*RES
1 *480:X *59:8 45.047 
2 *59:8 *59:10 20 
3 *59:10 *59:12 0.5356 
4 *59:12 *59:16 2.8634 
5 *59:16 *422:CLK 20.8446 
6 *59:16 *59:25 1.8334 
7 *59:25 *423:CLK 20 
8 *59:25 *428:CLK 23.3578 
9 *59:12 *425:CLK 20 
10 *59:10 *59:48 22.4823 
11 *59:48 *59:54 32.9059 
12 *59:54 *421:CLK 20 
13 *59:48 *427:CLK 42.0291 
*END

*D_NET *60 0.00488009
*CONN
*I *413:CLK I *D sg13cmos5l_dfrbpq_1
*I *412:CLK I *D sg13cmos5l_dfrbpq_1
*I *415:CLK I *D sg13cmos5l_dfrbpq_1
*I *414:CLK I *D sg13cmos5l_dfrbpq_1
*I *416:CLK I *D sg13cmos5l_dfrbpq_1
*I *411:CLK I *D sg13cmos5l_dfrbpq_1
*I *481:X O *D sg13cmos5l_buf_8
*CAP
1 *413:CLK 0.000129049
2 *412:CLK 0
3 *415:CLK 0.000187197
4 *414:CLK 0.000271221
5 *416:CLK 0
6 *411:CLK 0.000268611
7 *481:X 0.000302722
8 *60:47 0.00051113
9 *60:27 0.000658226
10 *60:12 0.000781746
11 *60:10 0.000605058
12 *60:8 0.000586768
13 *411:CLK *127:8 0
14 *411:CLK *166:12 0
15 *411:CLK *198:29 0
16 *413:CLK *551:A 0.000209506
17 *413:CLK *165:18 0
18 *414:CLK *414:RESET_B 0
19 *415:CLK *415:RESET_B 0
20 *415:CLK *165:18 8.01612e-05
21 *60:8 *127:8 0
22 *60:10 *127:8 0
23 *60:12 *127:8 0
24 *60:27 *413:D 0
25 *60:27 *198:27 0
26 *60:27 *198:29 0
27 *60:27 *202:8 0
28 *60:47 *413:D 0
29 *60:47 *165:18 0
30 *60:47 *198:29 0
31 *60:47 *202:8 1.54008e-05
32 *7:15 *414:CLK 0.000273299
33 *7:15 *60:27 0
34 *20:22 *411:CLK 0
35 *20:22 *60:8 0
36 *20:22 *60:10 0
37 *20:22 *60:12 0
38 *23:14 *411:CLK 0
*RES
1 *481:X *60:8 43.0694 
2 *60:8 *60:10 1.5862 
3 *60:10 *60:12 1.339 
4 *60:12 *411:CLK 42.6162 
5 *60:12 *60:27 23.5638 
6 *60:27 *416:CLK 20 
7 *60:27 *414:CLK 22.9252 
8 *60:10 *60:47 23.0488 
9 *60:47 *415:CLK 21.8334 
10 *60:47 *412:CLK 20 
11 *60:8 *413:CLK 41.4008 
*END

*D_NET *61 0.00579772
*CONN
*I *395:A I *D sg13cmos5l_and2_1
*I *404:A I *D sg13cmos5l_and2_1
*I *483:A I *D sg13cmos5l_buf_2
*I *482:X O *D sg13cmos5l_buf_8
*CAP
1 *395:A 5.06303e-05
2 *404:A 0
3 *483:A 0.000342685
4 *482:X 0.00124372
5 *61:34 0.00114852
6 *61:26 0.00119915
7 *61:24 0.000901039
8 *395:A *395:B 1.54008e-05
9 *483:A *406:D 0
10 *483:A *501:A 0
11 *483:A *125:12 0
12 *61:24 *387:D 0
13 *61:24 *406:RESET_B 0
14 *61:24 *406:D 2.21754e-05
15 *61:24 *421:RESET_B 0
16 *61:24 *421:D 0.000160701
17 *61:24 *115:8 0.000111683
18 *61:24 *125:12 0
19 *61:24 *205:84 0.000128662
20 *61:34 *387:C 8.73995e-05
21 *61:34 *387:D 0.000240918
22 *61:34 *395:B 0.000145031
23 *61:34 *421:RESET_B 0
24 *61:34 *192:14 0
25 *61:34 *196:23 0
26 *11:10 *61:34 0
27 *47:15 *61:24 0
28 *53:18 *61:24 0
29 *53:22 *61:24 0
*RES
1 *482:X *483:A 42.2387 
2 *482:X *61:24 48.652 
3 *61:24 *61:26 20 
4 *61:26 *61:34 49.7232 
5 *61:34 *404:A 20 
6 *61:26 *395:A 20.5356 
*END

*D_NET *62 0.00355091
*CONN
*I *453:D I *D sg13cmos5l_dfrbpq_1
*I *367:Y O *D sg13cmos5l_xnor2_1
*CAP
1 *453:D 0.000289282
2 *367:Y 0.00111851
3 *62:14 0.00140779
4 *453:D *360:A 4.78524e-05
5 *453:D *133:38 0
6 *62:14 *365:A 0
7 *62:14 *72:16 8.03692e-05
8 *367:B *62:14 0
9 *35:18 *62:14 0.000607108
*RES
1 *367:Y *62:14 48.3533 
2 *62:14 *453:D 42.4823 
*END

*D_NET *63 0.000599006
*CONN
*I *465:A I *D sg13cmos5l_buf_8
*I *368:X O *D sg13cmos5l_and2_1
*CAP
1 *465:A 0.000210869
2 *368:X 0.000210869
3 *465:A *486:A 0
4 *465:A *530:A 0
5 *465:A *547:A 0.000177268
6 *465:A *135:10 0
7 *44:50 *465:A 0
*RES
1 *368:X *465:A 42.3175 
*END

*D_NET *64 0.00408777
*CONN
*I *539:A I *D sg13cmos5l_dlygate4sd3_1
*I *453:Q O *D sg13cmos5l_dfrbpq_1
*CAP
1 *539:A 0.00059436
2 *453:Q 0.000323002
3 *64:8 0.000917362
4 *539:A *97:10 0
5 *539:A *137:27 0.000402929
6 *539:A *176:36 0.000952847
7 *64:8 *68:12 0.000822141
8 *50:14 *64:8 7.51285e-05
*RES
1 *453:Q *64:8 44.3054 
2 *64:8 *539:A 46.3757 
*END

*D_NET *65 0.000997509
*CONN
*I *513:A I *D sg13cmos5l_dlygate4sd3_1
*I *463:Q O *D sg13cmos5l_dfrbpq_1
*CAP
1 *513:A 2.97638e-05
2 *463:Q 0.000193497
3 *65:8 0.000223261
4 *513:A *460:D 4.78685e-05
5 *65:8 *75:14 0
6 *65:8 *144:21 0.000503119
*RES
1 *463:Q *65:8 42.3278 
2 *65:8 *513:A 40.3193 
*END

*D_NET *66 0.00132991
*CONN
*I *550:A I *D sg13cmos5l_dlygate4sd3_1
*I *464:Q O *D sg13cmos5l_dfrbpq_1
*CAP
1 *550:A 0.000415137
2 *464:Q 0.000415137
3 *550:A *547:A 0
4 *550:A *137:89 0.000499636
*RES
1 *464:Q *550:A 44.5423 
*END

*D_NET *67 0.00274212
*CONN
*I *510:A I *D sg13cmos5l_dlygate4sd3_1
*I *454:Q O *D sg13cmos5l_dfrbpq_1
*CAP
1 *510:A 0.000118377
2 *454:Q 0.000798834
3 *67:10 0.000917211
4 *510:A *191:10 0.000112048
5 *67:10 *97:10 0.000716154
6 *67:10 *189:8 7.94957e-05
7 *43:8 *510:A 0
*RES
1 *454:Q *67:10 45.3354 
2 *67:10 *510:A 41.1845 
*END

*D_NET *68 0.0045446
*CONN
*I *522:A I *D sg13cmos5l_dlygate4sd3_1
*I *455:Q O *D sg13cmos5l_dfrbpq_1
*CAP
1 *522:A 7.95822e-05
2 *455:Q 0.000659946
3 *68:20 0.000591745
4 *68:12 0.00117211
5 *68:12 *72:8 4.74145e-05
6 *68:12 *200:14 0
7 *68:20 *534:A 0
8 *68:20 *70:8 0.000287256
9 *68:20 *137:27 0.000595203
10 *363:A *522:A 0.00014445
11 *50:8 *68:12 0
12 *55:20 *522:A 0.000144755
13 *64:8 *68:12 0.000822141
*RES
1 *455:Q *68:12 46.6744 
2 *68:12 *68:20 45.3354 
3 *68:20 *522:A 40.9682 
*END

*D_NET *69 0.00182864
*CONN
*I *534:A I *D sg13cmos5l_dlygate4sd3_1
*I *456:Q O *D sg13cmos5l_dfrbpq_1
*CAP
1 *534:A 0.000729495
2 *456:Q 0.000729495
3 *534:A *361:C 0
4 *534:A *361:D 4.77425e-05
5 *534:A *76:14 0
6 *534:A *137:27 0
7 *534:A *153:25 0
8 *534:A *170:18 0
9 *26:10 *534:A 0.000274057
10 *50:22 *534:A 4.78524e-05
11 *68:20 *534:A 0
*RES
1 *456:Q *534:A 46.7465 
*END

*D_NET *70 0.00178112
*CONN
*I *508:A I *D sg13cmos5l_dlygate4sd3_1
*I *457:Q O *D sg13cmos5l_dfrbpq_1
*CAP
1 *508:A 0.000148323
2 *457:Q 0.000163559
3 *70:8 0.000311881
4 *508:A *176:22 0
5 *70:8 *364:B 0.000287342
6 *70:8 *457:D 0.000340704
7 *70:8 *72:16 0
8 *55:20 *508:A 0.000242056
9 *68:20 *70:8 0.000287256
*RES
1 *457:Q *70:8 42.8222 
2 *70:8 *508:A 41.6171 
*END

*D_NET *71 0.00136063
*CONN
*I *547:A I *D sg13cmos5l_dlygate4sd3_1
*I *458:Q O *D sg13cmos5l_dfrbpq_1
*CAP
1 *547:A 0.00059168
2 *458:Q 0.00059168
3 *547:A *521:A 0
4 *547:A *530:A 0
5 *547:A *76:20 0
6 *547:A *135:10 0
7 *547:A *137:89 0
8 *465:A *547:A 0.000177268
9 *550:A *547:A 0
10 *44:50 *547:A 0
*RES
1 *458:Q *547:A 46.1594 
*END

*D_NET *72 0.00346905
*CONN
*I *503:A I *D sg13cmos5l_dlygate4sd3_1
*I *459:Q O *D sg13cmos5l_dfrbpq_1
*CAP
1 *503:A 0
2 *459:Q 0.000508656
3 *72:16 0.00101798
4 *72:8 0.00152664
5 *72:8 *361:A 0
6 *72:8 *138:27 0
7 *72:16 *364:B 0
8 *72:16 *457:D 0
9 *72:16 *138:8 0
10 *72:16 *153:12 0
11 *367:B *72:16 1.54556e-05
12 *457:CLK *72:8 0.000272538
13 *44:21 *72:8 0
14 *55:20 *72:16 0
15 *62:14 *72:16 8.03692e-05
16 *68:12 *72:8 4.74145e-05
17 *70:8 *72:16 0
*RES
1 *459:Q *72:8 44.8616 
2 *72:8 *72:16 30.5987 
3 *72:16 *503:A 20 
*END

*D_NET *73 0.00399897
*CONN
*I *516:A I *D sg13cmos5l_dlygate4sd3_1
*I *460:Q O *D sg13cmos5l_dfrbpq_1
*CAP
1 *516:A 0
2 *460:Q 0
3 *73:12 0.000857405
4 *73:6 0.000857405
5 *73:12 *461:D 0
6 *73:12 *132:10 0.000661385
7 *73:12 *137:8 0.000501546
8 *73:12 *137:19 0.000319852
9 *73:12 *137:64 0.000801375
10 *73:12 *163:12 0
11 *558:A *73:12 0
12 *3:13 *73:12 0
*RES
1 *460:Q *73:6 40 
2 *73:6 *73:12 31.2991 
3 *73:12 *516:A 20 
*END

*D_NET *74 0.00257805
*CONN
*I *507:A I *D sg13cmos5l_dlygate4sd3_1
*I *461:Q O *D sg13cmos5l_dfrbpq_1
*CAP
1 *507:A 0.000996384
2 *461:Q 0.000228058
3 *74:10 0.00122444
4 *507:A *368:A 0
5 *507:A *76:20 0
6 *507:A *76:30 0
7 *507:A *138:8 0
8 *507:A *153:25 0
9 *507:A *155:25 0.000129163
10 *74:10 *76:30 0
11 *7:17 *507:A 0
12 *44:50 *74:10 0
13 *51:8 *507:A 0
14 *55:12 *507:A 0
*RES
1 *461:Q *74:10 41.9673 
2 *74:10 *507:A 49.7438 
*END

*D_NET *75 0.00421391
*CONN
*I *498:A I *D sg13cmos5l_dlygate4sd3_1
*I *462:Q O *D sg13cmos5l_dfrbpq_1
*CAP
1 *498:A 0
2 *462:Q 0.000131894
3 *75:14 0.000715411
4 *75:8 0.000847305
5 *75:8 *361:C 0
6 *75:8 *137:64 0
7 *75:14 *144:21 0
8 *75:14 *198:10 0.00172784
9 *460:CLK *75:14 0.000448515
10 *56:36 *75:14 0.000342951
11 *65:8 *75:14 0
*RES
1 *462:Q *75:8 41.1845 
2 *75:8 *75:14 30.0631 
3 *75:14 *498:A 20 
*END

*D_NET *76 0.00863281
*CONN
*I *441:D I *D sg13cmos5l_dfrbpq_1
*I *376:Y O *D sg13cmos5l_xnor2_1
*CAP
1 *441:D 0
2 *376:Y 0.000394574
3 *76:30 0.000511482
4 *76:20 0.00154335
5 *76:14 0.00139937
6 *76:8 0.000762076
7 *76:8 *364:B 0.00108523
8 *76:8 *457:D 0.000371639
9 *76:8 *91:15 0
10 *76:8 *170:8 0.000181781
11 *76:8 *176:28 0.00039332
12 *76:14 *361:A 0
13 *76:14 *361:C 0
14 *76:14 *361:D 4.77425e-05
15 *76:20 *368:A 0
16 *76:20 *464:D 0
17 *76:20 *137:89 0
18 *76:20 *138:8 0.00071894
19 *76:20 *138:23 0
20 *76:30 *441:RESET_B 0
21 *76:30 *143:14 0
22 *507:A *76:20 0
23 *507:A *76:30 0
24 *534:A *76:14 0
25 *547:A *76:20 0
26 *4:13 *76:30 0.000274507
27 *7:17 *76:30 0.000554076
28 *38:16 *76:8 0
29 *44:50 *76:20 0
30 *44:50 *76:30 0
31 *51:8 *76:30 0.000394738
32 *55:20 *76:20 0
33 *74:10 *76:30 0
*RES
1 *376:Y *76:8 46.7774 
2 *76:8 *76:14 43.1312 
3 *76:14 *76:20 30.8718 
4 *76:20 *76:30 46.5508 
5 *76:30 *441:D 20 
*END

*D_NET *77 0.000273673
*CONN
*I *466:A I *D sg13cmos5l_buf_8
*I *377:X O *D sg13cmos5l_and2_1
*CAP
1 *466:A 9.91381e-05
2 *377:X 9.91381e-05
3 *466:A *369:A 0
4 *466:A *369:D 7.53965e-05
*RES
1 *377:X *466:A 41.1639 
*END

*D_NET *78 0.00319966
*CONN
*I *540:A I *D sg13cmos5l_dlygate4sd3_1
*I *441:Q O *D sg13cmos5l_dfrbpq_1
*CAP
1 *540:A 0
2 *441:Q 0
3 *78:12 0.00142861
4 *78:6 0.00142861
5 *78:12 *544:A 0
6 *78:12 *80:8 0
7 *78:12 *136:49 0.00034245
8 *78:12 *198:10 0
9 *556:A *78:12 0
10 *5:9 *78:12 0
*RES
1 *441:Q *78:6 40 
2 *78:6 *78:12 37.4791 
3 *78:12 *540:A 20 
*END

*D_NET *79 0.000817968
*CONN
*I *526:A I *D sg13cmos5l_dlygate4sd3_1
*I *451:Q O *D sg13cmos5l_dfrbpq_1
*CAP
1 *526:A 0.000385091
2 *451:Q 0.000385091
3 *526:A *452:D 0
4 *526:A *499:A 4.77866e-05
5 *526:A *154:20 0
6 *526:A *174:12 0
7 *526:A *190:10 0
8 *556:A *526:A 0
*RES
1 *451:Q *526:A 43.3475 
*END

*D_NET *80 0.00146096
*CONN
*I *553:A I *D sg13cmos5l_dlygate4sd3_1
*I *452:Q O *D sg13cmos5l_dfrbpq_1
*CAP
1 *553:A 0.000578229
2 *452:Q 0.000152253
3 *80:8 0.000730482
4 *553:A *371:B 0
5 *553:A *447:RESET_B 0
6 *553:A *451:D 0
7 *553:A *136:34 0
8 *80:8 *198:10 0
9 *452:CLK *553:A 0
10 *32:16 *553:A 0
11 *57:14 *553:A 0
12 *78:12 *80:8 0
*RES
1 *452:Q *80:8 41.5862 
2 *80:8 *553:A 45.2942 
*END

*D_NET *81 0.00315564
*CONN
*I *530:A I *D sg13cmos5l_dlygate4sd3_1
*I *442:Q O *D sg13cmos5l_dfrbpq_1
*CAP
1 *530:A 0.000250173
2 *442:Q 0.000788396
3 *81:18 0.00103857
4 *530:A *486:A 0
5 *530:A *548:A 0
6 *530:A *135:10 8.00842e-05
7 *81:18 *441:RESET_B 0
8 *81:18 *446:D 6.41216e-05
9 *81:18 *486:A 0
10 *81:18 *135:10 0.000501875
11 *81:18 *135:19 0
12 *81:18 *143:14 0.000208708
13 *81:18 *143:37 0
14 *81:18 *179:25 0.000175853
15 *81:18 *199:14 4.78556e-05
16 *465:A *530:A 0
17 *547:A *530:A 0
18 *44:50 *81:18 0
*RES
1 *442:Q *81:18 48.7756 
2 *81:18 *530:A 42.3999 
*END

*D_NET *82 0.00151317
*CONN
*I *519:A I *D sg13cmos5l_dlygate4sd3_1
*I *443:Q O *D sg13cmos5l_dfrbpq_1
*CAP
1 *519:A 0
2 *443:Q 0.000453197
3 *82:12 0.000453197
4 *82:12 *444:RESET_B 0
5 *82:12 *161:8 0
6 *82:12 *167:10 0.00060678
*RES
1 *443:Q *82:12 44.5732 
2 *82:12 *519:A 40 
*END

*D_NET *83 0.00100271
*CONN
*I *548:A I *D sg13cmos5l_dlygate4sd3_1
*I *444:Q O *D sg13cmos5l_dfrbpq_1
*CAP
1 *548:A 0.000413597
2 *444:Q 0.000413597
3 *548:A *91:15 0
4 *548:A *179:10 0.000175513
5 *548:A *199:14 0
6 *530:A *548:A 0
*RES
1 *444:Q *548:A 44.5835 
*END

*D_NET *84 0.000929776
*CONN
*I *521:A I *D sg13cmos5l_dlygate4sd3_1
*I *445:Q O *D sg13cmos5l_dfrbpq_1
*CAP
1 *521:A 3.51608e-05
2 *445:Q 0.000179784
3 *84:8 0.000214945
4 *84:8 *486:A 0
5 *547:A *521:A 0
6 *55:12 *84:8 0.000499887
*RES
1 *445:Q *84:8 42.3278 
2 *84:8 *521:A 40.3193 
*END

*D_NET *85 0.00259624
*CONN
*I *537:A I *D sg13cmos5l_dlygate4sd3_1
*I *446:Q O *D sg13cmos5l_dfrbpq_1
*CAP
1 *537:A 0.000386879
2 *446:Q 0.000144746
3 *85:8 0.000531624
4 *537:A *369:A 0
5 *537:A *369:B 0
6 *537:A *186:8 0
7 *85:8 *135:57 0.000766706
8 *7:17 *85:8 0.00076629
*RES
1 *446:Q *85:8 43.5638 
2 *85:8 *537:A 43.3475 
*END

*D_NET *86 0.000630545
*CONN
*I *499:A I *D sg13cmos5l_dlygate4sd3_1
*I *447:Q O *D sg13cmos5l_dfrbpq_1
*CAP
1 *499:A 2.89208e-05
2 *447:Q 0.000262459
3 *86:8 0.000291379
4 *499:A *174:12 0
5 *86:8 *154:8 0
6 *86:8 *190:10 0
7 *86:8 *198:10 0
8 *526:A *499:A 4.77866e-05
*RES
1 *447:Q *86:8 42.3278 
2 *86:8 *499:A 40.3193 
*END

*D_NET *87 0.000473483
*CONN
*I *527:A I *D sg13cmos5l_dlygate4sd3_1
*I *448:Q O *D sg13cmos5l_dfrbpq_1
*CAP
1 *527:A 3.15903e-05
2 *448:Q 0.000205151
3 *87:8 0.000236742
4 *527:A *125:12 0
5 *87:8 *89:8 0
6 *87:8 *143:37 0
7 *87:8 *147:10 0
8 *87:8 *175:8 0
*RES
1 *448:Q *87:8 42.3278 
2 *87:8 *527:A 40.3193 
*END

*D_NET *88 0.00112635
*CONN
*I *494:A I *D sg13cmos5l_dlygate4sd3_1
*I *449:Q O *D sg13cmos5l_dfrbpq_1
*CAP
1 *494:A 0.000198712
2 *449:Q 0.000147489
3 *88:8 0.000346201
4 *494:A *371:A 0
5 *494:A *514:A 4.78524e-05
6 *372:B *88:8 0
7 *32:16 *494:A 8.03692e-05
8 *33:10 *494:A 0.00030573
9 *49:19 *88:8 0
*RES
1 *449:Q *88:8 41.0918 
2 *88:8 *494:A 42.0497 
*END

*D_NET *89 0.00112142
*CONN
*I *501:A I *D sg13cmos5l_dlygate4sd3_1
*I *450:Q O *D sg13cmos5l_dfrbpq_1
*CAP
1 *501:A 0.000199401
2 *450:Q 0.00036131
3 *89:8 0.000560712
4 *501:A *406:D 0
5 *89:8 *136:8 0
6 *89:8 *143:37 0
7 *89:8 *151:18 0
8 *483:A *501:A 0
9 *49:35 *89:8 0
10 *87:8 *89:8 0
*RES
1 *450:Q *89:8 44.0582 
2 *89:8 *501:A 41.6171 
*END

*D_NET *90 0.00999668
*CONN
*I *429:D I *D sg13cmos5l_dfrbpq_1
*I *385:Y O *D sg13cmos5l_xnor2_1
*CAP
1 *429:D 0
2 *385:Y 0.00063589
3 *90:14 0.00119493
4 *90:10 0.00183082
5 *90:10 *541:A 0.00020873
6 *90:14 *378:D 0.000693238
7 *90:14 *92:12 0
8 *90:14 *180:8 0.00263519
9 *90:14 *193:23 0
10 *385:B *90:10 0
11 *431:CLK *90:14 0.000556238
12 *435:CLK *90:14 0.000500717
13 *10:14 *90:14 0
14 *43:8 *90:10 0
15 *52:10 *90:14 0.000662301
16 *52:30 *90:14 0.000288502
17 *52:41 *90:14 0.000554994
18 *52:50 *90:14 0.000235141
*RES
1 *385:Y *90:10 45.6753 
2 *90:10 *90:14 38.8902 
3 *90:14 *429:D 20 
*END

*D_NET *91 0.00516878
*CONN
*I *467:A I *D sg13cmos5l_buf_8
*I *386:X O *D sg13cmos5l_and2_1
*CAP
1 *467:A 0.000149313
2 *386:X 0
3 *91:15 0.00258439
4 *91:6 0.00243508
5 *91:15 *457:D 0
6 *91:15 *135:10 0
7 *91:15 *170:8 0
8 *91:15 *176:28 0
9 *444:CLK *91:15 0
10 *548:A *91:15 0
11 *38:16 *91:15 0
12 *44:50 *91:15 0
13 *76:8 *91:15 0
*RES
1 *386:X *91:6 40 
2 *91:6 *91:15 39.0312 
3 *91:15 *467:A 21.3184 
*END

*D_NET *92 0.0055304
*CONN
*I *543:A I *D sg13cmos5l_dlygate4sd3_1
*I *429:Q O *D sg13cmos5l_dfrbpq_1
*CAP
1 *543:A 0
2 *429:Q 0
3 *92:12 0.000768964
4 *92:6 0.000768964
5 *92:12 *193:23 0.00263536
6 *431:CLK *92:12 0.000556238
7 *52:10 *92:12 0.000640533
8 *52:30 *92:12 0.000160341
9 *90:14 *92:12 0
*RES
1 *429:Q *92:6 40 
2 *92:6 *92:12 32.5351 
3 *92:12 *543:A 20 
*END

*D_NET *93 0.00361739
*CONN
*I *514:A I *D sg13cmos5l_dlygate4sd3_1
*I *439:Q O *D sg13cmos5l_dfrbpq_1
*CAP
1 *514:A 0.000734411
2 *439:Q 0.000480897
3 *93:10 0.00121531
4 *514:A *371:A 0.000338355
5 *514:A *439:RESET_B 0
6 *514:A *146:6 0.000143932
7 *514:A *146:16 0.000209451
8 *93:10 *100:8 0.000447182
9 *93:10 *206:22 0
10 *438:CLK *514:A 0
11 *494:A *514:A 4.78524e-05
12 *10:14 *93:10 0
13 *33:10 *514:A 0
14 *58:53 *514:A 0
*RES
1 *439:Q *93:10 44.3775 
2 *93:10 *514:A 46.3169 
*END

*D_NET *94 0.000512184
*CONN
*I *549:A I *D sg13cmos5l_dlygate4sd3_1
*I *440:Q O *D sg13cmos5l_dfrbpq_1
*CAP
1 *549:A 0.000256092
2 *440:Q 0.000256092
3 *549:A *171:25 0
*RES
1 *440:Q *549:A 42.3484 
*END

*D_NET *95 0.00429326
*CONN
*I *533:A I *D sg13cmos5l_dlygate4sd3_1
*I *430:Q O *D sg13cmos5l_dfrbpq_1
*CAP
1 *533:A 0
2 *430:Q 0
3 *95:12 0.000977578
4 *95:6 0.000977578
5 *95:12 *96:8 0.00103477
6 *95:12 *133:28 0.000320354
7 *95:12 *133:38 0.000982983
8 *95:12 *182:8 0
9 *95:12 *182:25 0
10 *95:12 *193:23 0
11 *43:8 *95:12 0
*RES
1 *430:Q *95:6 40 
2 *95:6 *95:12 31.7935 
3 *95:12 *533:A 20 
*END

*D_NET *96 0.00236021
*CONN
*I *531:A I *D sg13cmos5l_dlygate4sd3_1
*I *431:Q O *D sg13cmos5l_dfrbpq_1
*CAP
1 *531:A 0.000172821
2 *431:Q 0.000489897
3 *96:8 0.000662718
4 *531:A *383:A 0
5 *96:8 *383:B 0
6 *96:8 *193:23 0
7 *9:10 *96:8 0
8 *95:12 *96:8 0.00103477
*RES
1 *431:Q *96:8 47.0246 
2 *96:8 *531:A 41.8334 
*END

*D_NET *97 0.00316925
*CONN
*I *541:A I *D sg13cmos5l_dlygate4sd3_1
*I *432:Q O *D sg13cmos5l_dfrbpq_1
*CAP
1 *541:A 0.000177504
2 *432:Q 0.000944677
3 *97:10 0.00112218
4 *97:10 *191:25 0
5 *454:CLK *97:10 0
6 *539:A *97:10 0
7 *67:10 *97:10 0.000716154
8 *90:10 *541:A 0.00020873
*RES
1 *432:Q *97:10 48.4872 
2 *97:10 *541:A 41.751 
*END

*D_NET *98 0.00127851
*CONN
*I *523:A I *D sg13cmos5l_dlygate4sd3_1
*I *433:Q O *D sg13cmos5l_dfrbpq_1
*CAP
1 *523:A 0.000567056
2 *433:Q 0.000567056
3 *523:A *429:RESET_B 0.000144403
4 *523:A *434:D 0
5 *523:A *171:25 0
6 *523:A *182:25 0
*RES
1 *433:Q *523:A 45.5002 
*END

*D_NET *99 0.00341617
*CONN
*I *535:A I *D sg13cmos5l_dlygate4sd3_1
*I *434:Q O *D sg13cmos5l_dfrbpq_1
*CAP
1 *535:A 5.55079e-05
2 *434:Q 0.000459128
3 *99:8 0.000514636
4 *535:A *156:26 0
5 *99:8 *133:12 0
6 *99:8 *165:26 0.00172668
7 *99:8 *184:14 0
8 *384:B *535:A 0
9 *41:22 *99:8 0.000660226
10 *58:44 *535:A 0
*RES
1 *434:Q *99:8 48.0134 
2 *99:8 *535:A 40.5356 
*END

*D_NET *100 0.00336742
*CONN
*I *500:A I *D sg13cmos5l_dlygate4sd3_1
*I *435:Q O *D sg13cmos5l_dfrbpq_1
*CAP
1 *500:A 0.000615843
2 *435:Q 0.000300954
3 *100:8 0.000916797
4 *500:A *146:6 0
5 *500:A *146:16 0
6 *100:8 *206:22 0
7 *438:CLK *500:A 0
8 *10:14 *100:8 0.00108665
9 *58:8 *500:A 0
10 *58:53 *500:A 0
11 *93:10 *100:8 0.000447182
*RES
1 *435:Q *100:8 45.047 
2 *100:8 *500:A 44.3702 
*END

*D_NET *101 0.00154845
*CONN
*I *511:A I *D sg13cmos5l_dlygate4sd3_1
*I *436:Q O *D sg13cmos5l_dfrbpq_1
*CAP
1 *511:A 0.000102114
2 *436:Q 0.000472012
3 *101:10 0.000574126
4 *511:A *142:12 0.000176521
5 *101:10 *439:RESET_B 0
6 *101:10 *156:26 7.94957e-05
7 *38:14 *511:A 0.000144179
*RES
1 *436:Q *101:10 42.8634 
2 *101:10 *511:A 41.1845 
*END

*D_NET *102 0.00101395
*CONN
*I *509:A I *D sg13cmos5l_dlygate4sd3_1
*I *437:Q O *D sg13cmos5l_dfrbpq_1
*CAP
1 *509:A 0
2 *437:Q 0.000434544
3 *102:10 0.000434544
4 *102:10 *156:8 0
5 *102:10 *171:25 0
6 *102:10 *184:33 0.000144861
7 *46:17 *102:10 0
*RES
1 *437:Q *102:10 43.9449 
2 *102:10 *509:A 40 
*END

*D_NET *103 0.000213085
*CONN
*I *497:A I *D sg13cmos5l_dlygate4sd3_1
*I *438:Q O *D sg13cmos5l_dfrbpq_1
*CAP
1 *497:A 8.26711e-05
2 *438:Q 8.26711e-05
3 *497:A *158:10 4.77425e-05
4 *497:A *199:57 0
*RES
1 *438:Q *497:A 40.9167 
*END

*D_NET *104 0.000446632
*CONN
*I *417:D I *D sg13cmos5l_dfrbpq_1
*I *394:Y O *D sg13cmos5l_xnor2_1
*CAP
1 *417:D 0.000183463
2 *394:Y 0.000183463
3 *417:D *392:B 0
4 *417:D *424:D 0
5 *417:D *110:10 0
6 *417:D *206:22 7.9706e-05
7 *394:A *417:D 0
*RES
1 *394:Y *417:D 41.6851 
*END

*D_NET *105 0.000210881
*CONN
*I *468:A I *D sg13cmos5l_buf_8
*I *395:X O *D sg13cmos5l_and2_1
*CAP
1 *468:A 0.000105441
2 *395:X 0.000105441
3 *468:A *395:B 0
4 *468:A *195:10 0
*RES
1 *395:X *468:A 41.1639 
*END

*D_NET *106 0.00222278
*CONN
*I *542:A I *D sg13cmos5l_dlygate4sd3_1
*I *417:Q O *D sg13cmos5l_dfrbpq_1
*CAP
1 *542:A 0
2 *417:Q 0.000585431
3 *106:10 0.000585431
4 *106:10 *164:27 1.54008e-05
5 *106:10 *176:38 0.00103652
6 *106:10 *205:23 0
7 *106:10 *205:30 0
8 *11:10 *106:10 0
9 *15:14 *106:10 0
*RES
1 *417:Q *106:10 46.2006 
2 *106:10 *542:A 40 
*END

*D_NET *107 0.00204395
*CONN
*I *528:A I *D sg13cmos5l_dlygate4sd3_1
*I *427:Q O *D sg13cmos5l_dfrbpq_1
*CAP
1 *528:A 0.000413732
2 *427:Q 0.000270355
3 *107:12 0.000684087
4 *528:A *546:A 0
5 *528:A *131:16 0.000306438
6 *528:A *150:8 0
7 *528:A *165:18 0
8 *528:A *196:12 0
9 *528:A *196:23 0
10 *107:12 *116:8 0.000128247
11 *107:12 *131:16 0.000241089
12 *22:18 *107:12 0
*RES
1 *427:Q *107:12 42.8119 
2 *107:12 *528:A 44.1303 
*END

*D_NET *108 0.000153102
*CONN
*I *552:A I *D sg13cmos5l_dlygate4sd3_1
*I *428:Q O *D sg13cmos5l_dfrbpq_1
*CAP
1 *552:A 7.65511e-05
2 *428:Q 7.65511e-05
3 *552:A *177:10 0
*RES
1 *428:Q *552:A 40.9167 
*END

*D_NET *109 0.00337395
*CONN
*I *517:A I *D sg13cmos5l_dlygate4sd3_1
*I *418:Q O *D sg13cmos5l_dfrbpq_1
*CAP
1 *517:A 0.000202402
2 *418:Q 0.000205897
3 *109:8 0.0004083
4 *517:A *388:A 7.9947e-05
5 *517:A *164:12 0.000193659
6 *109:8 *148:20 0.00114166
7 *109:8 *165:22 0.00114208
*RES
1 *418:Q *109:8 45.2942 
2 *109:8 *517:A 41.8334 
*END

*D_NET *110 0.00204509
*CONN
*I *524:A I *D sg13cmos5l_dlygate4sd3_1
*I *419:Q O *D sg13cmos5l_dfrbpq_1
*CAP
1 *524:A 0.000288682
2 *419:Q 0.000230268
3 *110:10 0.000518951
4 *524:A *424:D 0.000466651
5 *524:A *154:20 4.288e-05
6 *524:A *154:43 2.04515e-05
7 *110:10 *206:22 0.000236081
8 *375:A *524:A 0.000241127
9 *375:B *524:A 0
10 *393:B *110:10 0
11 *417:D *110:10 0
12 *17:10 *110:10 0
13 *36:18 *524:A 0
*RES
1 *419:Q *110:10 42.6162 
2 *110:10 *524:A 43.1312 
*END

*D_NET *111 0.00288508
*CONN
*I *536:A I *D sg13cmos5l_dlygate4sd3_1
*I *420:Q O *D sg13cmos5l_dfrbpq_1
*CAP
1 *536:A 0.00016855
2 *420:Q 0.000754497
3 *111:10 0.000923047
4 *111:10 *205:30 0
5 *111:10 *205:45 0.000234418
6 *111:10 *205:56 0.00080457
*RES
1 *420:Q *111:10 45.3354 
2 *111:10 *536:A 41.1845 
*END

*D_NET *112 0.00649964
*CONN
*I *520:A I *D sg13cmos5l_dlygate4sd3_1
*I *421:Q O *D sg13cmos5l_dfrbpq_1
*CAP
1 *520:A 0
2 *421:Q 0.00027555
3 *112:32 0.000432986
4 *112:20 0.00132476
5 *112:10 0.00116732
6 *112:10 *185:19 0
7 *112:20 *423:RESET_B 0.0004481
8 *112:20 *427:D 0.000266077
9 *112:20 *148:8 0.000128662
10 *112:20 *205:56 0.00124648
11 *112:32 *168:10 7.53209e-05
12 *402:A *112:32 0.00029097
13 *402:B *112:20 0.000715248
14 *402:B *112:32 0.00012816
15 *47:36 *112:20 0
*RES
1 *421:Q *112:10 42.6471 
2 *112:10 *112:20 32.1849 
3 *112:20 *112:32 43.6874 
4 *112:32 *520:A 20 
*END

*D_NET *113 0.0012348
*CONN
*I *546:A I *D sg13cmos5l_dlygate4sd3_1
*I *422:Q O *D sg13cmos5l_dfrbpq_1
*CAP
1 *546:A 0.000149209
2 *422:Q 0.000468192
3 *113:8 0.000617401
4 *546:A *130:10 0
5 *113:8 *196:23 0
6 *528:A *546:A 0
7 *15:14 *113:8 0
*RES
1 *422:Q *113:8 43.811 
2 *113:8 *546:A 41.4008 
*END

*D_NET *114 0.00239246
*CONN
*I *506:A I *D sg13cmos5l_dlygate4sd3_1
*I *423:Q O *D sg13cmos5l_dfrbpq_1
*CAP
1 *506:A 0
2 *423:Q 0.000648764
3 *114:12 0.000648764
4 *114:12 *388:D 0.000128662
5 *114:12 *428:RESET_B 0
6 *114:12 *148:14 0.000144784
7 *114:12 *165:22 0
8 *114:12 *181:22 0
9 *12:8 *114:12 0.000821484
*RES
1 *423:Q *114:12 46.8925 
2 *114:12 *506:A 40 
*END

*D_NET *115 0.00486077
*CONN
*I *532:A I *D sg13cmos5l_dlygate4sd3_1
*I *424:Q O *D sg13cmos5l_dfrbpq_1
*CAP
1 *532:A 0
2 *424:Q 8.65723e-05
3 *115:14 0.000704568
4 *115:8 0.00079114
5 *115:14 *392:A 0.000181192
6 *115:14 *502:A 0.000208747
7 *115:14 *117:8 0.000609354
8 *115:14 *185:19 0.000914543
9 *115:14 *206:45 0
10 *474:A *115:8 0
11 *8:14 *115:14 0
12 *47:15 *115:8 0
13 *59:54 *115:14 0.00125297
14 *61:24 *115:8 0.000111683
*RES
1 *424:Q *115:8 40.7519 
2 *115:8 *115:14 30.8974 
3 *115:14 *532:A 20 
*END

*D_NET *116 0.00284457
*CONN
*I *505:A I *D sg13cmos5l_dlygate4sd3_1
*I *425:Q O *D sg13cmos5l_dfrbpq_1
*CAP
1 *505:A 0.000511719
2 *425:Q 0.000331555
3 *116:8 0.000843274
4 *505:A *398:B 2.21754e-05
5 *505:A *121:14 0
6 *505:A *140:6 0
7 *505:A *141:10 0
8 *402:A *505:A 8.02269e-05
9 *402:B *116:8 0.000927375
10 *24:8 *505:A 0
11 *47:36 *116:8 0
12 *59:8 *116:8 0
13 *107:12 *116:8 0.000128247
*RES
1 *425:Q *116:8 44.7998 
2 *116:8 *505:A 44.7792 
*END

*D_NET *117 0.00292437
*CONN
*I *502:A I *D sg13cmos5l_dlygate4sd3_1
*I *426:Q O *D sg13cmos5l_dfrbpq_1
*CAP
1 *502:A 0.000337817
2 *426:Q 0.000135437
3 *117:8 0.000473254
4 *502:A *187:23 0.000499118
5 *117:8 *206:45 0.000660642
6 *115:14 *502:A 0.000208747
7 *115:14 *117:8 0.000609354
*RES
1 *426:Q *117:8 43.0694 
2 *117:8 *502:A 43.6977 
*END

*D_NET *118 0.00282876
*CONN
*I *405:D I *D sg13cmos5l_dfrbpq_1
*I *403:Y O *D sg13cmos5l_xnor2_1
*CAP
1 *405:D 0.000688921
2 *403:Y 0.00059468
3 *118:8 0.0012836
4 *405:D *405:RESET_B 0
5 *405:D *162:36 8.03692e-05
6 *405:D *187:71 0
7 *405:D *195:10 0
8 *118:8 *411:D 0
9 *118:8 *151:8 0
10 *118:8 *162:12 0.000181192
11 *118:8 *173:23 0
12 *19:14 *118:8 0
*RES
1 *403:Y *118:8 46.0358 
2 *118:8 *405:D 46.2933 
*END

*D_NET *119 0.00371796
*CONN
*I *469:A I *D sg13cmos5l_buf_8
*I *404:X O *D sg13cmos5l_and2_1
*CAP
1 *469:A 8.8459e-05
2 *404:X 0.000143852
3 *119:21 0.00171513
4 *119:6 0.00177052
5 *469:A *396:C 0
6 *469:A *396:D 0
7 *119:6 *148:14 0
8 *119:6 *168:14 0
9 *119:6 *187:23 0
10 *119:21 *396:C 0
11 *119:21 *396:D 0
12 *119:21 *397:D 0
13 *119:21 *411:D 0
14 *119:21 *148:14 0
15 *119:21 *178:26 0
16 *119:21 *181:8 0
17 *119:21 *181:22 0
18 *119:21 *187:23 0
19 *119:21 *187:31 0
20 *119:21 *187:93 0
21 *399:B *119:21 0
22 *18:14 *119:21 0
23 *18:24 *119:21 0
24 *19:14 *119:21 0
25 *21:10 *119:21 0
*RES
1 *404:X *119:6 21.1845 
2 *119:6 *119:21 14.7032 
3 *119:21 *469:A 20.8498 
*END

*D_NET *120 0.000801106
*CONN
*I *544:A I *D sg13cmos5l_dlygate4sd3_1
*I *405:Q O *D sg13cmos5l_dfrbpq_1
*CAP
1 *544:A 0.000317082
2 *405:Q 0.000317082
3 *544:A *409:RESET_B 0
4 *544:A *194:10 0.000166943
5 *78:12 *544:A 0
*RES
1 *405:Q *544:A 43.8316 
*END

*D_NET *121 0.00395078
*CONN
*I *529:A I *D sg13cmos5l_dlygate4sd3_1
*I *415:Q O *D sg13cmos5l_dfrbpq_1
*CAP
1 *529:A 0
2 *415:Q 0.000182594
3 *121:14 0.00100556
4 *121:8 0.00118816
5 *121:8 *415:D 0.000234311
6 *121:14 *398:B 0
7 *121:14 *398:C 8.03692e-05
8 *121:14 *538:A 0.000533842
9 *121:14 *126:12 0
10 *121:14 *130:10 0
11 *121:14 *140:6 0
12 *121:14 *141:25 0
13 *121:14 *165:10 0.00020973
14 *505:A *121:14 0
15 *557:A *121:14 0.000209422
16 *8:14 *121:8 0
17 *24:8 *121:14 0.000306794
18 *48:38 *121:14 0
*RES
1 *415:Q *121:8 42.0806 
2 *121:8 *121:14 30.1867 
3 *121:14 *529:A 20 
*END

*D_NET *122 0.00129508
*CONN
*I *551:A I *D sg13cmos5l_dlygate4sd3_1
*I *416:Q O *D sg13cmos5l_dfrbpq_1
*CAP
1 *551:A 0.000324698
2 *416:Q 0.000324698
3 *551:A *131:16 0.000436177
4 *551:A *165:18 0
5 *551:A *202:8 0
6 *413:CLK *551:A 0.000209506
*RES
1 *416:Q *551:A 43.6977 
*END

*D_NET *123 0.00145855
*CONN
*I *525:A I *D sg13cmos5l_dlygate4sd3_1
*I *406:Q O *D sg13cmos5l_dfrbpq_1
*CAP
1 *525:A 0
2 *406:Q 0.000425718
3 *123:10 0.000425718
4 *123:10 *151:8 0.000607109
5 *123:10 *195:10 0
6 *123:10 *206:45 0
*RES
1 *406:Q *123:10 44.223 
2 *123:10 *525:A 40 
*END

*D_NET *124 0.00390885
*CONN
*I *515:A I *D sg13cmos5l_dlygate4sd3_1
*I *407:Q O *D sg13cmos5l_dfrbpq_1
*CAP
1 *515:A 0.000289133
2 *407:Q 0.000566923
3 *124:8 0.000856056
4 *515:A *188:31 0.000177032
5 *124:8 *397:C 0.000552831
6 *124:8 *401:A 0
7 *124:8 *173:23 0
8 *124:8 *187:31 0.000658895
9 *124:8 *195:14 0
10 *403:A *515:A 0.000274529
11 *18:14 *515:A 0
12 *20:22 *515:A 0.000533448
*RES
1 *407:Q *124:8 46.7774 
2 *124:8 *515:A 43.5638 
*END

*D_NET *125 0.00594361
*CONN
*I *545:A I *D sg13cmos5l_dlygate4sd3_1
*I *408:Q O *D sg13cmos5l_dfrbpq_1
*CAP
1 *545:A 0
2 *408:Q 0.00020276
3 *125:20 0.000432924
4 *125:12 0.00163751
5 *125:8 0.00140734
6 *125:12 *406:D 0
7 *125:12 *143:37 0
8 *125:12 *147:10 0.000111838
9 *125:12 *151:18 0.000985358
10 *125:20 *192:14 0.000878035
11 *482:A *125:12 0
12 *483:A *125:12 0
13 *527:A *125:12 0
14 *7:17 *125:8 0
15 *11:10 *125:20 0.000175799
16 *49:35 *125:12 0
17 *53:18 *125:12 0
18 *53:22 *125:12 0
19 *53:24 *125:12 0.000112048
20 *53:60 *125:12 0
21 *61:24 *125:12 0
*RES
1 *408:Q *125:8 42.3278 
2 *125:8 *125:12 31.9995 
3 *125:12 *125:20 45.2427 
4 *125:20 *545:A 20 
*END

*D_NET *126 0.0069685
*CONN
*I *518:A I *D sg13cmos5l_dlygate4sd3_1
*I *409:Q O *D sg13cmos5l_dfrbpq_1
*CAP
1 *518:A 0
2 *409:Q 0
3 *126:12 0.00103026
4 *126:6 0.00103026
5 *126:12 *396:A 0
6 *126:12 *400:B 0
7 *126:12 *409:D 0
8 *126:12 *141:25 0.00162103
9 *126:12 *178:10 0
10 *6:9 *126:12 0.00328695
11 *121:14 *126:12 0
*RES
1 *409:Q *126:6 40 
2 *126:6 *126:12 36.583 
3 *126:12 *518:A 20 
*END

*D_NET *127 0.00324852
*CONN
*I *538:A I *D sg13cmos5l_dlygate4sd3_1
*I *410:Q O *D sg13cmos5l_dfrbpq_1
*CAP
1 *538:A 0.000280623
2 *410:Q 0.000809796
3 *127:8 0.00109042
4 *538:A *398:B 0.000533842
5 *127:8 *165:10 0
6 *127:8 *166:12 0
7 *411:CLK *127:8 0
8 *60:8 *127:8 0
9 *60:10 *127:8 0
10 *60:12 *127:8 0
11 *121:14 *538:A 0.000533842
*RES
1 *410:Q *127:8 47.2718 
2 *127:8 *538:A 43.5638 
*END

*D_NET *128 0.00336398
*CONN
*I *495:A I *D sg13cmos5l_dlygate4sd3_1
*I *411:Q O *D sg13cmos5l_dfrbpq_1
*CAP
1 *495:A 0.000472359
2 *411:Q 0.000387604
3 *128:8 0.000859963
4 *495:A *512:A 0
5 *495:A *130:10 0.000824896
6 *495:A *131:16 0
7 *495:A *150:8 0.000371477
8 *128:8 *159:10 0.000447684
9 *128:8 *188:8 0
10 *403:B *128:8 0
11 *20:22 *128:8 0
*RES
1 *411:Q *128:8 44.3054 
2 *128:8 *495:A 45.5105 
*END

*D_NET *129 0.00112947
*CONN
*I *512:A I *D sg13cmos5l_dlygate4sd3_1
*I *412:Q O *D sg13cmos5l_dfrbpq_1
*CAP
1 *512:A 0.000411341
2 *412:Q 0.000411341
3 *512:A *131:16 0
4 *512:A *150:8 0.000306794
5 *495:A *512:A 0
*RES
1 *412:Q *512:A 44.6144 
*END

*D_NET *130 0.00532138
*CONN
*I *496:A I *D sg13cmos5l_dlygate4sd3_1
*I *413:Q O *D sg13cmos5l_dfrbpq_1
*CAP
1 *496:A 0
2 *413:Q 0.00156183
3 *130:10 0.00156183
4 *130:10 *391:B 0.000306903
5 *130:10 *131:16 0
6 *130:10 *141:10 0
7 *130:10 *150:8 0
8 *481:A *130:10 0
9 *495:A *130:10 0.000824896
10 *546:A *130:10 0
11 *15:8 *130:10 0.000144767
12 *24:8 *130:10 0.000921162
13 *48:38 *130:10 0
14 *121:14 *130:10 0
*RES
1 *413:Q *130:10 35.9444 
2 *130:10 *496:A 20 
*END

*D_NET *131 0.00514349
*CONN
*I *504:A I *D sg13cmos5l_dlygate4sd3_1
*I *414:Q O *D sg13cmos5l_dfrbpq_1
*CAP
1 *504:A 0
2 *414:Q 0.00157884
3 *131:16 0.00157884
4 *131:16 *150:8 0
5 *131:16 *159:10 0.000760042
6 *131:16 *165:18 0
7 *131:16 *166:8 0.000242072
8 *131:16 *178:10 0
9 *131:16 *202:8 0
10 *481:A *131:16 0
11 *495:A *131:16 0
12 *512:A *131:16 0
13 *528:A *131:16 0.000306438
14 *551:A *131:16 0.000436177
15 *22:18 *131:16 0
16 *48:38 *131:16 0
17 *107:12 *131:16 0.000241089
18 *130:10 *131:16 0
*RES
1 *414:Q *131:16 36.995 
2 *131:16 *504:A 20 
*END

*D_NET *132 0.00313512
*CONN
*I *489:A I *D sg13cmos5l_buf_1
*I *488:A I *D sg13cmos5l_buf_1
*I *554:X O *D sg13cmos5l_buf_1
*CAP
1 *489:A 0.00046478
2 *488:A 3.58687e-05
3 *554:X 0.000398851
4 *132:12 0.000500649
5 *132:10 0.000398851
6 *489:A *176:12 0.000241973
7 *489:A *176:22 0.000144592
8 *132:10 *163:12 0.000288173
9 *132:10 *176:8 0
10 *558:A *132:10 0
11 *3:13 *132:10 0
12 *73:12 *132:10 0.000661385
*RES
1 *554:X *132:10 45.0882 
2 *132:10 *132:12 20 
3 *132:12 *488:A 20.2858 
4 *132:12 *489:A 24.4805 
*END

*D_NET *133 0.0179029
*CONN
*I *435:RESET_B I *D sg13cmos5l_dfrbpq_1
*I *434:RESET_B I *D sg13cmos5l_dfrbpq_1
*I *429:RESET_B I *D sg13cmos5l_dfrbpq_1
*I *430:RESET_B I *D sg13cmos5l_dfrbpq_1
*I *433:RESET_B I *D sg13cmos5l_dfrbpq_1
*I *432:RESET_B I *D sg13cmos5l_dfrbpq_1
*I *431:RESET_B I *D sg13cmos5l_dfrbpq_1
*I *386:B I *D sg13cmos5l_and2_1
*I *484:X O *D sg13cmos5l_buf_1
*CAP
1 *435:RESET_B 0.000100981
2 *434:RESET_B 0.000167005
3 *429:RESET_B 7.98704e-05
4 *430:RESET_B 0.000132877
5 *433:RESET_B 0.000260488
6 *432:RESET_B 0.000111341
7 *431:RESET_B 4.92364e-05
8 *386:B 0
9 *484:X 0
10 *133:88 0.000267987
11 *133:38 0.00154027
12 *133:28 0.00188032
13 *133:22 0.000591216
14 *133:18 0.000508855
15 *133:16 0.000349412
16 *133:14 0.000434464
17 *133:12 0.00138526
18 *133:6 0.00118789
19 *429:RESET_B *182:25 0.000144403
20 *430:RESET_B *193:31 0
21 *433:RESET_B *378:B 0.000129453
22 *433:RESET_B *193:23 0.000209419
23 *434:RESET_B *434:D 0
24 *434:RESET_B *171:25 0
25 *435:RESET_B *184:14 0
26 *133:12 *142:26 0
27 *133:12 *165:26 0
28 *133:12 *176:36 0.00023136
29 *133:12 *176:38 0.0034325
30 *133:12 *184:14 0.000215108
31 *133:14 *176:36 0.000718011
32 *133:14 *184:14 0.000236081
33 *133:16 *165:26 0
34 *133:16 *176:36 0.00055613
35 *133:16 *182:25 0
36 *133:18 *176:36 0.000236081
37 *133:18 *182:25 0
38 *133:22 *176:36 0.000719869
39 *133:22 *182:25 0
40 *133:28 *176:36 0
41 *133:28 *182:25 0
42 *133:38 *360:A 0
43 *133:38 *360:B 0.000273616
44 *133:38 *453:RESET_B 0.000257898
45 *133:38 *137:35 4.77425e-05
46 *133:38 *176:36 0
47 *133:38 *189:8 0
48 *133:38 *193:23 0
49 *430:CLK *430:RESET_B 0
50 *430:CLK *133:28 0
51 *431:CLK *431:RESET_B 0
52 *431:CLK *133:38 0
53 *434:CLK *434:RESET_B 0
54 *434:CLK *435:RESET_B 0
55 *453:D *133:38 0
56 *523:A *429:RESET_B 0.000144403
57 *41:22 *133:14 0
58 *41:22 *133:16 0
59 *52:8 *433:RESET_B 0
60 *55:20 *133:38 0
61 *95:12 *133:28 0.000320354
62 *95:12 *133:38 0.000982983
63 *99:8 *133:12 0
*RES
1 *484:X *133:6 40 
2 *133:6 *133:12 17.5512 
3 *133:12 *133:14 3.3166 
4 *133:14 *133:16 2.575 
5 *133:16 *133:18 1.0918 
6 *133:18 *133:22 23.3166 
7 *133:22 *133:28 23.5432 
8 *133:28 *133:38 36.3564 
9 *133:38 *386:B 20 
10 *133:28 *431:RESET_B 40.5356 
11 *133:22 *432:RESET_B 20.9682 
12 *133:18 *433:RESET_B 42.6986 
13 *133:16 *430:RESET_B 41.3128 
14 *133:14 *429:RESET_B 40.9682 
15 *133:12 *133:88 20 
16 *133:88 *434:RESET_B 21.128 
17 *133:88 *435:RESET_B 20.9682 
*END

*D_NET *134 0.0070568
*CONN
*I *439:RESET_B I *D sg13cmos5l_dfrbpq_1
*I *440:RESET_B I *D sg13cmos5l_dfrbpq_1
*I *437:RESET_B I *D sg13cmos5l_dfrbpq_1
*I *438:RESET_B I *D sg13cmos5l_dfrbpq_1
*I *436:RESET_B I *D sg13cmos5l_dfrbpq_1
*I *485:X O *D sg13cmos5l_buf_1
*CAP
1 *439:RESET_B 0.000374483
2 *440:RESET_B 2.70628e-05
3 *437:RESET_B 0.000236881
4 *438:RESET_B 5.54938e-05
5 *436:RESET_B 0.000234349
6 *485:X 0.000366689
7 *134:32 0.000533814
8 *134:12 0.000289843
9 *134:10 0.000633724
10 *134:8 0.00110503
11 *437:RESET_B *437:D 0
12 *439:RESET_B *142:16 0
13 *439:RESET_B *156:26 0
14 *134:8 *156:26 0.000266405
15 *134:8 *158:12 0
16 *134:10 *156:26 0.000926961
17 *134:10 *158:12 0
18 *134:32 *379:C 0.000288502
19 *134:32 *156:8 0.000873098
20 *134:32 *156:26 0
21 *134:32 *158:12 0.000796724
22 *440:CLK *437:RESET_B 0
23 *440:CLK *440:RESET_B 0
24 *514:A *439:RESET_B 0
25 *10:8 *439:RESET_B 4.77425e-05
26 *101:10 *439:RESET_B 0
*RES
1 *485:X *134:8 43.811 
2 *134:8 *134:10 4.3054 
3 *134:10 *134:12 20 
4 *134:12 *436:RESET_B 21.8334 
5 *134:12 *438:RESET_B 20.5356 
6 *134:10 *134:32 25.3663 
7 *134:32 *437:RESET_B 22.0497 
8 *134:32 *440:RESET_B 20.3193 
9 *134:8 *439:RESET_B 43.5638 
*END

*D_NET *135 0.00979257
*CONN
*I *441:RESET_B I *D sg13cmos5l_dfrbpq_1
*I *447:RESET_B I *D sg13cmos5l_dfrbpq_1
*I *377:B I *D sg13cmos5l_and2_1
*I *442:RESET_B I *D sg13cmos5l_dfrbpq_1
*I *445:RESET_B I *D sg13cmos5l_dfrbpq_1
*I *444:RESET_B I *D sg13cmos5l_dfrbpq_1
*I *446:RESET_B I *D sg13cmos5l_dfrbpq_1
*I *443:RESET_B I *D sg13cmos5l_dfrbpq_1
*I *486:X O *D sg13cmos5l_buf_1
*CAP
1 *441:RESET_B 0.000325592
2 *447:RESET_B 0.000683561
3 *377:B 5.79783e-05
4 *442:RESET_B 0.000184193
5 *445:RESET_B 0
6 *444:RESET_B 0.000413707
7 *446:RESET_B 0
8 *443:RESET_B 0
9 *486:X 0.000405625
10 *135:57 0.00120584
11 *135:36 0.000641351
12 *135:34 0.000411838
13 *135:32 0.000712852
14 *135:26 0.000649145
15 *135:19 0.000495342
16 *135:12 0.00042034
17 *135:10 0.000405625
18 *442:RESET_B *442:D 0
19 *444:RESET_B *199:24 0
20 *135:10 *143:37 0
21 *135:19 *179:25 0
22 *441:CLK *441:RESET_B 0
23 *441:CLK *442:RESET_B 0
24 *444:CLK *444:RESET_B 0
25 *465:A *135:10 0
26 *530:A *135:10 8.00842e-05
27 *547:A *135:10 0
28 *553:A *447:RESET_B 0
29 *4:13 *441:RESET_B 0
30 *7:17 *447:RESET_B 0
31 *7:17 *135:32 0.000929035
32 *7:17 *135:57 0
33 *32:16 *447:RESET_B 0
34 *38:16 *135:10 0
35 *45:13 *447:RESET_B 0
36 *45:13 *135:32 0
37 *45:13 *135:57 0
38 *45:25 *447:RESET_B 0
39 *51:8 *135:32 0.000501874
40 *51:16 *135:19 0
41 *51:16 *135:36 0
42 *51:22 *444:RESET_B 0
43 *51:22 *135:19 0
44 *51:43 *441:RESET_B 0
45 *51:43 *442:RESET_B 0
46 *76:30 *441:RESET_B 0
47 *81:18 *441:RESET_B 0
48 *81:18 *135:10 0.000501875
49 *81:18 *135:19 0
50 *82:12 *444:RESET_B 0
51 *85:8 *135:57 0.000766706
52 *91:15 *135:10 0
*RES
1 *486:X *135:10 44.3466 
2 *135:10 *135:12 20 
3 *135:12 *443:RESET_B 20 
4 *135:12 *135:19 2.8876 
5 *135:19 *446:RESET_B 20 
6 *135:19 *135:26 0.3823 
7 *135:26 *135:32 24.6247 
8 *135:32 *135:34 20 
9 *135:34 *135:36 2.266 
10 *135:36 *444:RESET_B 23.9964 
11 *135:36 *445:RESET_B 20 
12 *135:34 *442:RESET_B 21.8334 
13 *135:32 *135:57 4.7998 
14 *135:57 *377:B 40.5356 
15 *135:57 *447:RESET_B 45.3972 
16 *135:26 *441:RESET_B 22.5203 
*END

*D_NET *136 0.00462751
*CONN
*I *449:RESET_B I *D sg13cmos5l_dfrbpq_1
*I *452:RESET_B I *D sg13cmos5l_dfrbpq_1
*I *451:RESET_B I *D sg13cmos5l_dfrbpq_1
*I *448:RESET_B I *D sg13cmos5l_dfrbpq_1
*I *450:RESET_B I *D sg13cmos5l_dfrbpq_1
*I *487:X O *D sg13cmos5l_buf_1
*CAP
1 *449:RESET_B 0.000132281
2 *452:RESET_B 0
3 *451:RESET_B 0
4 *448:RESET_B 2.77263e-05
5 *450:RESET_B 0
6 *487:X 0.000238097
7 *136:49 0.000530251
8 *136:34 0.000724409
9 *136:25 0.000457932
10 *136:16 0.000607067
11 *136:8 0.000741397
12 *449:RESET_B *154:20 0.000209582
13 *136:8 *143:37 0
14 *136:16 *143:37 0
15 *136:25 *371:B 0
16 *136:25 *199:57 0.000305692
17 *136:34 *451:D 0
18 *136:34 *190:48 0
19 *136:49 *452:D 0
20 *136:49 *174:12 0
21 *136:49 *190:48 0.000208314
22 *136:49 *198:10 0
23 *372:A *449:RESET_B 0
24 *372:A *136:16 0
25 *452:CLK *136:49 0
26 *553:A *136:34 0
27 *49:35 *136:8 0
28 *49:35 *136:16 0
29 *57:14 *136:34 8.0216e-05
30 *57:14 *136:49 0
31 *57:44 *136:16 2.20966e-05
32 *78:12 *136:49 0.00034245
33 *89:8 *136:8 0
*RES
1 *487:X *136:8 42.8222 
2 *136:8 *136:16 23.708 
3 *136:16 *450:RESET_B 20 
4 *136:16 *136:25 2.6162 
5 *136:25 *448:RESET_B 20.3502 
6 *136:25 *136:34 1.8334 
7 *136:34 *451:RESET_B 20 
8 *136:34 *136:49 46.18 
9 *136:49 *452:RESET_B 20 
10 *136:8 *449:RESET_B 41.4008 
*END

*D_NET *137 0.0162432
*CONN
*I *463:RESET_B I *D sg13cmos5l_dfrbpq_1
*I *462:RESET_B I *D sg13cmos5l_dfrbpq_1
*I *459:RESET_B I *D sg13cmos5l_dfrbpq_1
*I *461:RESET_B I *D sg13cmos5l_dfrbpq_1
*I *454:RESET_B I *D sg13cmos5l_dfrbpq_1
*I *453:RESET_B I *D sg13cmos5l_dfrbpq_1
*I *455:RESET_B I *D sg13cmos5l_dfrbpq_1
*I *460:RESET_B I *D sg13cmos5l_dfrbpq_1
*I *488:X O *D sg13cmos5l_buf_1
*CAP
1 *463:RESET_B 0
2 *462:RESET_B 0.000266126
3 *459:RESET_B 0
4 *461:RESET_B 2.68635e-05
5 *454:RESET_B 0.000336343
6 *453:RESET_B 0.000156885
7 *455:RESET_B 0
8 *460:RESET_B 4.35303e-05
9 *488:X 0.000143944
10 *137:89 0.00107973
11 *137:83 0.00146913
12 *137:72 0.000470341
13 *137:64 0.000881527
14 *137:35 0.000241882
15 *137:29 0.000421339
16 *137:27 0.00140933
17 *137:19 0.00206526
18 *137:8 0.000282076
19 *453:RESET_B *360:B 0.000208615
20 *454:RESET_B *454:D 0
21 *454:RESET_B *184:37 0.000661801
22 *454:RESET_B *191:25 0.000640032
23 *462:RESET_B *462:D 0
24 *462:RESET_B *198:10 0
25 *137:27 *360:D 0.000337561
26 *137:27 *361:C 0
27 *137:27 *153:25 0
28 *137:27 *160:12 0.000435331
29 *137:27 *176:36 0
30 *137:27 *183:10 0.000208725
31 *137:35 *184:37 0.000287672
32 *137:35 *191:25 0.000288174
33 *137:64 *461:D 0
34 *137:72 *144:21 0.00018211
35 *137:83 *198:10 0
36 *137:89 *378:B 0
37 *137:89 *459:D 0
38 *137:89 *462:D 0
39 *137:89 *138:27 0
40 *454:CLK *454:RESET_B 0
41 *460:CLK *137:27 0
42 *461:CLK *462:RESET_B 0.000209506
43 *462:CLK *462:RESET_B 0
44 *462:CLK *137:64 0
45 *464:CLK *137:89 0
46 *534:A *137:27 0
47 *539:A *137:27 0.000402929
48 *547:A *137:89 0
49 *550:A *137:89 0.000499636
50 *7:17 *462:RESET_B 0
51 *7:17 *137:72 0
52 *7:17 *137:83 0
53 *26:10 *137:27 0
54 *44:8 *137:89 0
55 *44:21 *137:89 0
56 *50:22 *137:27 0
57 *50:24 *137:27 0
58 *56:14 *461:RESET_B 1.54008e-05
59 *56:14 *462:RESET_B 0
60 *56:18 *461:RESET_B 4.77425e-05
61 *56:18 *137:89 0
62 *56:36 *137:72 0
63 *68:20 *137:27 0.000595203
64 *73:12 *137:8 0.000501546
65 *73:12 *137:19 0.000319852
66 *73:12 *137:64 0.000801375
67 *75:8 *137:64 0
68 *76:20 *137:89 0
69 *133:38 *453:RESET_B 0.000257898
70 *133:38 *137:35 4.77425e-05
*RES
1 *488:X *137:8 42.3278 
2 *137:8 *460:RESET_B 40.5356 
3 *137:8 *137:19 1.5862 
4 *137:19 *137:27 34.6157 
5 *137:27 *137:29 20 
6 *137:29 *137:35 21.6583 
7 *137:35 *455:RESET_B 20 
8 *137:35 *453:RESET_B 21.8334 
9 *137:29 *454:RESET_B 45.1191 
10 *137:19 *137:64 27.313 
11 *137:64 *137:72 23.4299 
12 *137:72 *461:RESET_B 40.3193 
13 *137:72 *137:83 1.339 
14 *137:83 *137:89 30.6811 
15 *137:89 *459:RESET_B 20 
16 *137:83 *462:RESET_B 42.8943 
17 *137:64 *463:RESET_B 20 
*END

*D_NET *138 0.00639802
*CONN
*I *458:RESET_B I *D sg13cmos5l_dfrbpq_1
*I *368:A I *D sg13cmos5l_and2_1
*I *457:RESET_B I *D sg13cmos5l_dfrbpq_1
*I *456:RESET_B I *D sg13cmos5l_dfrbpq_1
*I *464:RESET_B I *D sg13cmos5l_dfrbpq_1
*I *489:X O *D sg13cmos5l_buf_1
*CAP
1 *458:RESET_B 7.55178e-05
2 *368:A 0.000610132
3 *457:RESET_B 0
4 *456:RESET_B 0.000265738
5 *464:RESET_B 4.91111e-05
6 *489:X 0.000508089
7 *138:27 0.000507181
8 *138:23 0.0010646
9 *138:12 0.000371083
10 *138:10 0.000184469
11 *138:8 0.000508089
12 *138:8 *153:12 0.00113917
13 *138:8 *155:8 0
14 *138:8 *155:25 0.000395897
15 *138:12 *155:25 0
16 *464:CLK *458:RESET_B 0
17 *464:CLK *138:12 0
18 *507:A *368:A 0
19 *507:A *138:8 0
20 *55:12 *368:A 0
21 *55:20 *368:A 0
22 *55:20 *138:23 0
23 *72:8 *138:27 0
24 *72:16 *138:8 0
25 *76:20 *368:A 0
26 *76:20 *138:8 0.00071894
27 *76:20 *138:23 0
28 *137:89 *138:27 0
*RES
1 *489:X *138:8 48.2606 
2 *138:8 *138:10 20 
3 *138:10 *138:12 0.9682 
4 *138:12 *464:RESET_B 20.5356 
5 *138:12 *138:23 21.8334 
6 *138:23 *138:27 22.6986 
7 *138:27 *456:RESET_B 22.4308 
8 *138:27 *457:RESET_B 20 
9 *138:23 *368:A 45.2942 
10 *138:10 *458:RESET_B 20.8858 
*END

*D_NET *139 0.00107346
*CONN
*I *450:D I *D sg13cmos5l_dfrbpq_1
*I *371:C I *D sg13cmos5l_nor3_1
*I *494:X O *D sg13cmos5l_dlygate4sd3_1
*CAP
1 *450:D 7.9278e-05
2 *371:C 0.000457454
3 *494:X 0
4 *139:4 0.000536732
5 *371:C *371:B 0
6 *371:C *199:57 0
7 *34:10 *371:C 0
*RES
1 *494:X *139:4 20 
2 *139:4 *371:C 22.498 
3 *139:4 *450:D 20.9167 
*END

*D_NET *140 0.00569292
*CONN
*I *398:A I *D sg13cmos5l_nor3_1
*I *412:D I *D sg13cmos5l_dfrbpq_1
*I *495:X O *D sg13cmos5l_dlygate4sd3_1
*CAP
1 *398:A 0.000378656
2 *412:D 0
3 *495:X 0.000315048
4 *140:12 0.000617718
5 *140:6 0.00131142
6 *398:A *398:B 0
7 *398:A *141:10 0.000631394
8 *140:6 *398:B 0
9 *140:6 *141:10 0.000469044
10 *140:12 *415:D 0
11 *140:12 *151:8 0
12 *403:B *140:12 0.00172742
13 *505:A *140:6 0
14 *20:8 *398:A 0.00024222
15 *121:14 *140:6 0
*RES
1 *495:X *140:6 23.1312 
2 *140:6 *140:12 49.2494 
3 *140:12 *412:D 20 
4 *140:6 *398:A 24.2127 
*END

*D_NET *141 0.0087694
*CONN
*I *414:D I *D sg13cmos5l_dfrbpq_1
*I *398:C I *D sg13cmos5l_nor3_1
*I *496:X O *D sg13cmos5l_dlygate4sd3_1
*CAP
1 *414:D 0
2 *398:C 7.04343e-05
3 *496:X 0.00154783
4 *141:25 0.000818298
5 *141:10 0.00243657
6 *398:C *398:B 1.54556e-05
7 *141:10 *391:B 0
8 *141:10 *391:A 4.77425e-05
9 *141:25 *400:B 0.000821812
10 *398:A *141:10 0.000631394
11 *505:A *141:10 0
12 *557:A *141:25 0.000209422
13 *6:9 *141:25 0
14 *8:12 *141:10 0
15 *121:14 *398:C 8.03692e-05
16 *121:14 *141:25 0
17 *126:12 *141:25 0.00162103
18 *130:10 *141:10 0
19 *140:6 *141:10 0.000469044
*RES
1 *496:X *141:10 36.8714 
2 *141:10 *398:C 20.8858 
3 *141:10 *141:25 32.1025 
4 *141:25 *414:D 40 
*END

*D_NET *142 0.00291657
*CONN
*I *439:D I *D sg13cmos5l_dfrbpq_1
*I *380:B I *D sg13cmos5l_nor3_1
*I *497:X O *D sg13cmos5l_dlygate4sd3_1
*CAP
1 *439:D 0
2 *380:B 0
3 *497:X 0.000451811
4 *142:26 0.000367364
5 *142:16 0.000444699
6 *142:12 0.000529147
7 *142:12 *146:39 7.88655e-05
8 *142:12 *154:43 0
9 *142:12 *176:38 0
10 *142:12 *190:48 0
11 *142:12 *206:22 0.000446352
12 *142:16 *156:26 0
13 *142:26 *146:39 8.01938e-05
14 *142:26 *156:26 0
15 *142:26 *165:26 0.000341619
16 *439:RESET_B *142:16 0
17 *511:A *142:12 0.000176521
18 *10:8 *142:26 0
19 *37:8 *142:12 0
20 *38:14 *142:12 0
21 *133:12 *142:26 0
*RES
1 *497:X *142:12 44.9131 
2 *142:12 *142:16 20.6551 
3 *142:16 *142:26 44.1715 
4 *142:26 *380:B 20 
5 *142:16 *439:D 20 
*END

*D_NET *143 0.00741988
*CONN
*I *487:A I *D sg13cmos5l_buf_1
*I *486:A I *D sg13cmos5l_buf_1
*I *555:X O *D sg13cmos5l_buf_1
*CAP
1 *487:A 0
2 *486:A 0.000385044
3 *555:X 0.000519605
4 *143:37 0.00219387
5 *143:14 0.00309852
6 *143:14 *446:D 6.41216e-05
7 *143:14 *199:14 0.000176925
8 *143:37 *449:D 0
9 *143:37 *145:10 0
10 *143:37 *174:12 0
11 *143:37 *175:8 0
12 *143:37 *175:14 0
13 *143:37 *179:25 0.000773095
14 *143:37 *199:57 0
15 *372:A *143:37 0
16 *465:A *486:A 0
17 *530:A *486:A 0
18 *38:16 *143:37 0
19 *44:50 *486:A 0
20 *44:50 *143:14 0
21 *76:30 *143:14 0
22 *81:18 *486:A 0
23 *81:18 *143:14 0.000208708
24 *81:18 *143:37 0
25 *84:8 *486:A 0
26 *87:8 *143:37 0
27 *89:8 *143:37 0
28 *125:12 *143:37 0
29 *135:10 *143:37 0
30 *136:8 *143:37 0
31 *136:16 *143:37 0
*RES
1 *555:X *143:14 45.2633 
2 *143:14 *486:A 43.8625 
3 *143:14 *143:37 44.4831 
4 *143:37 *487:A 20 
*END

*D_NET *144 0.0044881
*CONN
*I *463:D I *D sg13cmos5l_dfrbpq_1
*I *362:B I *D sg13cmos5l_nor3_1
*I *498:X O *D sg13cmos5l_dlygate4sd3_1
*CAP
1 *463:D 6.66393e-05
2 *362:B 0.000268243
3 *498:X 0
4 *144:21 0.00108846
5 *144:4 0.00129007
6 *362:B *362:A 0
7 *362:B *149:8 0
8 *144:21 *176:8 0
9 *144:21 *176:22 0
10 *460:CLK *144:21 0.000449015
11 *558:A *362:B 0
12 *7:17 *144:21 0
13 *56:36 *144:21 0.000640447
14 *65:8 *144:21 0.000503119
15 *75:14 *144:21 0
16 *137:72 *144:21 0.00018211
*RES
1 *498:X *144:4 20 
2 *144:4 *362:B 22.4308 
3 *144:4 *144:21 33.3797 
4 *144:21 *463:D 40.6695 
*END

*D_NET *145 0.00703547
*CONN
*I *448:D I *D sg13cmos5l_dfrbpq_1
*I *371:A I *D sg13cmos5l_nor3_1
*I *499:X O *D sg13cmos5l_dlygate4sd3_1
*CAP
1 *448:D 0
2 *371:A 0.000657849
3 *499:X 0.000445613
4 *145:10 0.00110346
5 *371:A *371:B 0.000950828
6 *371:A *174:12 0.000287758
7 *371:A *175:14 0.000287758
8 *145:10 *154:20 0.000466318
9 *145:10 *174:12 0.00137151
10 *145:10 *175:14 0.000980909
11 *494:A *371:A 0
12 *514:A *371:A 0.000338355
13 *32:16 *371:A 0.000145108
14 *143:37 *145:10 0
*RES
1 *499:X *145:10 47.6838 
2 *145:10 *371:A 47.7147 
3 *145:10 *448:D 40 
*END

*D_NET *146 0.00661182
*CONN
*I *380:A I *D sg13cmos5l_nor3_1
*I *436:D I *D sg13cmos5l_dfrbpq_1
*I *500:X O *D sg13cmos5l_dlygate4sd3_1
*CAP
1 *380:A 0
2 *436:D 0
3 *500:X 9.37476e-05
4 *146:39 0.000421356
5 *146:29 0.00117365
6 *146:16 0.000582376
7 *146:6 0.00142841
8 *146:16 *156:26 0.000819651
9 *146:29 *158:12 0
10 *146:29 *190:48 0.000467782
11 *146:29 *199:57 0.00043544
12 *146:39 *424:D 0
13 *146:39 *152:16 0
14 *146:39 *154:43 0
15 *146:39 *156:26 0
16 *146:39 *190:48 0.000208326
17 *146:39 *206:22 0.000128353
18 *500:A *146:6 0
19 *500:A *146:16 0
20 *514:A *146:6 0.000143932
21 *514:A *146:16 0.000209451
22 *58:12 *146:16 0.000340288
23 *142:12 *146:39 7.88655e-05
24 *142:26 *146:39 8.01938e-05
*RES
1 *500:X *146:6 20.9682 
2 *146:6 *146:16 46.6126 
3 *146:16 *436:D 20 
4 *146:6 *146:29 46.9422 
5 *146:29 *146:39 44.5114 
6 *146:39 *380:A 20 
*END

*D_NET *147 0.00603394
*CONN
*I *451:D I *D sg13cmos5l_dfrbpq_1
*I *371:B I *D sg13cmos5l_nor3_1
*I *501:X O *D sg13cmos5l_dlygate4sd3_1
*CAP
1 *451:D 5.6314e-05
2 *371:B 0.000899517
3 *501:X 0.0007138
4 *147:10 0.00166963
5 *371:B *175:14 0
6 *147:10 *175:8 0
7 *147:10 *175:14 0
8 *371:A *371:B 0.000950828
9 *371:C *371:B 0
10 *553:A *371:B 0
11 *553:A *451:D 0
12 *7:17 *147:10 0
13 *32:16 *371:B 0
14 *34:10 *371:B 0
15 *45:25 *371:B 0
16 *45:25 *147:10 0
17 *57:8 *147:10 0.00112872
18 *57:14 *451:D 0
19 *57:14 *147:10 0.00050329
20 *87:8 *147:10 0
21 *125:12 *147:10 0.000111838
22 *136:25 *371:B 0
23 *136:34 *451:D 0
*RES
1 *501:X *147:10 49.5069 
2 *147:10 *371:B 48.9301 
3 *147:10 *451:D 40.5356 
*END

*D_NET *148 0.00952228
*CONN
*I *427:D I *D sg13cmos5l_dfrbpq_1
*I *389:B I *D sg13cmos5l_nor3_1
*I *502:X O *D sg13cmos5l_dlygate4sd3_1
*CAP
1 *427:D 0.000343877
2 *389:B 0
3 *502:X 5.11497e-05
4 *148:20 0.00127824
5 *148:14 0.00181675
6 *148:8 0.000933541
7 *427:D *181:8 0
8 *427:D *206:49 0
9 *148:14 *388:B 0
10 *148:14 *422:RESET_B 0.000208576
11 *148:14 *428:RESET_B 0
12 *148:14 *181:22 0
13 *148:20 *424:D 0
14 *148:20 *152:16 0
15 *148:20 *164:27 0.00172833
16 *148:20 *165:22 0
17 *148:20 *176:38 0
18 *148:20 *187:12 0
19 *148:20 *205:8 0.00108606
20 *148:20 *205:23 0.000394566
21 *390:C *148:20 0
22 *47:36 *427:D 0
23 *47:36 *148:8 0
24 *109:8 *148:20 0.00114166
25 *112:20 *427:D 0.000266077
26 *112:20 *148:8 0.000128662
27 *114:12 *148:14 0.000144784
28 *119:6 *148:14 0
29 *119:21 *148:14 0
*RES
1 *502:X *148:8 40.5974 
2 *148:8 *148:14 45.0779 
3 *148:14 *148:20 38.4061 
4 *148:20 *389:B 20 
5 *148:8 *427:D 43.3887 
*END

*D_NET *149 0.00435003
*CONN
*I *460:D I *D sg13cmos5l_dfrbpq_1
*I *362:A I *D sg13cmos5l_nor3_1
*I *503:X O *D sg13cmos5l_dlygate4sd3_1
*CAP
1 *460:D 0.000737061
2 *362:A 0.000171849
3 *503:X 0.000211887
4 *149:8 0.0011208
5 *460:D *160:12 0
6 *460:D *176:22 7.93152e-05
7 *362:B *362:A 0
8 *362:B *149:8 0
9 *367:A *149:8 0
10 *367:B *149:8 0
11 *513:A *460:D 4.78685e-05
12 *7:17 *362:A 0.000234224
13 *7:17 *460:D 0.000980408
14 *27:8 *460:D 0
15 *28:8 *460:D 0.00076662
*RES
1 *503:X *149:8 42.0497 
2 *149:8 *362:A 41.8437 
3 *149:8 *460:D 48.034 
*END

*D_NET *150 0.00747694
*CONN
*I *398:B I *D sg13cmos5l_nor3_1
*I *415:D I *D sg13cmos5l_dfrbpq_1
*I *504:X O *D sg13cmos5l_dlygate4sd3_1
*CAP
1 *398:B 0.000774704
2 *415:D 0.000366484
3 *504:X 0.000592105
4 *150:8 0.00173329
5 *415:D *151:8 0.0014611
6 *398:A *398:B 0
7 *398:C *398:B 1.54556e-05
8 *495:A *150:8 0.000371477
9 *505:A *398:B 2.21754e-05
10 *512:A *150:8 0.000306794
11 *528:A *150:8 0
12 *538:A *398:B 0.000533842
13 *8:14 *398:B 0
14 *8:14 *415:D 0
15 *20:8 *398:B 0.00024222
16 *22:18 *415:D 0.000822971
17 *121:8 *415:D 0.000234311
18 *121:14 *398:B 0
19 *130:10 *150:8 0
20 *131:16 *150:8 0
21 *140:6 *398:B 0
22 *140:12 *415:D 0
*RES
1 *504:X *150:8 45.7268 
2 *150:8 *415:D 47.5911 
3 *150:8 *398:B 47.6941 
*END

*D_NET *151 0.0117836
*CONN
*I *426:D I *D sg13cmos5l_dfrbpq_1
*I *389:C I *D sg13cmos5l_nor3_1
*I *505:X O *D sg13cmos5l_dlygate4sd3_1
*CAP
1 *426:D 0
2 *389:C 0
3 *505:X 0
4 *151:26 0.000382169
5 *151:18 0.00160566
6 *151:8 0.00275633
7 *151:6 0.00153284
8 *151:8 *162:12 0.000394237
9 *151:8 *173:8 0
10 *151:8 *206:45 0
11 *151:18 *418:D 0.000467824
12 *151:18 *420:RESET_B 0
13 *151:26 *152:16 0
14 *151:26 *165:22 0
15 *390:A *151:26 0.00050279
16 *393:B *151:18 0
17 *415:D *151:8 0.0014611
18 *424:CLK *151:18 0
19 *15:14 *151:18 0
20 *19:14 *151:8 0
21 *53:24 *151:18 0
22 *53:60 *151:8 0.00069398
23 *53:60 *151:18 0.000394239
24 *89:8 *151:18 0
25 *118:8 *151:8 0
26 *123:10 *151:8 0.000607109
27 *125:12 *151:18 0.000985358
28 *140:12 *151:8 0
*RES
1 *505:X *151:6 40 
2 *151:6 *151:8 20.6206 
3 *151:8 *151:18 33.5136 
4 *151:18 *151:26 43.8831 
5 *151:26 *389:C 20 
6 *151:8 *426:D 40 
*END

*D_NET *152 0.00674471
*CONN
*I *424:D I *D sg13cmos5l_dfrbpq_1
*I *389:A I *D sg13cmos5l_nor3_1
*I *506:X O *D sg13cmos5l_dlygate4sd3_1
*CAP
1 *424:D 0.000798243
2 *389:A 0
3 *506:X 0.00048157
4 *152:16 0.00130346
5 *152:10 0.000986786
6 *424:D *154:20 0.00017635
7 *424:D *154:43 0
8 *424:D *206:22 0
9 *152:10 *165:22 0
10 *152:16 *165:22 0
11 *375:B *424:D 0
12 *390:B *152:10 0
13 *390:B *152:16 0.00077681
14 *390:A *152:10 0.000770526
15 *394:A *424:D 0
16 *417:D *424:D 0
17 *524:A *424:D 0.000466651
18 *12:8 *152:10 0.000984313
19 *146:39 *424:D 0
20 *146:39 *152:16 0
21 *148:20 *424:D 0
22 *148:20 *152:16 0
23 *151:26 *152:16 0
*RES
1 *506:X *152:10 47.0658 
2 *152:10 *152:16 25.7989 
3 *152:16 *389:A 20 
4 *152:16 *424:D 28.3687 
*END

*D_NET *153 0.00733067
*CONN
*I *462:D I *D sg13cmos5l_dfrbpq_1
*I *362:C I *D sg13cmos5l_nor3_1
*I *507:X O *D sg13cmos5l_dlygate4sd3_1
*CAP
1 *462:D 0.000329213
2 *362:C 0
3 *507:X 0
4 *153:25 0.00103163
5 *153:12 0.000742885
6 *153:4 0.0014453
7 *153:25 *361:C 0.000145031
8 *153:25 *155:25 0
9 *461:CLK *462:D 0
10 *462:RESET_B *462:D 0
11 *477:A *462:D 0
12 *507:A *153:25 0
13 *534:A *153:25 0
14 *7:17 *153:12 0
15 *7:17 *153:25 0.00194328
16 *26:10 *153:12 0.000554163
17 *27:8 *153:12 0
18 *28:8 *153:12 0
19 *44:50 *462:D 0
20 *72:16 *153:12 0
21 *137:27 *153:25 0
22 *137:89 *462:D 0
23 *138:8 *153:12 0.00113917
*RES
1 *507:X *153:4 20 
2 *153:4 *153:12 49.3215 
3 *153:12 *362:C 20 
4 *153:4 *153:25 49.9704 
5 *153:25 *462:D 22.7616 
*END

*D_NET *154 0.00567026
*CONN
*I *484:A I *D sg13cmos5l_buf_1
*I *485:A I *D sg13cmos5l_buf_1
*I *556:X O *D sg13cmos5l_buf_1
*CAP
1 *484:A 0
2 *485:A 2.88191e-05
3 *556:X 0.000167754
4 *154:43 0.000610711
5 *154:20 0.00182858
6 *154:8 0.00135681
7 *154:8 *190:10 0.000450995
8 *154:20 *392:A 0
9 *154:20 *449:D 0
10 *154:20 *206:33 0
11 *372:C *154:20 8.00842e-05
12 *372:A *154:20 0
13 *375:B *154:43 0.000208824
14 *424:D *154:20 0.00017635
15 *424:D *154:43 0
16 *449:RESET_B *154:20 0.000209582
17 *524:A *154:20 4.288e-05
18 *524:A *154:43 2.04515e-05
19 *526:A *154:20 0
20 *36:18 *154:20 0
21 *36:18 *154:43 2.20966e-05
22 *38:14 *154:43 0
23 *57:34 *154:20 0
24 *86:8 *154:8 0
25 *142:12 *154:43 0
26 *145:10 *154:20 0.000466318
27 *146:39 *154:43 0
*RES
1 *556:X *154:8 42.0806 
2 *154:8 *154:20 32.2235 
3 *154:20 *485:A 20.3244 
4 *154:20 *154:43 45.5337 
5 *154:43 *484:A 20 
*END

*D_NET *155 0.00208185
*CONN
*I *458:D I *D sg13cmos5l_dfrbpq_1
*I *361:B I *D sg13cmos5l_nor4_2
*I *508:X O *D sg13cmos5l_dlygate4sd3_1
*CAP
1 *458:D 0
2 *361:B 5.09034e-05
3 *508:X 0.000153675
4 *155:25 0.000218859
5 *155:10 0.000269763
6 *155:8 0.000153675
7 *361:B *361:C 8.00842e-05
8 *155:8 *464:D 0.000234224
9 *155:8 *160:12 0.00023464
10 *155:25 *361:C 0.000160966
11 *507:A *155:25 0.000129163
12 *138:8 *155:8 0
13 *138:8 *155:25 0.000395897
14 *138:12 *155:25 0
15 *153:25 *155:25 0
*RES
1 *508:X *155:8 42.0806 
2 *155:8 *155:10 20 
3 *155:10 *361:B 20.5356 
4 *155:10 *155:25 43.0179 
5 *155:25 *458:D 20 
*END

*D_NET *156 0.00733494
*CONN
*I *438:D I *D sg13cmos5l_dfrbpq_1
*I *380:C I *D sg13cmos5l_nor3_1
*I *509:X O *D sg13cmos5l_dlygate4sd3_1
*CAP
1 *438:D 6.9253e-05
2 *380:C 0
3 *509:X 0.000844565
4 *156:26 0.00113735
5 *156:8 0.00205117
6 *156:8 *379:C 0
7 *156:8 *184:33 7.52149e-05
8 *156:26 *158:10 0
9 *156:26 *199:57 0.000191774
10 *384:A *156:26 0
11 *439:RESET_B *156:26 0
12 *535:A *156:26 0
13 *46:17 *156:8 0
14 *46:35 *156:8 0
15 *58:12 *156:8 0
16 *101:10 *156:26 7.94957e-05
17 *102:10 *156:8 0
18 *134:8 *156:26 0.000266405
19 *134:10 *156:26 0.000926961
20 *134:32 *156:8 0.000873098
21 *134:32 *156:26 0
22 *142:16 *156:26 0
23 *142:26 *156:26 0
24 *146:16 *156:26 0.000819651
25 *146:39 *156:26 0
*RES
1 *509:X *156:8 49.7438 
2 *156:8 *156:26 33.8638 
3 *156:26 *380:C 20 
4 *156:8 *438:D 40.5356 
*END

*D_NET *157 0.00331453
*CONN
*I *360:B I *D sg13cmos5l_nor4_2
*I *455:D I *D sg13cmos5l_dfrbpq_1
*I *510:X O *D sg13cmos5l_dlygate4sd3_1
*CAP
1 *360:B 0.000493939
2 *455:D 3.60151e-05
3 *510:X 0.00026784
4 *157:8 0.000797794
5 *360:B *360:C 0.000273408
6 *360:B *189:14 5.30319e-05
7 *360:B *189:21 0.000234224
8 *455:D *189:8 1.54008e-05
9 *157:8 *189:14 0.000660641
10 *453:RESET_B *360:B 0.000208615
11 *133:38 *360:B 0.000273616
*RES
1 *510:X *157:8 43.0694 
2 *157:8 *455:D 40.3193 
3 *157:8 *360:B 45.356 
*END

*D_NET *158 0.00552114
*CONN
*I *437:D I *D sg13cmos5l_dfrbpq_1
*I *379:C I *D sg13cmos5l_nor4_2
*I *511:X O *D sg13cmos5l_dlygate4sd3_1
*CAP
1 *437:D 0.000389678
2 *379:C 0.000423198
3 *511:X 0.00019954
4 *158:12 0.00187398
5 *158:10 0.00126065
6 *379:C *440:D 0
7 *158:10 *199:57 0.000241127
8 *437:RESET_B *437:D 0
9 *440:CLK *379:C 0
10 *497:A *158:10 4.77425e-05
11 *46:6 *379:C 0
12 *46:35 *379:C 0
13 *46:35 *158:12 0
14 *134:8 *158:12 0
15 *134:10 *158:12 0
16 *134:32 *379:C 0.000288502
17 *134:32 *158:12 0.000796724
18 *146:29 *158:12 0
19 *156:8 *379:C 0
20 *156:26 *158:10 0
*RES
1 *511:X *158:10 41.9673 
2 *158:10 *158:12 9.7438 
3 *158:12 *379:C 43.914 
4 *158:12 *437:D 42.6162 
*END

*D_NET *159 0.00600303
*CONN
*I *413:D I *D sg13cmos5l_dfrbpq_1
*I *397:C I *D sg13cmos5l_nor4_2
*I *512:X O *D sg13cmos5l_dlygate4sd3_1
*CAP
1 *413:D 0.000226726
2 *397:C 0.000642675
3 *512:X 0.000625825
4 *159:10 0.00149523
5 *397:C *397:D 0.000242055
6 *397:C *411:D 0
7 *397:C *162:28 0.000242105
8 *397:C *188:8 0
9 *413:D *198:29 0
10 *159:10 *165:18 0
11 *159:10 *188:8 0
12 *20:22 *397:C 0
13 *20:22 *159:10 0.000767865
14 *22:18 *159:10 0
15 *60:27 *413:D 0
16 *60:47 *413:D 0
17 *124:8 *397:C 0.000552831
18 *128:8 *159:10 0.000447684
19 *131:16 *159:10 0.000760042
*RES
1 *512:X *159:10 48.6417 
2 *159:10 *397:C 47.2306 
3 *159:10 *413:D 42.0497 
*END

*D_NET *160 0.00317868
*CONN
*I *464:D I *D sg13cmos5l_dfrbpq_1
*I *361:D I *D sg13cmos5l_nor4_2
*I *513:X O *D sg13cmos5l_dlygate4sd3_1
*CAP
1 *464:D 0.00014035
2 *361:D 2.60565e-05
3 *513:X 0.000398273
4 *160:12 0.000564679
5 *160:12 *183:10 0.00017729
6 *363:C *160:12 0
7 *460:D *160:12 0
8 *534:A *361:D 4.77425e-05
9 *55:20 *464:D 0.000531652
10 *55:20 *160:12 0.000340704
11 *76:14 *361:D 4.77425e-05
12 *76:20 *464:D 0
13 *137:27 *160:12 0.000435331
14 *155:8 *464:D 0.000234224
15 *155:8 *160:12 0.00023464
*RES
1 *513:X *160:12 45.0676 
2 *160:12 *361:D 40.3193 
3 *160:12 *464:D 42.575 
*END

*D_NET *161 0.00230198
*CONN
*I *440:D I *D sg13cmos5l_dfrbpq_1
*I *379:D I *D sg13cmos5l_nor4_2
*I *514:X O *D sg13cmos5l_dlygate4sd3_1
*CAP
1 *440:D 0.000314286
2 *379:D 0.000255703
3 *514:X 0.0004624
4 *161:8 0.00103239
5 *379:D *379:B 0
6 *161:8 *167:10 0
7 *379:C *440:D 0
8 *35:18 *379:D 0
9 *35:18 *161:8 0
10 *36:10 *161:8 0.000237204
11 *82:12 *161:8 0
*RES
1 *514:X *161:8 45.2942 
2 *161:8 *379:D 42.4017 
3 *161:8 *440:D 43.1312 
*END

*D_NET *162 0.00556913
*CONN
*I *396:D I *D sg13cmos5l_nor4_2
*I *408:D I *D sg13cmos5l_dfrbpq_1
*I *515:X O *D sg13cmos5l_dlygate4sd3_1
*CAP
1 *396:D 0.000508991
2 *408:D 0
3 *515:X 0.000257331
4 *162:36 0.000490934
5 *162:28 0.00147886
6 *162:12 0.000736262
7 *396:D *396:B 0.000209558
8 *396:D *396:C 0
9 *396:D *401:B 0.000127966
10 *396:D *178:26 0
11 *162:28 *397:B 0.000272366
12 *162:28 *397:D 0
13 *162:28 *401:B 0.00018168
14 *162:28 *410:RESET_B 4.77425e-05
15 *162:28 *178:26 0.000231291
16 *162:36 *166:12 0
17 *162:36 *187:42 0
18 *397:C *162:28 0.000242105
19 *405:D *162:36 8.03692e-05
20 *469:A *396:D 0
21 *7:17 *162:36 0
22 *18:14 *396:D 0
23 *19:14 *162:12 0.000128248
24 *118:8 *162:12 0.000181192
25 *119:21 *396:D 0
26 *151:8 *162:12 0.000394237
*RES
1 *515:X *162:12 44.0788 
2 *162:12 *162:28 25.5466 
3 *162:28 *162:36 44.0994 
4 *162:36 *408:D 20 
5 *162:28 *396:D 25.0058 
*END

*D_NET *163 0.00470264
*CONN
*I *461:D I *D sg13cmos5l_dfrbpq_1
*I *361:C I *D sg13cmos5l_nor4_2
*I *516:X O *D sg13cmos5l_dlygate4sd3_1
*CAP
1 *461:D 0.000575712
2 *361:C 0.000575276
3 *516:X 0.000719324
4 *163:12 0.00187031
5 *461:D *198:10 0
6 *163:12 *176:8 0.000287757
7 *163:12 *198:10 0
8 *361:B *361:C 8.00842e-05
9 *460:CLK *361:C 0
10 *534:A *361:C 0
11 *56:14 *461:D 0
12 *73:12 *461:D 0
13 *73:12 *163:12 0
14 *75:8 *361:C 0
15 *76:14 *361:C 0
16 *132:10 *163:12 0.000288173
17 *137:27 *361:C 0
18 *137:64 *461:D 0
19 *153:25 *361:C 0.000145031
20 *155:25 *361:C 0.000160966
*RES
1 *516:X *163:12 47.6941 
2 *163:12 *361:C 45.6444 
3 *163:12 *461:D 45.9843 
*END

*D_NET *164 0.00471062
*CONN
*I *419:D I *D sg13cmos5l_dfrbpq_1
*I *388:A I *D sg13cmos5l_nor4_2
*I *517:X O *D sg13cmos5l_dlygate4sd3_1
*CAP
1 *419:D 0
2 *388:A 9.66032e-05
3 *517:X 0.000140561
4 *164:27 0.000633379
5 *164:12 0.000875186
6 *164:8 0.000285765
7 *388:A *388:B 0
8 *164:8 *176:38 0
9 *164:12 *388:B 0
10 *164:12 *187:12 0.000112535
11 *164:27 *176:38 0
12 *164:27 *205:23 0
13 *517:A *388:A 7.9947e-05
14 *517:A *164:12 0.000193659
15 *11:10 *164:27 0.000208878
16 *15:14 *164:8 0.000340375
17 *106:10 *164:27 1.54008e-05
18 *148:20 *164:27 0.00172833
*RES
1 *517:X *164:8 41.5862 
2 *164:8 *164:12 21.6171 
3 *164:12 *388:A 20.9682 
4 *164:12 *164:27 49.4142 
5 *164:27 *419:D 20 
*END

*D_NET *165 0.0224642
*CONN
*I *492:A I *D sg13cmos5l_buf_1
*I *493:A I *D sg13cmos5l_buf_1
*I *557:X O *D sg13cmos5l_buf_1
*CAP
1 *492:A 0
2 *493:A 0
3 *557:X 0.000449492
4 *165:26 0.00153948
5 *165:22 0.00341735
6 *165:18 0.00351033
7 *165:10 0.00208195
8 *165:10 *166:12 0.000394151
9 *165:18 *423:RESET_B 0
10 *165:18 *168:10 7.94957e-05
11 *165:18 *177:10 0
12 *165:18 *196:12 0.000144993
13 *165:18 *196:23 6.46834e-05
14 *165:18 *202:8 0.000241908
15 *165:22 *388:D 0.000288675
16 *165:22 *176:38 0
17 *165:22 *177:10 0.001143
18 *165:22 *187:12 0
19 *165:22 *205:8 0.00129869
20 *165:22 *205:23 0.000372971
21 *165:26 *176:38 0
22 *165:26 *182:25 0
23 *165:26 *206:8 0.00183532
24 *390:A *165:22 0.00140724
25 *413:CLK *165:18 0
26 *415:CLK *165:18 8.01612e-05
27 *427:CLK *165:18 0
28 *428:CLK *165:18 0
29 *528:A *165:18 0
30 *551:A *165:18 0
31 *9:10 *165:26 0
32 *12:8 *165:22 0
33 *22:18 *165:18 0.00069419
34 *41:8 *165:26 0
35 *41:22 *165:26 0
36 *48:38 *165:10 0
37 *59:48 *165:18 0
38 *60:47 *165:18 0
39 *99:8 *165:26 0.00172668
40 *109:8 *165:22 0.00114208
41 *114:12 *165:22 0
42 *121:14 *165:10 0.00020973
43 *127:8 *165:10 0
44 *131:16 *165:18 0
45 *133:12 *165:26 0
46 *133:16 *165:26 0
47 *142:26 *165:26 0.000341619
48 *148:20 *165:22 0
49 *151:26 *165:22 0
50 *152:10 *165:22 0
51 *152:16 *165:22 0
52 *159:10 *165:18 0
*RES
1 *557:X *165:10 45.459 
2 *165:10 *165:18 35.8226 
3 *165:18 *165:22 45.3174 
4 *165:22 *165:26 41.3622 
5 *165:26 *493:A 20 
6 *165:22 *492:A 40 
*END

*D_NET *166 0.00529936
*CONN
*I *397:B I *D sg13cmos5l_nor4_2
*I *410:D I *D sg13cmos5l_dfrbpq_1
*I *518:X O *D sg13cmos5l_dlygate4sd3_1
*CAP
1 *397:B 0.000464241
2 *410:D 0
3 *518:X 0.000144384
4 *166:12 0.0014789
5 *166:8 0.00115904
6 *397:B *401:B 0.000273902
7 *397:B *187:23 0.000138595
8 *397:B *187:40 0.000208984
9 *166:12 *187:93 0.00012816
10 *166:12 *198:49 0.000394566
11 *411:CLK *166:12 0
12 *7:15 *166:12 0
13 *7:17 *166:12 0
14 *19:14 *397:B 0
15 *20:22 *166:12 0
16 *23:8 *166:12 0
17 *48:38 *166:8 0
18 *127:8 *166:12 0
19 *131:16 *166:8 0.000242072
20 *162:28 *397:B 0.000272366
21 *162:36 *166:12 0
22 *165:10 *166:12 0.000394151
*RES
1 *518:X *166:8 41.6171 
2 *166:8 *166:12 30.7326 
3 *166:12 *410:D 20 
4 *166:12 *397:B 25.4513 
*END

*D_NET *167 0.00455731
*CONN
*I *369:D I *D sg13cmos5l_nor4_2
*I *444:D I *D sg13cmos5l_dfrbpq_1
*I *519:X O *D sg13cmos5l_dlygate4sd3_1
*CAP
1 *369:D 0.000888456
2 *444:D 0
3 *519:X 0
4 *167:10 0.000251484
5 *167:4 0.00113994
6 *369:D *369:A 0
7 *369:D *369:B 0
8 *369:D *373:B 0.000466138
9 *369:D *175:14 8.01938e-05
10 *369:D *186:8 1.54008e-05
11 *369:D *186:18 0
12 *377:A *369:D 0
13 *466:A *369:D 7.53965e-05
14 *32:16 *369:D 0
15 *33:10 *369:D 0
16 *35:18 *167:10 0.00103353
17 *55:8 *369:D 0
18 *82:12 *167:10 0.00060678
19 *161:8 *167:10 0
*RES
1 *519:X *167:4 20 
2 *167:4 *167:10 44.7998 
3 *167:10 *444:D 20 
4 *167:4 *369:D 28.6079 
*END

*D_NET *168 0.00493949
*CONN
*I *422:D I *D sg13cmos5l_dfrbpq_1
*I *388:B I *D sg13cmos5l_nor4_2
*I *520:X O *D sg13cmos5l_dlygate4sd3_1
*CAP
1 *422:D 0
2 *388:B 0.000566098
3 *520:X 0.00104158
4 *168:14 0.000696822
5 *168:10 0.00117231
6 *388:B *181:22 0
7 *388:B *187:12 0
8 *168:10 *423:RESET_B 0.00107271
9 *168:10 *205:56 0.000235153
10 *388:A *388:B 0
11 *402:B *168:10 0
12 *112:32 *168:10 7.53209e-05
13 *119:6 *168:14 0
14 *148:14 *388:B 0
15 *164:12 *388:B 0
16 *165:18 *168:10 7.94957e-05
*RES
1 *520:X *168:10 47.313 
2 *168:10 *168:14 21.1845 
3 *168:14 *388:B 24.6968 
4 *168:14 *422:D 20 
*END

*D_NET *169 0.00367983
*CONN
*I *370:B I *D sg13cmos5l_nor4_2
*I *446:D I *D sg13cmos5l_dfrbpq_1
*I *521:X O *D sg13cmos5l_dlygate4sd3_1
*CAP
1 *370:B 0
2 *446:D 0.000114919
3 *521:X 4.0599e-05
4 *169:25 0.000881831
5 *169:8 0.00103735
6 *169:8 *199:14 0.000128248
7 *169:25 *175:14 0
8 *169:25 *199:14 0.00133318
9 *169:25 *199:57 0
10 *45:13 *169:8 0
11 *45:13 *169:25 0
12 *55:8 *169:25 1.54556e-05
13 *55:12 *169:25 0
14 *81:18 *446:D 6.41216e-05
15 *143:14 *446:D 6.41216e-05
*RES
1 *521:X *169:8 40.5974 
2 *169:8 *446:D 41.3956 
3 *169:8 *169:25 30.7738 
4 *169:25 *370:B 20 
*END

*D_NET *170 0.00358158
*CONN
*I *361:A I *D sg13cmos5l_nor4_2
*I *456:D I *D sg13cmos5l_dfrbpq_1
*I *522:X O *D sg13cmos5l_dlygate4sd3_1
*CAP
1 *361:A 0.000217427
2 *456:D 0
3 *522:X 0.000264191
4 *170:18 0.000359068
5 *170:10 0.000576495
6 *170:8 0.000264191
7 *170:8 *457:D 0
8 *170:18 *197:14 0.000661472
9 *534:A *170:18 0
10 *35:18 *170:18 0.000874846
11 *50:22 *170:18 0.000182109
12 *72:8 *361:A 0
13 *76:8 *170:8 0.000181781
14 *76:14 *361:A 0
15 *91:15 *170:8 0
*RES
1 *522:X *170:8 42.3278 
2 *170:8 *170:10 20 
3 *170:10 *170:18 45.6753 
4 *170:18 *456:D 20 
5 *170:10 *361:A 22.266 
*END

*D_NET *171 0.00514922
*CONN
*I *379:B I *D sg13cmos5l_nor4_2
*I *434:D I *D sg13cmos5l_dfrbpq_1
*I *523:X O *D sg13cmos5l_dlygate4sd3_1
*CAP
1 *379:B 7.17545e-05
2 *434:D 8.22231e-05
3 *523:X 2.36489e-05
4 *171:25 0.00121791
5 *171:6 0.00125202
6 *171:25 *182:25 0
7 *171:25 *182:33 0.000929035
8 *171:25 *184:14 0.000176426
9 *171:25 *184:33 0.000281017
10 *379:D *379:B 0
11 *434:RESET_B *434:D 0
12 *434:RESET_B *171:25 0
13 *523:A *434:D 0
14 *523:A *171:25 0
15 *549:A *171:25 0
16 *35:18 *171:25 0
17 *40:12 *379:B 8.00842e-05
18 *40:12 *171:25 0.0010351
19 *102:10 *171:25 0
*RES
1 *523:X *171:6 20.3502 
2 *171:6 *434:D 20.8858 
3 *171:6 *171:25 34.1007 
4 *171:25 *379:B 40.7519 
*END

*D_NET *172 0.00274017
*CONN
*I *387:D I *D sg13cmos5l_nor4_2
*I *420:D I *D sg13cmos5l_dfrbpq_1
*I *524:X O *D sg13cmos5l_dlygate4sd3_1
*CAP
1 *387:D 0.000870322
2 *420:D 6.00565e-05
3 *524:X 5.49819e-05
4 *172:8 0.000985361
5 *387:D *417:RESET_B 0
6 *387:D *205:30 0
7 *387:D *205:34 0.000181608
8 *387:D *205:45 0.000234224
9 *387:D *205:84 0
10 *420:D *392:B 0.0001127
11 *420:D *206:22 0
12 *61:24 *387:D 0
13 *61:34 *387:D 0.000240918
*RES
1 *524:X *172:8 40.5974 
2 *172:8 *420:D 40.7519 
3 *172:8 *387:D 48.3945 
*END

*D_NET *173 0.00375269
*CONN
*I *407:D I *D sg13cmos5l_dfrbpq_1
*I *397:A I *D sg13cmos5l_nor4_2
*I *525:X O *D sg13cmos5l_dlygate4sd3_1
*CAP
1 *407:D 9.72817e-05
2 *397:A 0
3 *525:X 0.000137269
4 *173:23 0.00105478
5 *173:12 0.00114869
6 *173:8 0.000328458
7 *407:D *406:RESET_B 0
8 *407:D *406:D 0.000161306
9 *173:8 *206:45 0.000341292
10 *173:12 *187:23 0.000307035
11 *173:23 *187:23 0.000176577
12 *173:23 *187:46 0
13 *173:23 *195:14 0
14 *118:8 *173:23 0
15 *124:8 *173:23 0
16 *151:8 *173:8 0
*RES
1 *525:X *173:8 41.5862 
2 *173:8 *173:12 22.0497 
3 *173:12 *397:A 20 
4 *173:12 *173:23 30.4339 
5 *173:23 *407:D 41.0764 
*END

*D_NET *174 0.00494126
*CONN
*I *452:D I *D sg13cmos5l_dfrbpq_1
*I *370:D I *D sg13cmos5l_nor4_2
*I *526:X O *D sg13cmos5l_dlygate4sd3_1
*CAP
1 *452:D 2.28562e-05
2 *370:D 0
3 *526:X 4.72978e-05
4 *174:12 0.00100026
5 *174:6 0.00107041
6 *174:12 *175:14 0
7 *174:12 *190:48 0
8 *174:12 *199:57 0.00114116
9 *371:A *174:12 0.000287758
10 *451:CLK *174:12 0
11 *499:A *174:12 0
12 *526:A *452:D 0
13 *526:A *174:12 0
14 *57:30 *174:12 0
15 *136:49 *452:D 0
16 *136:49 *174:12 0
17 *143:37 *174:12 0
18 *145:10 *174:12 0.00137151
*RES
1 *526:X *174:6 20.5974 
2 *174:6 *174:12 33.0604 
3 *174:12 *370:D 40 
4 *174:6 *452:D 20.3193 
*END

*D_NET *175 0.0041816
*CONN
*I *449:D I *D sg13cmos5l_dfrbpq_1
*I *370:C I *D sg13cmos5l_nor4_2
*I *527:X O *D sg13cmos5l_dlygate4sd3_1
*CAP
1 *449:D 0.00043376
2 *370:C 0
3 *527:X 0.00012405
4 *175:14 0.000858562
5 *175:8 0.00141637
6 *175:14 *199:57 0
7 *369:D *175:14 8.01938e-05
8 *371:A *175:14 0.000287758
9 *371:B *175:14 0
10 *45:13 *175:14 0
11 *45:25 *175:14 0
12 *87:8 *175:8 0
13 *143:37 *449:D 0
14 *143:37 *175:8 0
15 *143:37 *175:14 0
16 *145:10 *175:14 0.000980909
17 *147:10 *175:8 0
18 *147:10 *175:14 0
19 *154:20 *449:D 0
20 *169:25 *175:14 0
21 *174:12 *175:14 0
*RES
1 *527:X *175:8 41.339 
2 *175:8 *175:14 30.0322 
3 *175:14 *370:C 20 
4 *175:8 *449:D 44.2127 
*END

*D_NET *176 0.0305885
*CONN
*I *491:A I *D sg13cmos5l_buf_1
*I *490:A I *D sg13cmos5l_buf_1
*I *558:X O *D sg13cmos5l_buf_1
*CAP
1 *491:A 0
2 *490:A 0
3 *558:X 0.000319506
4 *176:38 0.00367196
5 *176:36 0.00570434
6 *176:28 0.00219404
7 *176:22 0.000983591
8 *176:12 0.00101187
9 *176:8 0.000509438
10 *176:36 *360:C 0.000564042
11 *176:36 *360:D 0.000272746
12 *176:36 *193:23 0.00204943
13 *176:38 *187:12 0.00284773
14 *176:38 *205:8 0
15 *176:38 *206:22 0
16 *363:C *176:22 4.78521e-05
17 *363:A *176:22 0
18 *363:A *176:36 0.00014391
19 *435:CLK *176:36 0
20 *435:CLK *176:38 0.000342122
21 *460:D *176:22 7.93152e-05
22 *489:A *176:12 0.000241973
23 *489:A *176:22 0.000144592
24 *508:A *176:22 0
25 *539:A *176:36 0.000952847
26 *7:17 *176:22 0.000393822
27 *10:14 *176:38 0
28 *15:14 *176:38 0
29 *17:10 *176:38 0.000501875
30 *37:8 *176:38 0
31 *52:41 *176:36 0
32 *52:50 *176:36 0
33 *55:20 *176:22 0
34 *76:8 *176:28 0.00039332
35 *91:15 *176:28 0
36 *106:10 *176:38 0.00103652
37 *132:10 *176:8 0
38 *133:12 *176:36 0.00023136
39 *133:12 *176:38 0.0034325
40 *133:14 *176:36 0.000718011
41 *133:16 *176:36 0.00055613
42 *133:18 *176:36 0.000236081
43 *133:22 *176:36 0.000719869
44 *133:28 *176:36 0
45 *133:38 *176:36 0
46 *137:27 *176:36 0
47 *142:12 *176:38 0
48 *144:21 *176:8 0
49 *144:21 *176:22 0
50 *148:20 *176:38 0
51 *163:12 *176:8 0.000287757
52 *164:8 *176:38 0
53 *164:27 *176:38 0
54 *165:22 *176:38 0
55 *165:26 *176:38 0
*RES
1 *558:X *176:8 43.5638 
2 *176:8 *176:12 21.6171 
3 *176:12 *176:22 47.8795 
4 *176:22 *176:28 41.8334 
5 *176:28 *176:36 47.4701 
6 *176:36 *176:38 47.3182 
7 *176:38 *490:A 40 
8 *176:12 *491:A 20 
*END

*D_NET *177 0.0027742
*CONN
*I *428:D I *D sg13cmos5l_dfrbpq_1
*I *388:D I *D sg13cmos5l_nor4_2
*I *528:X O *D sg13cmos5l_dlygate4sd3_1
*CAP
1 *428:D 0
2 *388:D 6.80268e-05
3 *528:X 0.000538906
4 *177:10 0.000606933
5 *177:10 *187:12 0
6 *177:10 *196:12 0
7 *552:A *177:10 0
8 *114:12 *388:D 0.000128662
9 *165:18 *177:10 0
10 *165:22 *388:D 0.000288675
11 *165:22 *177:10 0.001143
*RES
1 *528:X *177:10 47.6529 
2 *177:10 *388:D 41.339 
3 *177:10 *428:D 40 
*END

*D_NET *178 0.0058377
*CONN
*I *416:D I *D sg13cmos5l_dfrbpq_1
*I *397:D I *D sg13cmos5l_nor4_2
*I *529:X O *D sg13cmos5l_dlygate4sd3_1
*CAP
1 *416:D 0
2 *397:D 0.000210609
3 *529:X 0.000961341
4 *178:26 0.000936814
5 *178:14 0.000748745
6 *178:10 0.000983881
7 *397:D *411:D 0.0002095
8 *178:10 *198:12 0.000234224
9 *178:10 *198:25 0.000212958
10 *178:14 *188:31 4.77425e-05
11 *178:26 *410:RESET_B 4.77425e-05
12 *178:26 *411:D 0
13 *178:26 *187:93 0.000144701
14 *178:26 *188:31 0.000176953
15 *178:26 *198:12 0
16 *396:D *178:26 0
17 *397:C *397:D 0.000242055
18 *6:9 *178:10 0
19 *18:14 *178:14 0
20 *18:14 *178:26 0
21 *48:11 *178:26 0
22 *48:38 *178:10 0
23 *48:38 *178:26 0
24 *54:57 *178:26 0.000449137
25 *119:21 *397:D 0
26 *119:21 *178:26 0
27 *126:12 *178:10 0
28 *131:16 *178:10 0
29 *162:28 *397:D 0
30 *162:28 *178:26 0.000231291
*RES
1 *529:X *178:10 48.7344 
2 *178:10 *178:14 20.3193 
3 *178:14 *178:26 47.9516 
4 *178:26 *397:D 22.3999 
5 *178:14 *416:D 20 
*END

*D_NET *179 0.00437554
*CONN
*I *370:A I *D sg13cmos5l_nor4_2
*I *443:D I *D sg13cmos5l_dfrbpq_1
*I *530:X O *D sg13cmos5l_dlygate4sd3_1
*CAP
1 *370:A 5.87217e-05
2 *443:D 0
3 *530:X 0.000201488
4 *179:25 0.00103585
5 *179:10 0.00117862
6 *370:A *369:A 4.77425e-05
7 *179:10 *199:14 0
8 *179:25 *199:24 0.000660226
9 *179:25 *199:57 5.30319e-05
10 *377:A *370:A 1.54008e-05
11 *548:A *179:10 0.000175513
12 *55:12 *179:25 0
13 *81:18 *179:25 0.000175853
14 *135:19 *179:25 0
15 *143:37 *179:25 0.000773095
*RES
1 *530:X *179:10 22.1012 
2 *179:10 *443:D 20 
3 *179:10 *179:25 31.536 
4 *179:25 *370:A 40.5356 
*END

*D_NET *180 0.00916839
*CONN
*I *378:D I *D sg13cmos5l_nor4_2
*I *432:D I *D sg13cmos5l_dfrbpq_1
*I *531:X O *D sg13cmos5l_dlygate4sd3_1
*CAP
1 *378:D 0.000521493
2 *432:D 3.03288e-05
3 *531:X 0
4 *180:8 0.00116865
5 *180:6 0.000616825
6 *378:D *378:B 0
7 *378:D *184:33 0
8 *180:8 *383:B 0
9 *180:8 *193:23 0
10 *381:B *378:D 0
11 *433:CLK *378:D 0
12 *10:14 *378:D 0.000714833
13 *10:14 *180:8 0.00274009
14 *41:22 *378:D 0
15 *52:8 *432:D 4.77425e-05
16 *90:14 *378:D 0.000693238
17 *90:14 *180:8 0.00263519
*RES
1 *531:X *180:6 40 
2 *180:6 *180:8 13.9462 
3 *180:8 *432:D 40.3193 
4 *180:8 *378:D 46.8804 
*END

*D_NET *181 0.00268844
*CONN
*I *425:D I *D sg13cmos5l_dfrbpq_1
*I *388:C I *D sg13cmos5l_nor4_2
*I *532:X O *D sg13cmos5l_dlygate4sd3_1
*CAP
1 *425:D 0
2 *388:C 0
3 *532:X 0.000218733
4 *181:22 0.0010212
5 *181:8 0.00123993
6 *181:22 *422:RESET_B 0.000208576
7 *181:22 *428:RESET_B 0
8 *181:22 *196:23 0
9 *388:B *181:22 0
10 *427:D *181:8 0
11 *18:24 *181:8 0
12 *114:12 *181:22 0
13 *119:21 *181:8 0
14 *119:21 *181:22 0
15 *148:14 *181:22 0
*RES
1 *532:X *181:8 22.2763 
2 *181:8 *181:22 49.0125 
3 *181:22 *388:C 20 
4 *181:8 *425:D 20 
*END

*D_NET *182 0.00891715
*CONN
*I *379:A I *D sg13cmos5l_nor4_2
*I *431:D I *D sg13cmos5l_dfrbpq_1
*I *533:X O *D sg13cmos5l_dlygate4sd3_1
*CAP
1 *379:A 0
2 *431:D 0
3 *533:X 0.00120058
4 *182:33 0.000509749
5 *182:25 0.0023017
6 *182:8 0.00299254
7 *182:25 *193:31 0
8 *182:25 *200:8 4.7813e-05
9 *381:B *182:25 0
10 *429:RESET_B *182:25 0.000144403
11 *523:A *182:25 0
12 *9:10 *182:8 0
13 *35:18 *182:33 0
14 *40:12 *182:33 0
15 *41:22 *182:25 0.000791319
16 *42:8 *182:25 0
17 *95:12 *182:8 0
18 *95:12 *182:25 0
19 *133:16 *182:25 0
20 *133:18 *182:25 0
21 *133:22 *182:25 0
22 *133:28 *182:25 0
23 *165:26 *182:25 0
24 *171:25 *182:25 0
25 *171:25 *182:33 0.000929035
*RES
1 *533:X *182:8 49.2494 
2 *182:8 *431:D 40 
3 *182:8 *182:25 37.4379 
4 *182:25 *182:33 46.5096 
5 *182:33 *379:A 20 
*END

*D_NET *183 0.00702013
*CONN
*I *457:D I *D sg13cmos5l_dfrbpq_1
*I *364:B I *D sg13cmos5l_xor2_1
*I *360:D I *D sg13cmos5l_nor4_2
*I *534:X O *D sg13cmos5l_dlygate4sd3_1
*CAP
1 *457:D 0.000751494
2 *364:B 0.000557902
3 *360:D 0.000199548
4 *534:X 0.00032324
5 *183:19 0.0013094
6 *183:10 0.000522788
7 *364:B *365:A 0
8 *364:B *189:14 0
9 *363:A *183:10 0.000274529
10 *367:B *364:B 0
11 *376:B *364:B 0
12 *55:20 *457:D 0
13 *70:8 *364:B 0.000287342
14 *70:8 *457:D 0.000340704
15 *72:16 *364:B 0
16 *72:16 *457:D 0
17 *76:8 *364:B 0.00108523
18 *76:8 *457:D 0.000371639
19 *91:15 *457:D 0
20 *137:27 *360:D 0.000337561
21 *137:27 *183:10 0.000208725
22 *160:12 *183:10 0.00017729
23 *170:8 *457:D 0
24 *176:36 *360:D 0.000272746
*RES
1 *534:X *183:10 23.5844 
2 *183:10 *360:D 22.266 
3 *183:10 *183:19 20 
4 *183:19 *364:B 48.0546 
5 *183:19 *457:D 48.4048 
*END

*D_NET *184 0.012864
*CONN
*I *378:C I *D sg13cmos5l_nor4_2
*I *382:A I *D sg13cmos5l_xor2_1
*I *435:D I *D sg13cmos5l_dfrbpq_1
*I *535:X O *D sg13cmos5l_dlygate4sd3_1
*CAP
1 *378:C 0
2 *382:A 0
3 *435:D 0
4 *535:X 9.2819e-05
5 *184:37 0.00150942
6 *184:33 0.002424
7 *184:14 0.00239286
8 *184:8 0.00157111
9 *184:33 *378:B 0.000112683
10 *184:37 *383:A 0
11 *184:37 *454:D 0.000958725
12 *184:37 *189:14 0.00145861
13 *184:37 *189:21 0.000265575
14 *184:37 *191:25 0
15 *378:D *184:33 0
16 *435:RESET_B *184:14 0
17 *454:RESET_B *184:37 0.000661801
18 *10:8 *184:8 0
19 *41:22 *184:14 0
20 *46:17 *184:33 0
21 *46:17 *184:37 0
22 *58:44 *184:8 0
23 *99:8 *184:14 0
24 *102:10 *184:33 0.000144861
25 *133:12 *184:14 0.000215108
26 *133:14 *184:14 0.000236081
27 *137:35 *184:37 0.000287672
28 *156:8 *184:33 7.52149e-05
29 *171:25 *184:14 0.000176426
30 *171:25 *184:33 0.000281017
*RES
1 *535:X *184:8 40.7519 
2 *184:8 *184:14 33.6475 
3 *184:14 *435:D 20 
4 *184:14 *184:33 49.5996 
5 *184:33 *184:37 38.1486 
6 *184:37 *382:A 40 
7 *184:33 *378:C 20 
*END

*D_NET *185 0.00611004
*CONN
*I *421:D I *D sg13cmos5l_dfrbpq_1
*I *392:A I *D sg13cmos5l_xnor2_1
*I *387:A I *D sg13cmos5l_nor4_2
*I *536:X O *D sg13cmos5l_dlygate4sd3_1
*CAP
1 *421:D 0.000203026
2 *392:A 0.000618538
3 *387:A 0.000153973
4 *536:X 0
5 *185:19 0.00149351
6 *185:4 0.000825916
7 *387:A *192:10 0
8 *387:A *195:10 0.000112426
9 *392:A *392:B 0.000112536
10 *392:A *206:33 0
11 *185:19 *195:10 0.000564075
12 *185:19 *206:33 0
13 *185:19 *206:45 0.000769609
14 *8:14 *392:A 0
15 *61:24 *421:D 0.000160701
16 *112:10 *185:19 0
17 *115:14 *392:A 0.000181192
18 *115:14 *185:19 0.000914543
19 *154:20 *392:A 0
*RES
1 *536:X *185:4 20 
2 *185:4 *387:A 21.5965 
3 *185:4 *185:19 28.6126 
4 *185:19 *392:A 45.7989 
5 *185:19 *421:D 41.9622 
*END

*D_NET *186 0.00535515
*CONN
*I *447:D I *D sg13cmos5l_dfrbpq_1
*I *369:C I *D sg13cmos5l_nor4_2
*I *373:A I *D sg13cmos5l_xor2_1
*I *537:X O *D sg13cmos5l_dlygate4sd3_1
*CAP
1 *447:D 0.000119869
2 *369:C 0
3 *373:A 0
4 *537:X 0.000147643
5 *186:18 0.00198714
6 *186:10 0.00208025
7 *186:8 0.000360623
8 *447:D *190:12 0
9 *447:D *198:10 0
10 *186:10 *190:12 0
11 *186:10 *198:10 0
12 *186:18 *369:A 0.000628823
13 *186:18 *373:B 0
14 *186:18 *190:12 0
15 *186:18 *198:10 0
16 *369:D *186:8 1.54008e-05
17 *369:D *186:18 0
18 *537:A *186:8 0
19 *32:16 *186:8 1.54008e-05
20 *55:8 *186:18 0
*RES
1 *537:X *186:8 41.4008 
2 *186:8 *186:10 0.8446 
3 *186:10 *186:18 32.2364 
4 *186:18 *373:A 20 
5 *186:10 *369:C 40 
6 *186:8 *447:D 41.0918 
*END

*D_NET *187 0.0157431
*CONN
*I *410:RESET_B I *D sg13cmos5l_dfrbpq_1
*I *405:RESET_B I *D sg13cmos5l_dfrbpq_1
*I *408:RESET_B I *D sg13cmos5l_dfrbpq_1
*I *409:RESET_B I *D sg13cmos5l_dfrbpq_1
*I *407:RESET_B I *D sg13cmos5l_dfrbpq_1
*I *406:RESET_B I *D sg13cmos5l_dfrbpq_1
*I *411:RESET_B I *D sg13cmos5l_dfrbpq_1
*I *404:B I *D sg13cmos5l_and2_1
*I *490:X O *D sg13cmos5l_buf_1
*CAP
1 *410:RESET_B 2.60565e-05
2 *405:RESET_B 0.000243122
3 *408:RESET_B 0
4 *409:RESET_B 0.000465637
5 *407:RESET_B 0
6 *406:RESET_B 0.000215171
7 *411:RESET_B 0
8 *404:B 0
9 *490:X 0
10 *187:93 0.000303591
11 *187:71 0.000315812
12 *187:48 0.000326625
13 *187:46 0.000939883
14 *187:42 0.000796976
15 *187:40 0.000786979
16 *187:31 0.000216443
17 *187:23 0.00145402
18 *187:12 0.0020422
19 *187:6 0.000952574
20 *406:RESET_B *406:D 0
21 *409:RESET_B *406:D 0
22 *409:RESET_B *194:10 0
23 *187:12 *391:A 0.000128991
24 *187:12 *196:12 0.000981739
25 *187:31 *401:A 0.000181608
26 *187:42 *195:14 0
27 *187:46 *195:14 0
28 *187:48 *406:D 0
29 *388:B *187:12 0
30 *397:B *187:23 0.000138595
31 *397:B *187:40 0.000208984
32 *405:D *405:RESET_B 0
33 *405:D *187:71 0
34 *406:CLK *406:RESET_B 0
35 *406:CLK *187:48 0
36 *407:D *406:RESET_B 0
37 *409:CLK *405:RESET_B 0
38 *409:CLK *409:RESET_B 0
39 *502:A *187:23 0.000499118
40 *544:A *409:RESET_B 0
41 *6:9 *409:RESET_B 0
42 *7:17 *187:42 0
43 *7:17 *187:46 0
44 *18:14 *187:31 4.78195e-05
45 *19:14 *187:23 0
46 *23:8 *187:93 0
47 *54:14 *405:RESET_B 0
48 *54:14 *409:RESET_B 0
49 *54:23 *409:RESET_B 0
50 *54:23 *187:48 0
51 *54:23 *187:71 0
52 *54:37 *405:RESET_B 0
53 *54:37 *409:RESET_B 0
54 *61:24 *406:RESET_B 0
55 *119:6 *187:23 0
56 *119:21 *187:23 0
57 *119:21 *187:31 0
58 *119:21 *187:93 0
59 *124:8 *187:31 0.000658895
60 *148:20 *187:12 0
61 *162:28 *410:RESET_B 4.77425e-05
62 *162:36 *187:42 0
63 *164:12 *187:12 0.000112535
64 *165:22 *187:12 0
65 *166:12 *187:93 0.00012816
66 *173:12 *187:23 0.000307035
67 *173:23 *187:23 0.000176577
68 *173:23 *187:46 0
69 *176:38 *187:12 0.00284773
70 *177:10 *187:12 0
71 *178:26 *410:RESET_B 4.77425e-05
72 *178:26 *187:93 0.000144701
*RES
1 *490:X *187:6 40 
2 *187:6 *187:12 35.4706 
3 *187:12 *404:B 20 
4 *187:12 *187:23 10.5369 
5 *187:23 *187:31 43.3887 
6 *187:31 *411:RESET_B 20 
7 *187:23 *187:40 21.4008 
8 *187:40 *187:42 3.811 
9 *187:42 *187:46 24.3054 
10 *187:46 *187:48 1.1845 
11 *187:48 *406:RESET_B 21.166 
12 *187:48 *407:RESET_B 20 
13 *187:46 *409:RESET_B 24.6453 
14 *187:42 *187:71 20.7519 
15 *187:71 *408:RESET_B 20 
16 *187:71 *405:RESET_B 22.266 
17 *187:40 *187:93 43.1518 
18 *187:93 *410:RESET_B 40.3193 
*END

*D_NET *188 0.00554204
*CONN
*I *396:C I *D sg13cmos5l_nor4_2
*I *400:A I *D sg13cmos5l_xor2_1
*I *411:D I *D sg13cmos5l_dfrbpq_1
*I *538:X O *D sg13cmos5l_dlygate4sd3_1
*CAP
1 *396:C 0.000196856
2 *400:A 0
3 *411:D 0.000372837
4 *538:X 0.000786277
5 *188:31 0.00113719
6 *188:8 0.00209945
7 *396:C *396:B 0
8 *396:D *396:C 0
9 *397:C *411:D 0
10 *397:C *188:8 0
11 *397:D *411:D 0.0002095
12 *403:B *188:8 0
13 *469:A *396:C 0
14 *515:A *188:31 0.000177032
15 *18:14 *396:C 0
16 *18:14 *188:31 0
17 *20:22 *188:31 0
18 *22:10 *188:31 0.000338213
19 *54:57 *188:31 0
20 *118:8 *411:D 0
21 *119:21 *396:C 0
22 *119:21 *411:D 0
23 *128:8 *188:8 0
24 *159:10 *188:8 0
25 *178:14 *188:31 4.77425e-05
26 *178:26 *411:D 0
27 *178:26 *188:31 0.000176953
*RES
1 *538:X *188:8 48.0134 
2 *188:8 *411:D 43.4505 
3 *188:8 *188:31 29.3833 
4 *188:31 *400:A 20 
5 *188:31 *396:C 22.6574 
*END

*D_NET *189 0.00939572
*CONN
*I *454:D I *D sg13cmos5l_dfrbpq_1
*I *360:C I *D sg13cmos5l_nor4_2
*I *364:A I *D sg13cmos5l_xor2_1
*I *539:X O *D sg13cmos5l_dlygate4sd3_1
*CAP
1 *454:D 0.000628142
2 *360:C 0.000357579
3 *364:A 0
4 *539:X 0.000440324
5 *189:21 0.00104793
6 *189:14 0.000928022
7 *189:8 0.00143056
8 *189:14 *365:A 0
9 *189:14 *200:14 0
10 *189:14 *201:12 0
11 *360:B *360:C 0.000273408
12 *360:B *189:14 5.30319e-05
13 *360:B *189:21 0.000234224
14 *364:B *189:14 0
15 *454:RESET_B *454:D 0
16 *455:D *189:8 1.54008e-05
17 *67:10 *189:8 7.94957e-05
18 *133:38 *189:8 0
19 *157:8 *189:14 0.000660641
20 *176:36 *360:C 0.000564042
21 *184:37 *454:D 0.000958725
22 *184:37 *189:14 0.00145861
23 *184:37 *189:21 0.000265575
*RES
1 *539:X *189:8 43.7801 
2 *189:8 *189:14 32.2879 
3 *189:14 *364:A 20 
4 *189:8 *189:21 1.339 
5 *189:21 *360:C 43.7801 
6 *189:21 *454:D 47.3851 
*END

*D_NET *190 0.00995663
*CONN
*I *374:B I *D sg13cmos5l_xnor2_1
*I *369:B I *D sg13cmos5l_nor4_2
*I *442:D I *D sg13cmos5l_dfrbpq_1
*I *540:X O *D sg13cmos5l_dlygate4sd3_1
*CAP
1 *374:B 0
2 *369:B 0.000110494
3 *442:D 0.000564074
4 *540:X 0.000736753
5 *190:48 0.00156986
6 *190:12 0.00139835
7 *190:10 0.0030304
8 *442:D *198:10 0
9 *190:10 *198:10 0
10 *190:12 *198:10 0
11 *190:48 *199:57 0.000793421
12 *369:D *369:B 0
13 *442:RESET_B *442:D 0
14 *447:D *190:12 0
15 *451:CLK *190:48 0
16 *470:A *190:48 0
17 *526:A *190:10 0
18 *537:A *369:B 0
19 *556:A *190:10 0.00024205
20 *7:17 *442:D 0
21 *7:17 *190:10 0
22 *7:17 *190:12 0
23 *38:14 *190:48 0
24 *49:6 *190:48 0
25 *49:13 *190:48 0
26 *57:30 *190:48 0
27 *57:34 *190:48 0
28 *57:44 *190:48 0.000175798
29 *86:8 *190:10 0
30 *136:34 *190:48 0
31 *136:49 *190:48 0.000208314
32 *142:12 *190:48 0
33 *146:29 *190:48 0.000467782
34 *146:39 *190:48 0.000208326
35 *154:8 *190:10 0.000450995
36 *174:12 *190:48 0
37 *186:10 *190:12 0
38 *186:18 *190:12 0
*RES
1 *540:X *190:10 47.313 
2 *190:10 *190:12 6.5302 
3 *190:12 *442:D 45.0264 
4 *190:12 *369:B 40.9682 
5 *190:10 *190:48 35.5849 
6 *190:48 *374:B 20 
*END

*D_NET *191 0.00695288
*CONN
*I *378:A I *D sg13cmos5l_nor4_2
*I *433:D I *D sg13cmos5l_dfrbpq_1
*I *383:A I *D sg13cmos5l_xnor2_1
*I *541:X O *D sg13cmos5l_dlygate4sd3_1
*CAP
1 *378:A 5.54938e-05
2 *433:D 0.000255339
3 *383:A 0.000781678
4 *541:X 0.000170212
5 *191:25 0.00186717
6 *191:10 0.00250823
7 *383:A *383:B 0.000274507
8 *433:D *378:B 0
9 *385:B *191:10 0
10 *454:RESET_B *191:25 0.000640032
11 *473:A *433:D 0
12 *510:A *191:10 0.000112048
13 *531:A *383:A 0
14 *43:8 *383:A 0
15 *43:8 *191:10 0
16 *46:17 *433:D 0
17 *97:10 *191:25 0
18 *137:35 *191:25 0.000288174
19 *184:37 *383:A 0
20 *184:37 *191:25 0
*RES
1 *541:X *191:10 41.5347 
2 *191:10 *383:A 47.313 
3 *191:10 *191:25 34.6878 
4 *191:25 *433:D 22.1836 
5 *191:25 *378:A 20.5356 
*END

*D_NET *192 0.00628879
*CONN
*I *387:B I *D sg13cmos5l_nor4_2
*I *418:D I *D sg13cmos5l_dfrbpq_1
*I *392:B I *D sg13cmos5l_xnor2_1
*I *542:X O *D sg13cmos5l_dlygate4sd3_1
*CAP
1 *387:B 0.000123191
2 *418:D 0.000301356
3 *392:B 0.000977844
4 *542:X 0.000198187
5 *192:14 0.00177979
6 *192:10 0.000821969
7 *387:B *387:C 0
8 *387:B *195:10 0
9 *392:B *417:RESET_B 0.000306729
10 *392:B *206:22 0
11 *392:B *206:33 0
12 *192:10 *195:10 8.00521e-05
13 *192:14 *196:23 0.000128576
14 *387:A *192:10 0
15 *392:A *392:B 0.000112536
16 *393:B *392:B 0
17 *417:D *392:B 0
18 *418:CLK *418:D 0
19 *420:D *392:B 0.0001127
20 *424:CLK *392:B 0
21 *15:14 *392:B 0
22 *15:14 *192:14 0
23 *53:24 *418:D 0
24 *61:34 *192:14 0
25 *125:20 *192:14 0.000878035
26 *151:18 *418:D 0.000467824
*RES
1 *542:X *192:10 22.163 
2 *192:10 *192:14 25.5414 
3 *192:14 *392:B 49.1052 
4 *192:14 *418:D 43.1312 
5 *192:10 *387:B 20.9682 
*END

*D_NET *193 0.0102365
*CONN
*I *378:B I *D sg13cmos5l_nor4_2
*I *430:D I *D sg13cmos5l_dfrbpq_1
*I *383:B I *D sg13cmos5l_xnor2_1
*I *543:X O *D sg13cmos5l_dlygate4sd3_1
*CAP
1 *378:B 0.000339153
2 *430:D 0
3 *383:B 0.000243416
4 *543:X 0
5 *193:31 0.000419911
6 *193:23 0.00176288
7 *193:6 0.00124723
8 *378:D *378:B 0
9 *383:A *383:B 0.000274507
10 *430:RESET_B *193:31 0
11 *433:RESET_B *378:B 0.000129453
12 *433:RESET_B *193:23 0.000209419
13 *433:D *378:B 0
14 *433:CLK *193:31 0.000144089
15 *10:14 *193:31 0.000394566
16 *41:22 *193:31 0
17 *43:8 *383:B 0.00027443
18 *52:30 *193:23 0
19 *52:41 *193:23 0
20 *90:14 *193:23 0
21 *92:12 *193:23 0.00263536
22 *95:12 *193:23 0
23 *96:8 *383:B 0
24 *96:8 *193:23 0
25 *133:38 *193:23 0
26 *137:89 *378:B 0
27 *176:36 *193:23 0.00204943
28 *180:8 *383:B 0
29 *180:8 *193:23 0
30 *182:25 *193:31 0
31 *184:33 *378:B 0.000112683
*RES
1 *543:X *193:6 40 
2 *193:6 *383:B 42.9252 
3 *193:6 *193:23 37.3246 
4 *193:23 *193:31 44.507 
5 *193:31 *430:D 20 
6 *193:23 *378:B 23.4814 
*END

*D_NET *194 0.00776614
*CONN
*I *396:B I *D sg13cmos5l_nor4_2
*I *401:B I *D sg13cmos5l_xnor2_1
*I *406:D I *D sg13cmos5l_dfrbpq_1
*I *544:X O *D sg13cmos5l_dlygate4sd3_1
*CAP
1 *396:B 0.000309905
2 *401:B 0.000304704
3 *406:D 0.000543434
4 *544:X 0.000246203
5 *194:27 0.0014557
6 *194:10 0.00163073
7 *396:C *396:B 0
8 *396:D *396:B 0.000209558
9 *396:D *401:B 0.000127966
10 *397:B *401:B 0.000273902
11 *406:RESET_B *406:D 0
12 *407:D *406:D 0.000161306
13 *409:RESET_B *406:D 0
14 *409:RESET_B *194:10 0
15 *475:A *194:10 0
16 *483:A *406:D 0
17 *501:A *406:D 0
18 *544:A *194:10 0.000166943
19 *48:11 *194:27 0
20 *54:10 *406:D 0
21 *54:10 *194:10 0
22 *54:10 *194:27 0.000719869
23 *54:57 *194:27 0.00141207
24 *61:24 *406:D 2.21754e-05
25 *125:12 *406:D 0
26 *162:28 *401:B 0.00018168
27 *187:48 *406:D 0
*RES
1 *544:X *194:10 22.7192 
2 *194:10 *406:D 25.0849 
3 *194:10 *194:27 49.7438 
4 *194:27 *401:B 23.1312 
5 *194:27 *396:B 23.296 
*END

*D_NET *195 0.00774604
*CONN
*I *401:A I *D sg13cmos5l_xnor2_1
*I *396:A I *D sg13cmos5l_nor4_2
*I *409:D I *D sg13cmos5l_dfrbpq_1
*I *545:X O *D sg13cmos5l_dlygate4sd3_1
*CAP
1 *401:A 0.000195609
2 *396:A 0.000168795
3 *409:D 0.000730975
4 *545:X 0.00121478
5 *195:20 0.00163797
6 *195:14 0.00128939
7 *195:10 0.00157036
8 *409:D *198:12 0
9 *195:10 *395:B 0
10 *387:A *195:10 0.000112426
11 *387:B *195:10 0
12 *405:D *195:10 0
13 *406:CLK *195:10 0
14 *468:A *195:10 0
15 *6:9 *409:D 0
16 *54:23 *195:10 0
17 *59:54 *195:10 0
18 *123:10 *195:10 0
19 *124:8 *401:A 0
20 *124:8 *195:14 0
21 *126:12 *396:A 0
22 *126:12 *409:D 0
23 *173:23 *195:14 0
24 *185:19 *195:10 0.000564075
25 *187:31 *401:A 0.000181608
26 *187:42 *195:14 0
27 *187:46 *195:14 0
28 *192:10 *195:10 8.00521e-05
*RES
1 *545:X *195:10 31.7438 
2 *195:10 *195:14 22.807 
3 *195:14 *195:20 45.7268 
4 *195:20 *409:D 47.7662 
5 *195:20 *396:A 41.5862 
6 *195:14 *401:A 42.0806 
*END

*D_NET *196 0.0088391
*CONN
*I *391:A I *D sg13cmos5l_xor2_1
*I *387:C I *D sg13cmos5l_nor4_2
*I *423:D I *D sg13cmos5l_dfrbpq_1
*I *546:X O *D sg13cmos5l_dlygate4sd3_1
*CAP
1 *391:A 0.000380078
2 *387:C 0.000148792
3 *423:D 0
4 *546:X 0
5 *196:23 0.00125018
6 *196:12 0.00146258
7 *196:6 0.000741269
8 *391:A *391:B 0
9 *387:B *387:C 0
10 *528:A *196:12 0
11 *528:A *196:23 0
12 *11:10 *387:C 0
13 *15:14 *196:23 0.00327207
14 *61:34 *387:C 8.73995e-05
15 *61:34 *196:23 0
16 *113:8 *196:23 0
17 *141:10 *391:A 4.77425e-05
18 *165:18 *196:12 0.000144993
19 *165:18 *196:23 6.46834e-05
20 *177:10 *196:12 0
21 *181:22 *196:23 0
22 *187:12 *391:A 0.000128991
23 *187:12 *196:12 0.000981739
24 *192:14 *196:23 0.000128576
*RES
1 *546:X *196:6 40 
2 *196:6 *196:12 25.5208 
3 *196:12 *423:D 20 
4 *196:12 *196:23 35.7178 
5 *196:23 *387:C 41.2334 
6 *196:6 *391:A 43.7801 
*END

*D_NET *197 0.00791428
*CONN
*I *459:D I *D sg13cmos5l_dfrbpq_1
*I *360:A I *D sg13cmos5l_nor4_2
*I *365:A I *D sg13cmos5l_xnor2_1
*I *547:X O *D sg13cmos5l_dlygate4sd3_1
*CAP
1 *459:D 0.000220509
2 *360:A 3.19182e-05
3 *365:A 0.000572985
4 *547:X 0.000123393
5 *197:14 0.00171823
6 *197:8 0.00145723
7 *365:A *201:12 4.78524e-05
8 *197:8 *200:14 0
9 *364:B *365:A 0
10 *453:D *360:A 4.78524e-05
11 *35:18 *365:A 0
12 *35:18 *197:8 0
13 *35:18 *197:14 0
14 *42:8 *459:D 0.000273562
15 *42:14 *365:A 0.000872771
16 *42:14 *197:14 0.00127733
17 *50:22 *197:14 0.000609183
18 *62:14 *365:A 0
19 *133:38 *360:A 0
20 *137:89 *459:D 0
21 *170:18 *197:14 0.000661472
22 *189:14 *365:A 0
*RES
1 *547:X *197:8 41.0918 
2 *197:8 *197:14 13.1325 
3 *197:14 *365:A 46.3551 
4 *197:14 *360:A 40.3193 
5 *197:8 *459:D 42.266 
*END

*D_NET *198 0.015777
*CONN
*I *414:RESET_B I *D sg13cmos5l_dfrbpq_1
*I *413:RESET_B I *D sg13cmos5l_dfrbpq_1
*I *412:RESET_B I *D sg13cmos5l_dfrbpq_1
*I *415:RESET_B I *D sg13cmos5l_dfrbpq_1
*I *416:RESET_B I *D sg13cmos5l_dfrbpq_1
*I *491:X O *D sg13cmos5l_buf_1
*CAP
1 *414:RESET_B 0.000135181
2 *413:RESET_B 0
3 *412:RESET_B 0
4 *415:RESET_B 0.000181394
5 *416:RESET_B 6.76135e-05
6 *491:X 0
7 *198:49 0.000168705
8 *198:29 0.00060128
9 *198:27 0.000842397
10 *198:25 0.000480621
11 *198:12 0.00162999
12 *198:10 0.00528549
13 *198:6 0.00381475
14 *409:D *198:12 0
15 *411:CLK *198:29 0
16 *413:D *198:29 0
17 *414:CLK *414:RESET_B 0
18 *415:CLK *415:RESET_B 0
19 *442:D *198:10 0
20 *447:D *198:10 0
21 *461:D *198:10 0
22 *462:RESET_B *198:10 0
23 *6:9 *198:12 0
24 *6:9 *198:25 0
25 *7:17 *198:10 0
26 *7:17 *198:49 0
27 *22:10 *414:RESET_B 0
28 *22:10 *198:27 0
29 *22:10 *198:29 0
30 *23:14 *415:RESET_B 0
31 *23:14 *198:29 0
32 *48:11 *198:10 0
33 *48:11 *198:12 0
34 *48:38 *198:12 0
35 *54:10 *198:10 0
36 *56:8 *198:10 0
37 *56:12 *198:10 0
38 *56:36 *198:10 0
39 *60:27 *198:27 0
40 *60:27 *198:29 0
41 *60:47 *198:29 0
42 *75:14 *198:10 0.00172784
43 *78:12 *198:10 0
44 *80:8 *198:10 0
45 *86:8 *198:10 0
46 *136:49 *198:10 0
47 *137:83 *198:10 0
48 *163:12 *198:10 0
49 *166:12 *198:49 0.000394566
50 *178:10 *198:12 0.000234224
51 *178:10 *198:25 0.000212958
52 *178:26 *198:12 0
53 *186:10 *198:10 0
54 *186:18 *198:10 0
55 *190:10 *198:10 0
56 *190:12 *198:10 0
*RES
1 *491:X *198:6 40 
2 *198:6 *198:10 44.1767 
3 *198:10 *198:12 13.9462 
4 *198:12 *416:RESET_B 40.7519 
5 *198:12 *198:25 21.0918 
6 *198:25 *198:27 2.6106 
7 *198:27 *198:29 4.2127 
8 *198:29 *415:RESET_B 21.8334 
9 *198:29 *412:RESET_B 20 
10 *198:27 *198:49 42.1527 
11 *198:49 *413:RESET_B 20 
12 *198:25 *414:RESET_B 21.0965 
*END

*D_NET *199 0.0148013
*CONN
*I *445:D I *D sg13cmos5l_dfrbpq_1
*I *374:A I *D sg13cmos5l_xnor2_1
*I *369:A I *D sg13cmos5l_nor4_2
*I *548:X O *D sg13cmos5l_dlygate4sd3_1
*CAP
1 *445:D 0
2 *374:A 0
3 *369:A 0.000453745
4 *548:X 0.000539679
5 *199:57 0.00194101
6 *199:24 0.00256003
7 *199:18 0.000196189
8 *199:14 0.000570594
9 *369:D *369:A 0
10 *370:A *369:A 4.77425e-05
11 *371:C *199:57 0
12 *377:A *369:A 0
13 *444:RESET_B *199:24 0
14 *466:A *369:A 0
15 *497:A *199:57 0
16 *537:A *369:A 0
17 *548:A *199:14 0
18 *44:50 *199:14 0
19 *45:13 *199:57 0
20 *49:6 *199:57 0
21 *49:13 *199:57 0
22 *55:12 *199:14 0.00156749
23 *55:12 *199:24 0.000659725
24 *55:12 *199:57 0.00012816
25 *81:18 *199:14 4.78556e-05
26 *136:25 *199:57 0.000305692
27 *143:14 *199:14 0.000176925
28 *143:37 *199:57 0
29 *146:29 *199:57 0.00043544
30 *156:26 *199:57 0.000191774
31 *158:10 *199:57 0.000241127
32 *169:8 *199:14 0.000128248
33 *169:25 *199:14 0.00133318
34 *169:25 *199:57 0
35 *174:12 *199:57 0.00114116
36 *175:14 *199:57 0
37 *179:10 *199:14 0
38 *179:25 *199:24 0.000660226
39 *179:25 *199:57 5.30319e-05
40 *186:18 *369:A 0.000628823
41 *190:48 *199:57 0.000793421
*RES
1 *548:X *199:14 49.8056 
2 *199:14 *199:18 20.3193 
3 *199:18 *199:24 23.3887 
4 *199:24 *369:A 44.5629 
5 *199:24 *199:57 41.8875 
6 *199:57 *374:A 20 
7 *199:18 *445:D 20 
*END

*D_NET *200 0.0074243
*CONN
*I *382:B I *D sg13cmos5l_xor2_1
*I *549:X O *D sg13cmos5l_dlygate4sd3_1
*CAP
1 *382:B 0
2 *549:X 8.53905e-05
3 *200:14 0.0019076
4 *200:8 0.00199299
5 *200:14 *201:12 0.00334277
6 *385:B *200:14 0
7 *459:CLK *200:14 0
8 *40:12 *200:14 0
9 *42:8 *200:8 0
10 *42:14 *200:14 0
11 *43:8 *200:14 4.77425e-05
12 *68:12 *200:14 0
13 *182:25 *200:8 4.7813e-05
14 *189:14 *200:14 0
15 *197:8 *200:14 0
*RES
1 *549:X *200:8 40.7519 
2 *200:8 *200:14 43.0102 
3 *200:14 *382:B 20 
*END

*D_NET *201 0.00786673
*CONN
*I *365:B I *D sg13cmos5l_xnor2_1
*I *550:X O *D sg13cmos5l_dlygate4sd3_1
*CAP
1 *365:B 0
2 *550:X 0
3 *201:12 0.000762566
4 *201:6 0.000762566
5 *365:A *201:12 4.78524e-05
6 *366:B *201:12 0
7 *42:14 *201:12 0.00295098
8 *189:14 *201:12 0
9 *200:14 *201:12 0.00334277
*RES
1 *550:X *201:6 40 
2 *201:6 *201:12 36.1813 
3 *201:12 *365:B 20 
*END

*D_NET *202 0.00318021
*CONN
*I *400:B I *D sg13cmos5l_xor2_1
*I *551:X O *D sg13cmos5l_dlygate4sd3_1
*CAP
1 *400:B 0.000333232
2 *551:X 0.00049986
3 *202:8 0.000833093
4 *551:A *202:8 0
5 *7:15 *202:8 0.000434902
6 *60:27 *202:8 0
7 *60:47 *202:8 1.54008e-05
8 *126:12 *400:B 0
9 *131:16 *202:8 0
10 *141:25 *400:B 0.000821812
11 *165:18 *202:8 0.000241908
*RES
1 *551:X *202:8 45.2942 
2 *202:8 *400:B 44.7998 
*END

*D_NET *203 0.00156454
*CONN
*I *391:B I *D sg13cmos5l_xor2_1
*I *552:X O *D sg13cmos5l_dlygate4sd3_1
*CAP
1 *391:B 0.000556433
2 *552:X 0.000556433
3 *391:A *391:B 0
4 *15:8 *391:B 0.000144767
5 *130:10 *391:B 0.000306903
6 *141:10 *391:B 0
*RES
1 *552:X *391:B 46.2212 
*END

*D_NET *204 0.0021592
*CONN
*I *373:B I *D sg13cmos5l_xor2_1
*I *553:X O *D sg13cmos5l_dlygate4sd3_1
*CAP
1 *373:B 0.000741714
2 *553:X 0.000741714
3 *369:D *373:B 0.000466138
4 *476:A *373:B 0
5 *33:10 *373:B 0
6 *36:10 *373:B 0.000209637
7 *49:19 *373:B 0
8 *186:18 *373:B 0
*RES
1 *553:X *373:B 48.0443 
*END

*D_NET *205 0.016653
*CONN
*I *420:RESET_B I *D sg13cmos5l_dfrbpq_1
*I *417:RESET_B I *D sg13cmos5l_dfrbpq_1
*I *423:RESET_B I *D sg13cmos5l_dfrbpq_1
*I *422:RESET_B I *D sg13cmos5l_dfrbpq_1
*I *395:B I *D sg13cmos5l_and2_1
*I *421:RESET_B I *D sg13cmos5l_dfrbpq_1
*I *419:RESET_B I *D sg13cmos5l_dfrbpq_1
*I *418:RESET_B I *D sg13cmos5l_dfrbpq_1
*I *492:X O *D sg13cmos5l_buf_1
*CAP
1 *420:RESET_B 2.96829e-05
2 *417:RESET_B 0.000235059
3 *423:RESET_B 0.000572333
4 *422:RESET_B 0.000117806
5 *395:B 8.46857e-05
6 *421:RESET_B 0.000284271
7 *419:RESET_B 0
8 *418:RESET_B 5.62949e-05
9 *492:X 0.00026747
10 *205:84 0.000750026
11 *205:56 0.00130412
12 *205:45 0.000794427
13 *205:34 0.000451363
14 *205:30 0.000897341
15 *205:23 0.000619695
16 *205:8 0.000602736
17 *387:D *417:RESET_B 0
18 *387:D *205:30 0
19 *387:D *205:34 0.000181608
20 *387:D *205:45 0.000234224
21 *387:D *205:84 0
22 *392:B *417:RESET_B 0.000306729
23 *393:B *417:RESET_B 0.000306569
24 *393:B *420:RESET_B 4.77537e-05
25 *395:A *395:B 1.54008e-05
26 *402:B *423:RESET_B 0.000608855
27 *418:CLK *205:23 0
28 *428:CLK *423:RESET_B 0
29 *468:A *395:B 0
30 *11:10 *205:30 0
31 *47:15 *205:56 0
32 *47:15 *205:84 0
33 *53:22 *205:30 0
34 *53:22 *205:84 0
35 *53:24 *205:30 0
36 *59:25 *423:RESET_B 0
37 *61:24 *421:RESET_B 0
38 *61:24 *205:84 0.000128662
39 *61:34 *395:B 0.000145031
40 *61:34 *421:RESET_B 0
41 *106:10 *205:23 0
42 *106:10 *205:30 0
43 *111:10 *205:30 0
44 *111:10 *205:45 0.000234418
45 *111:10 *205:56 0.00080457
46 *112:20 *423:RESET_B 0.0004481
47 *112:20 *205:56 0.00124648
48 *148:14 *422:RESET_B 0.000208576
49 *148:20 *205:8 0.00108606
50 *148:20 *205:23 0.000394566
51 *151:18 *420:RESET_B 0
52 *164:27 *205:23 0
53 *165:18 *423:RESET_B 0
54 *165:22 *205:8 0.00129869
55 *165:22 *205:23 0.000372971
56 *168:10 *423:RESET_B 0.00107271
57 *168:10 *205:56 0.000235153
58 *176:38 *205:8 0
59 *181:22 *422:RESET_B 0.000208576
60 *195:10 *395:B 0
*RES
1 *492:X *205:8 46.0358 
2 *205:8 *418:RESET_B 40.5356 
3 *205:8 *205:23 23.6668 
4 *205:23 *419:RESET_B 20 
5 *205:23 *205:30 3.1312 
6 *205:30 *205:34 20.8446 
7 *205:34 *421:RESET_B 42.6986 
8 *205:34 *205:45 1.5862 
9 *205:45 *395:B 40.9682 
10 *205:45 *205:56 9.0022 
11 *205:56 *422:RESET_B 41.4008 
12 *205:56 *423:RESET_B 48.4404 
13 *205:30 *205:84 24.8101 
14 *205:84 *417:RESET_B 42.6471 
15 *205:84 *420:RESET_B 40.3193 
*END

*D_NET *206 0.0192848
*CONN
*I *426:RESET_B I *D sg13cmos5l_dfrbpq_1
*I *427:RESET_B I *D sg13cmos5l_dfrbpq_1
*I *428:RESET_B I *D sg13cmos5l_dfrbpq_1
*I *425:RESET_B I *D sg13cmos5l_dfrbpq_1
*I *424:RESET_B I *D sg13cmos5l_dfrbpq_1
*I *493:X O *D sg13cmos5l_buf_1
*CAP
1 *426:RESET_B 3.4268e-05
2 *427:RESET_B 0
3 *428:RESET_B 0.000656555
4 *425:RESET_B 4.72978e-05
5 *424:RESET_B 0
6 *493:X 0.000330665
7 *206:49 0.000949738
8 *206:45 0.00155095
9 *206:33 0.00227586
10 *206:22 0.00294246
11 *206:14 0.00232539
12 *206:8 0.000650125
13 *392:A *206:33 0
14 *392:B *206:22 0
15 *392:B *206:33 0
16 *417:D *206:22 7.9706e-05
17 *420:D *206:22 0
18 *424:D *206:22 0
19 *427:D *206:49 0
20 *428:CLK *428:RESET_B 0
21 *8:14 *206:33 0
22 *10:14 *206:22 0
23 *20:22 *425:RESET_B 0
24 *20:22 *206:45 0
25 *21:10 *206:45 0.000340704
26 *23:14 *428:RESET_B 0
27 *23:14 *206:45 0.000241088
28 *23:14 *206:49 0
29 *37:8 *206:22 0
30 *41:22 *206:8 0.00183482
31 *49:35 *206:33 0
32 *53:60 *206:33 0.000607525
33 *53:60 *206:45 0
34 *59:25 *428:RESET_B 0
35 *59:54 *206:45 0
36 *93:10 *206:22 0
37 *100:8 *206:22 0
38 *110:10 *206:22 0.000236081
39 *114:12 *428:RESET_B 0
40 *115:14 *206:45 0
41 *117:8 *206:45 0.000660642
42 *123:10 *206:45 0
43 *142:12 *206:22 0.000446352
44 *146:39 *206:22 0.000128353
45 *148:14 *428:RESET_B 0
46 *151:8 *206:45 0
47 *154:20 *206:33 0
48 *165:26 *206:8 0.00183532
49 *173:8 *206:45 0.000341292
50 *176:38 *206:22 0
51 *181:22 *428:RESET_B 0
52 *185:19 *206:33 0
53 *185:19 *206:45 0.000769609
*RES
1 *493:X *206:8 48.5078 
2 *206:8 *206:14 42.9149 
3 *206:14 *206:22 39.3393 
4 *206:22 *424:RESET_B 20 
5 *206:22 *206:33 27.9031 
6 *206:33 *206:45 34.8217 
7 *206:45 *206:49 2.1836 
8 *206:49 *425:RESET_B 20.5974 
9 *206:49 *428:RESET_B 25.7018 
10 *206:45 *427:RESET_B 20 
11 *206:33 *426:RESET_B 40.3193 
*END
