*SPEF "ieee 1481-1999"
*DESIGN "d_ro_tapped"
*DATE "22:08:23 Thursday October 01, 2026"
*VENDOR "The OpenROAD Project"
*PROGRAM "OpenROAD"
*VERSION "dcf36133a369abc8f3c5e5738cd4d82e4903c0e0"
*DESIGN_FLOW "NAME_SCOPE LOCAL" "PIN_CAP NONE"
*DIVIDER /
*DELIMITER :
*BUS_DELIMITER []
*T_UNIT 1 NS
*C_UNIT 1 PF
*R_UNIT 1 OHM
*L_UNIT 1 HENRY

*NAME_MAP
*3 enable
*4 ffsel[0]
*5 ffsel[1]
*6 invsel[0]
*7 invsel[1]
*8 invsel[2]
*9 invsel[3]
*10 invsel[4]
*11 osc
*12 _00_
*13 _01_
*14 _02_
*15 _03_
*16 _04_
*17 _05_
*18 _06_
*19 _07_
*20 _08_
*21 _09_
*22 _10_
*23 _11_
*24 _12_
*25 _13_
*26 _14_
*27 _15_
*28 _16_
*29 _17_
*30 _18_
*31 _19_
*32 _20_
*33 _21_
*34 _22_
*35 _23_
*36 _24_
*37 _25_
*38 _26_
*39 _27_
*40 _28_
*41 _29_
*42 _30_
*43 _31_
*44 _32_
*45 _33_
*46 _34_
*47 _35_
*48 _36_
*49 _37_
*50 _38_
*51 _39_
*52 _40_
*53 ff_wire\[0\]
*54 ff_wire\[1\]
*55 ff_wire\[2\]
*56 ff_wire\[3\]
*57 inv_wire\[0\]
*58 inv_wire\[100\]
*59 inv_wire\[101\]
*60 inv_wire\[102\]
*61 inv_wire\[103\]
*62 inv_wire\[104\]
*63 inv_wire\[105\]
*64 inv_wire\[106\]
*65 inv_wire\[107\]
*66 inv_wire\[108\]
*67 inv_wire\[109\]
*68 inv_wire\[10\]
*69 inv_wire\[110\]
*70 inv_wire\[111\]
*71 inv_wire\[112\]
*72 inv_wire\[113\]
*73 inv_wire\[114\]
*74 inv_wire\[115\]
*75 inv_wire\[116\]
*76 inv_wire\[117\]
*77 inv_wire\[118\]
*78 inv_wire\[119\]
*79 inv_wire\[11\]
*80 inv_wire\[120\]
*81 inv_wire\[121\]
*82 inv_wire\[122\]
*83 inv_wire\[123\]
*84 inv_wire\[124\]
*85 inv_wire\[125\]
*86 inv_wire\[126\]
*87 inv_wire\[127\]
*88 inv_wire\[128\]
*89 inv_wire\[129\]
*90 inv_wire\[12\]
*91 inv_wire\[130\]
*92 inv_wire\[131\]
*93 inv_wire\[132\]
*94 inv_wire\[133\]
*95 inv_wire\[134\]
*96 inv_wire\[135\]
*97 inv_wire\[136\]
*98 inv_wire\[137\]
*99 inv_wire\[138\]
*100 inv_wire\[139\]
*101 inv_wire\[13\]
*102 inv_wire\[14\]
*103 inv_wire\[15\]
*104 inv_wire\[16\]
*105 inv_wire\[17\]
*106 inv_wire\[18\]
*107 inv_wire\[19\]
*108 inv_wire\[1\]
*109 inv_wire\[20\]
*110 inv_wire\[21\]
*111 inv_wire\[22\]
*112 inv_wire\[23\]
*113 inv_wire\[24\]
*114 inv_wire\[25\]
*115 inv_wire\[26\]
*116 inv_wire\[27\]
*117 inv_wire\[28\]
*118 inv_wire\[29\]
*119 inv_wire\[2\]
*120 inv_wire\[30\]
*121 inv_wire\[31\]
*122 inv_wire\[32\]
*123 inv_wire\[33\]
*124 inv_wire\[34\]
*125 inv_wire\[35\]
*126 inv_wire\[36\]
*127 inv_wire\[37\]
*128 inv_wire\[38\]
*129 inv_wire\[39\]
*130 inv_wire\[3\]
*131 inv_wire\[40\]
*132 inv_wire\[41\]
*133 inv_wire\[42\]
*134 inv_wire\[43\]
*135 inv_wire\[44\]
*136 inv_wire\[45\]
*137 inv_wire\[46\]
*138 inv_wire\[47\]
*139 inv_wire\[48\]
*140 inv_wire\[49\]
*141 inv_wire\[4\]
*142 inv_wire\[50\]
*143 inv_wire\[51\]
*144 inv_wire\[52\]
*145 inv_wire\[53\]
*146 inv_wire\[54\]
*147 inv_wire\[55\]
*148 inv_wire\[56\]
*149 inv_wire\[57\]
*150 inv_wire\[58\]
*151 inv_wire\[59\]
*152 inv_wire\[5\]
*153 inv_wire\[60\]
*154 inv_wire\[61\]
*155 inv_wire\[62\]
*156 inv_wire\[63\]
*157 inv_wire\[64\]
*158 inv_wire\[65\]
*159 inv_wire\[66\]
*160 inv_wire\[67\]
*161 inv_wire\[68\]
*162 inv_wire\[69\]
*163 inv_wire\[6\]
*164 inv_wire\[70\]
*165 inv_wire\[71\]
*166 inv_wire\[72\]
*167 inv_wire\[73\]
*168 inv_wire\[74\]
*169 inv_wire\[75\]
*170 inv_wire\[76\]
*171 inv_wire\[77\]
*172 inv_wire\[78\]
*173 inv_wire\[79\]
*174 inv_wire\[7\]
*175 inv_wire\[80\]
*176 inv_wire\[81\]
*177 inv_wire\[82\]
*178 inv_wire\[83\]
*179 inv_wire\[84\]
*180 inv_wire\[85\]
*181 inv_wire\[86\]
*182 inv_wire\[87\]
*183 inv_wire\[88\]
*184 inv_wire\[89\]
*185 inv_wire\[8\]
*186 inv_wire\[90\]
*187 inv_wire\[91\]
*188 inv_wire\[92\]
*189 inv_wire\[93\]
*190 inv_wire\[94\]
*191 inv_wire\[95\]
*192 inv_wire\[96\]
*193 inv_wire\[97\]
*194 inv_wire\[98\]
*195 inv_wire\[99\]
*196 inv_wire\[9\]
*197 net1
*198 net10
*199 net11
*200 net12
*201 net13
*202 net2
*203 net3
*204 net4
*205 net5
*206 net6
*207 net7
*208 net8
*209 net9
*210 FILLER_0_0
*211 FILLER_0_105
*212 FILLER_0_112
*213 FILLER_0_119
*214 FILLER_0_126
*215 FILLER_0_133
*216 FILLER_0_14
*217 FILLER_0_140
*218 FILLER_0_147
*219 FILLER_0_154
*220 FILLER_0_161
*221 FILLER_0_168
*222 FILLER_0_175
*223 FILLER_0_182
*224 FILLER_0_189
*225 FILLER_0_191
*226 FILLER_0_21
*227 FILLER_0_28
*228 FILLER_0_35
*229 FILLER_0_42
*230 FILLER_0_49
*231 FILLER_0_56
*232 FILLER_0_63
*233 FILLER_0_7
*234 FILLER_0_70
*235 FILLER_0_77
*236 FILLER_0_84
*237 FILLER_0_91
*238 FILLER_0_98
*239 FILLER_10_118
*240 FILLER_10_125
*241 FILLER_10_127
*242 FILLER_10_131
*243 FILLER_10_147
*244 FILLER_10_154
*245 FILLER_10_161
*246 FILLER_10_168
*247 FILLER_10_175
*248 FILLER_10_18
*249 FILLER_10_182
*250 FILLER_10_189
*251 FILLER_10_191
*252 FILLER_10_22
*253 FILLER_10_27
*254 FILLER_10_4
*255 FILLER_10_65
*256 FILLER_10_67
*257 FILLER_10_71
*258 FILLER_10_84
*259 FILLER_10_91
*260 FILLER_11_102
*261 FILLER_11_104
*262 FILLER_11_108
*263 FILLER_11_110
*264 FILLER_11_116
*265 FILLER_11_122
*266 FILLER_11_126
*267 FILLER_11_131
*268 FILLER_11_135
*269 FILLER_11_144
*270 FILLER_11_151
*271 FILLER_11_158
*272 FILLER_11_165
*273 FILLER_11_17
*274 FILLER_11_172
*275 FILLER_11_179
*276 FILLER_11_186
*277 FILLER_11_190
*278 FILLER_11_27
*279 FILLER_11_31
*280 FILLER_11_35
*281 FILLER_11_4
*282 FILLER_11_55
*283 FILLER_11_62
*284 FILLER_11_67
*285 FILLER_11_72
*286 FILLER_11_76
*287 FILLER_11_83
*288 FILLER_11_87
*289 FILLER_11_91
*290 FILLER_11_98
*291 FILLER_12_102
*292 FILLER_12_121
*293 FILLER_12_131
*294 FILLER_12_135
*295 FILLER_12_142
*296 FILLER_12_149
*297 FILLER_12_156
*298 FILLER_12_163
*299 FILLER_12_170
*300 FILLER_12_177
*301 FILLER_12_18
*302 FILLER_12_184
*303 FILLER_12_191
*304 FILLER_12_22
*305 FILLER_12_27
*306 FILLER_12_4
*307 FILLER_12_56
*308 FILLER_12_67
*309 FILLER_12_74
*310 FILLER_12_81
*311 FILLER_12_88
*312 FILLER_12_95
*313 FILLER_1_102
*314 FILLER_1_109
*315 FILLER_1_11
*316 FILLER_1_116
*317 FILLER_1_123
*318 FILLER_1_130
*319 FILLER_1_137
*320 FILLER_1_144
*321 FILLER_1_151
*322 FILLER_1_158
*323 FILLER_1_165
*324 FILLER_1_172
*325 FILLER_1_179
*326 FILLER_1_18
*327 FILLER_1_186
*328 FILLER_1_190
*329 FILLER_1_25
*330 FILLER_1_32
*331 FILLER_1_39
*332 FILLER_1_4
*333 FILLER_1_46
*334 FILLER_1_53
*335 FILLER_1_60
*336 FILLER_1_67
*337 FILLER_1_74
*338 FILLER_1_81
*339 FILLER_1_88
*340 FILLER_1_95
*341 FILLER_2_104
*342 FILLER_2_11
*343 FILLER_2_111
*344 FILLER_2_118
*345 FILLER_2_125
*346 FILLER_2_132
*347 FILLER_2_139
*348 FILLER_2_146
*349 FILLER_2_153
*350 FILLER_2_160
*351 FILLER_2_167
*352 FILLER_2_174
*353 FILLER_2_18
*354 FILLER_2_181
*355 FILLER_2_188
*356 FILLER_2_25
*357 FILLER_2_32
*358 FILLER_2_39
*359 FILLER_2_4
*360 FILLER_2_46
*361 FILLER_2_53
*362 FILLER_2_62
*363 FILLER_2_69
*364 FILLER_2_76
*365 FILLER_2_83
*366 FILLER_2_90
*367 FILLER_2_97
*368 FILLER_3_0
*369 FILLER_3_104
*370 FILLER_3_111
*371 FILLER_3_118
*372 FILLER_3_125
*373 FILLER_3_132
*374 FILLER_3_139
*375 FILLER_3_14
*376 FILLER_3_146
*377 FILLER_3_153
*378 FILLER_3_160
*379 FILLER_3_167
*380 FILLER_3_174
*381 FILLER_3_181
*382 FILLER_3_188
*383 FILLER_3_21
*384 FILLER_3_28
*385 FILLER_3_7
*386 FILLER_3_90
*387 FILLER_3_97
*388 FILLER_4_103
*389 FILLER_4_110
*390 FILLER_4_12
*391 FILLER_4_120
*392 FILLER_4_127
*393 FILLER_4_134
*394 FILLER_4_141
*395 FILLER_4_148
*396 FILLER_4_155
*397 FILLER_4_162
*398 FILLER_4_169
*399 FILLER_4_176
*400 FILLER_4_183
*401 FILLER_4_19
*402 FILLER_4_190
*403 FILLER_4_23
*404 FILLER_4_27
*405 FILLER_4_31
*406 FILLER_4_4
*407 FILLER_4_64
*408 FILLER_4_71
*409 FILLER_4_77
*410 FILLER_4_8
*411 FILLER_4_84
*412 FILLER_4_91
*413 FILLER_4_96
*414 FILLER_5_0
*415 FILLER_5_105
*416 FILLER_5_122
*417 FILLER_5_126
*418 FILLER_5_131
*419 FILLER_5_135
*420 FILLER_5_151
*421 FILLER_5_158
*422 FILLER_5_165
*423 FILLER_5_172
*424 FILLER_5_179
*425 FILLER_5_18
*426 FILLER_5_186
*427 FILLER_5_190
*428 FILLER_5_2
*429 FILLER_5_22
*430 FILLER_5_27
*431 FILLER_5_31
*432 FILLER_5_45
*433 FILLER_5_50
*434 FILLER_5_54
*435 FILLER_5_61
*436 FILLER_5_70
*437 FILLER_5_80
*438 FILLER_6_107
*439 FILLER_6_114
*440 FILLER_6_122
*441 FILLER_6_129
*442 FILLER_6_136
*443 FILLER_6_150
*444 FILLER_6_157
*445 FILLER_6_165
*446 FILLER_6_17
*447 FILLER_6_172
*448 FILLER_6_179
*449 FILLER_6_186
*450 FILLER_6_190
*451 FILLER_6_27
*452 FILLER_6_31
*453 FILLER_6_4
*454 FILLER_6_50
*455 FILLER_6_62
*456 FILLER_6_64
*457 FILLER_6_68
*458 FILLER_6_70
*459 FILLER_6_77
*460 FILLER_6_81
*461 FILLER_6_85
*462 FILLER_6_87
*463 FILLER_6_94
*464 FILLER_6_96
*465 FILLER_7_0
*466 FILLER_7_122
*467 FILLER_7_129
*468 FILLER_7_136
*469 FILLER_7_156
*470 FILLER_7_158
*471 FILLER_7_171
*472 FILLER_7_178
*473 FILLER_7_18
*474 FILLER_7_185
*475 FILLER_7_187
*476 FILLER_7_22
*477 FILLER_7_27
*478 FILLER_7_31
*479 FILLER_7_56
*480 FILLER_7_63
*481 FILLER_7_72
*482 FILLER_7_85
*483 FILLER_7_92
*484 FILLER_7_96
*485 FILLER_8_100
*486 FILLER_8_105
*487 FILLER_8_118
*488 FILLER_8_122
*489 FILLER_8_126
*490 FILLER_8_131
*491 FILLER_8_135
*492 FILLER_8_148
*493 FILLER_8_155
*494 FILLER_8_162
*495 FILLER_8_169
*496 FILLER_8_176
*497 FILLER_8_18
*498 FILLER_8_183
*499 FILLER_8_190
*500 FILLER_8_22
*501 FILLER_8_27
*502 FILLER_8_42
*503 FILLER_8_49
*504 FILLER_8_58
*505 FILLER_8_72
*506 FILLER_8_79
*507 FILLER_8_92
*508 FILLER_8_96
*509 FILLER_9_0
*510 FILLER_9_104
*511 FILLER_9_113
*512 FILLER_9_122
*513 FILLER_9_129
*514 FILLER_9_14
*515 FILLER_9_141
*516 FILLER_9_152
*517 FILLER_9_159
*518 FILLER_9_166
*519 FILLER_9_173
*520 FILLER_9_18
*521 FILLER_9_180
*522 FILLER_9_187
*523 FILLER_9_191
*524 FILLER_9_22
*525 FILLER_9_26
*526 FILLER_9_39
*527 FILLER_9_46
*528 FILLER_9_53
*529 FILLER_9_57
*530 FILLER_9_63
*531 FILLER_9_70
*532 FILLER_9_77
*533 FILLER_9_90
*534 FILLER_9_97
*535 _41_
*536 _42_
*537 _43_
*538 _44_
*539 _45_
*540 _46_
*541 _47_
*542 _48_
*543 _49_
*544 _50_
*545 _51_
*546 _52_
*547 _53_
*548 _54_
*549 _55_
*550 _56_
*551 _57_
*552 _58_
*553 _59_
*554 _60_
*555 _61_
*556 _62_
*557 _63_
*558 _64_
*559 _65_
*560 _66_
*561 _67_
*562 _68_
*563 _69_
*564 _70_
*565 _71_
*566 _72_
*567 _73_
*568 _74_
*569 _75_
*570 _76_
*571 _77_
*572 _78_
*573 _79_
*574 _80_
*575 _81_
*576 _82_
*577 _83_
*578 _84_
*579 fanout10
*580 fanout11
*581 fanout12
*582 fanout13
*583 genblk3\[0\]\.i_inv
*584 genblk3\[100\]\.i_inv
*585 genblk3\[101\]\.i_inv
*586 genblk3\[102\]\.i_inv
*587 genblk3\[103\]\.i_inv
*588 genblk3\[104\]\.i_inv
*589 genblk3\[105\]\.i_inv
*590 genblk3\[106\]\.i_inv
*591 genblk3\[107\]\.i_inv
*592 genblk3\[108\]\.i_inv
*593 genblk3\[109\]\.i_inv
*594 genblk3\[10\]\.i_inv
*595 genblk3\[110\]\.i_inv
*596 genblk3\[111\]\.i_inv
*597 genblk3\[112\]\.i_inv
*598 genblk3\[113\]\.i_inv
*599 genblk3\[114\]\.i_inv
*600 genblk3\[115\]\.i_inv
*601 genblk3\[116\]\.i_inv
*602 genblk3\[117\]\.i_inv
*603 genblk3\[118\]\.i_inv
*604 genblk3\[119\]\.i_inv
*605 genblk3\[11\]\.i_inv
*606 genblk3\[120\]\.i_inv
*607 genblk3\[121\]\.i_inv
*608 genblk3\[122\]\.i_inv
*609 genblk3\[123\]\.i_inv
*610 genblk3\[124\]\.i_inv
*611 genblk3\[125\]\.i_inv
*612 genblk3\[126\]\.i_inv
*613 genblk3\[127\]\.i_inv
*614 genblk3\[128\]\.i_inv
*615 genblk3\[129\]\.i_inv
*616 genblk3\[12\]\.i_inv
*617 genblk3\[130\]\.i_inv
*618 genblk3\[131\]\.i_inv
*619 genblk3\[132\]\.i_inv
*620 genblk3\[133\]\.i_inv
*621 genblk3\[134\]\.i_inv
*622 genblk3\[135\]\.i_inv
*623 genblk3\[136\]\.i_inv
*624 genblk3\[137\]\.i_inv
*625 genblk3\[138\]\.i_inv
*626 genblk3\[13\]\.i_inv
*627 genblk3\[14\]\.i_inv
*628 genblk3\[15\]\.i_inv
*629 genblk3\[16\]\.i_inv
*630 genblk3\[17\]\.i_inv
*631 genblk3\[18\]\.i_inv
*632 genblk3\[19\]\.i_inv
*633 genblk3\[1\]\.i_inv
*634 genblk3\[20\]\.i_inv
*635 genblk3\[21\]\.i_inv
*636 genblk3\[22\]\.i_inv
*637 genblk3\[23\]\.i_inv
*638 genblk3\[24\]\.i_inv
*639 genblk3\[25\]\.i_inv
*640 genblk3\[26\]\.i_inv
*641 genblk3\[27\]\.i_inv
*642 genblk3\[28\]\.i_inv
*643 genblk3\[29\]\.i_inv
*644 genblk3\[2\]\.i_inv
*645 genblk3\[30\]\.i_inv
*646 genblk3\[31\]\.i_inv
*647 genblk3\[32\]\.i_inv
*648 genblk3\[33\]\.i_inv
*649 genblk3\[34\]\.i_inv
*650 genblk3\[35\]\.i_inv
*651 genblk3\[36\]\.i_inv
*652 genblk3\[37\]\.i_inv
*653 genblk3\[38\]\.i_inv
*654 genblk3\[39\]\.i_inv
*655 genblk3\[3\]\.i_inv
*656 genblk3\[40\]\.i_inv
*657 genblk3\[41\]\.i_inv
*658 genblk3\[42\]\.i_inv
*659 genblk3\[43\]\.i_inv
*660 genblk3\[44\]\.i_inv
*661 genblk3\[45\]\.i_inv
*662 genblk3\[46\]\.i_inv
*663 genblk3\[47\]\.i_inv
*664 genblk3\[48\]\.i_inv
*665 genblk3\[49\]\.i_inv
*666 genblk3\[4\]\.i_inv
*667 genblk3\[50\]\.i_inv
*668 genblk3\[51\]\.i_inv
*669 genblk3\[52\]\.i_inv
*670 genblk3\[53\]\.i_inv
*671 genblk3\[54\]\.i_inv
*672 genblk3\[55\]\.i_inv
*673 genblk3\[56\]\.i_inv
*674 genblk3\[57\]\.i_inv
*675 genblk3\[58\]\.i_inv
*676 genblk3\[59\]\.i_inv
*677 genblk3\[5\]\.i_inv
*678 genblk3\[60\]\.i_inv
*679 genblk3\[61\]\.i_inv
*680 genblk3\[62\]\.i_inv
*681 genblk3\[63\]\.i_inv
*682 genblk3\[64\]\.i_inv
*683 genblk3\[65\]\.i_inv
*684 genblk3\[66\]\.i_inv
*685 genblk3\[67\]\.i_inv
*686 genblk3\[68\]\.i_inv
*687 genblk3\[69\]\.i_inv
*688 genblk3\[6\]\.i_inv
*689 genblk3\[70\]\.i_inv
*690 genblk3\[71\]\.i_inv
*691 genblk3\[72\]\.i_inv
*692 genblk3\[73\]\.i_inv
*693 genblk3\[74\]\.i_inv
*694 genblk3\[75\]\.i_inv
*695 genblk3\[76\]\.i_inv
*696 genblk3\[77\]\.i_inv
*697 genblk3\[78\]\.i_inv
*698 genblk3\[79\]\.i_inv
*699 genblk3\[7\]\.i_inv
*700 genblk3\[80\]\.i_inv
*701 genblk3\[81\]\.i_inv
*702 genblk3\[82\]\.i_inv
*703 genblk3\[83\]\.i_inv
*704 genblk3\[84\]\.i_inv
*705 genblk3\[85\]\.i_inv
*706 genblk3\[86\]\.i_inv
*707 genblk3\[87\]\.i_inv
*708 genblk3\[88\]\.i_inv
*709 genblk3\[89\]\.i_inv
*710 genblk3\[8\]\.i_inv
*711 genblk3\[90\]\.i_inv
*712 genblk3\[91\]\.i_inv
*713 genblk3\[92\]\.i_inv
*714 genblk3\[93\]\.i_inv
*715 genblk3\[94\]\.i_inv
*716 genblk3\[95\]\.i_inv
*717 genblk3\[96\]\.i_inv
*718 genblk3\[97\]\.i_inv
*719 genblk3\[98\]\.i_inv
*720 genblk3\[99\]\.i_inv
*721 genblk3\[9\]\.i_inv
*722 genblk4\[1\]\.i_ff
*723 genblk4\[2\]\.i_ff
*724 genblk4\[3\]\.i_ff
*725 input1
*726 input2
*727 input3
*728 input4
*729 input5
*730 input6
*731 input7
*732 input8
*733 output9

*PORTS
enable I
ffsel[0] I
ffsel[1] I
invsel[0] I
invsel[1] I
invsel[2] I
invsel[3] I
invsel[4] I
osc O

*D_NET *3 0.000586639
*CONN
*P enable I
*I *725:A I *D sg13cmos5l_buf_1
*CAP
1 enable 0.00029332
2 *725:A 0.00029332
*RES
1 enable *725:A 43.3578 
*END

*D_NET *4 0.000646749
*CONN
*P ffsel[0] I
*I *726:A I *D sg13cmos5l_buf_1
*CAP
1 ffsel[0] 0.000323374
2 *726:A 0.000323374
*RES
1 ffsel[0] *726:A 43.7904 
*END

*D_NET *5 0.000424442
*CONN
*P ffsel[1] I
*I *727:A I *D sg13cmos5l_buf_1
*CAP
1 ffsel[1] 0.000212221
2 *727:A 0.000212221
*RES
1 ffsel[1] *727:A 42.6986 
*END

*D_NET *6 0.00051354
*CONN
*P invsel[0] I
*I *728:A I *D sg13cmos5l_buf_1
*CAP
1 invsel[0] 0.00025677
2 *728:A 0.00025677
*RES
1 invsel[0] *728:A 43.0282 
*END

*D_NET *7 0.000727123
*CONN
*P invsel[1] I
*I *729:A I *D sg13cmos5l_buf_1
*CAP
1 invsel[1] 0.000275153
2 *729:A 0.000275153
3 *729:A *197:8 0.000176817
*RES
1 invsel[1] *729:A 43.3578 
*END

*D_NET *8 0.000863672
*CONN
*P invsel[2] I
*I *730:A I *D sg13cmos5l_buf_1
*CAP
1 invsel[2] 0.000310751
2 *730:A 0.000310751
3 *730:A *197:8 0.00024217
*RES
1 invsel[2] *730:A 43.7904 
*END

*D_NET *9 0.000996075
*CONN
*P invsel[3] I
*I *731:A I *D sg13cmos5l_buf_1
*CAP
1 invsel[3] 0.000344496
2 *731:A 0.000344496
3 *731:A *197:8 0.000307084
*RES
1 invsel[3] *731:A 44.223 
*END

*D_NET *10 0.0003797
*CONN
*P invsel[4] I
*I *732:A I *D sg13cmos5l_buf_1
*CAP
1 invsel[4] 0.00018985
2 *732:A 0.00018985
3 *732:A *646:A 0
*RES
1 invsel[4] *732:A 42.4926 
*END

*D_NET *11 0.000538179
*CONN
*P osc O
*I *733:X O *D sg13cmos5l_buf_1
*CAP
1 osc 0.000269089
2 *733:X 0.000269089
3 osc *733:A 0
*RES
1 *733:X osc 43.0282 
*END

*D_NET *12 0.00127692
*CONN
*I *539:A0 I *D sg13cmos5l_mux4_1
*I *535:X O *D sg13cmos5l_mux2_1
*CAP
1 *539:A0 0.000160287
2 *535:X 0.000269798
3 *12:8 0.000430085
4 *539:A0 *539:A2 0
5 *539:A0 *200:46 0
6 *12:8 *13:12 0
7 *12:8 *15:10 0
8 *12:8 *200:23 0.000341534
9 *12:8 *200:94 7.52158e-05
10 *12:8 *201:21 0
*RES
1 *535:X *12:8 43.3166 
2 *12:8 *539:A0 41.6171 
*END

*D_NET *13 0.00231117
*CONN
*I *539:A1 I *D sg13cmos5l_mux4_1
*I *536:X O *D sg13cmos5l_mux2_1
*CAP
1 *539:A1 0
2 *536:X 0.000535614
3 *13:12 0.000535614
4 *13:12 *538:S 0
5 *13:12 *610:A 0
6 *13:12 *15:10 0.00123994
7 *13:12 *200:94 0
8 *12:8 *13:12 0
*RES
1 *536:X *13:12 47.2924 
2 *13:12 *539:A1 40 
*END

*D_NET *14 0.00108447
*CONN
*I *539:A2 I *D sg13cmos5l_mux4_1
*I *537:X O *D sg13cmos5l_mux2_1
*CAP
1 *539:A2 0.000429702
2 *537:X 0.000429702
3 *539:A2 *535:A1 0
4 *539:A2 *537:A0 0
5 *539:A2 *537:S 0
6 *539:A2 *604:A 0
7 *539:A2 *693:A 0
8 *539:A2 *200:23 0.000209615
9 *539:A2 *200:46 1.54556e-05
10 *539:A0 *539:A2 0
*RES
1 *537:X *539:A2 44.6659 
*END

*D_NET *15 0.00234527
*CONN
*I *539:A3 I *D sg13cmos5l_mux4_1
*I *538:X O *D sg13cmos5l_mux2_1
*CAP
1 *539:A3 0
2 *538:X 0.000552664
3 *15:10 0.000552664
4 *15:10 *538:S 0
5 *15:10 *165:12 0
6 *15:10 *166:8 0
7 *15:10 *169:8 0
8 *15:10 *200:94 0
9 *12:8 *15:10 0
10 *13:12 *15:10 0.00123994
*RES
1 *538:X *15:10 47.8074 
2 *15:10 *539:A3 40 
*END

*D_NET *16 0.00133843
*CONN
*I *541:A I *D sg13cmos5l_nor2_1
*I *539:X O *D sg13cmos5l_mux4_1
*CAP
1 *541:A 2.85298e-05
2 *539:X 0.000640688
3 *16:8 0.000669217
4 *541:A *540:A 0
5 *541:A *541:B 0
6 *541:A *644:A 0
7 *541:A *655:A 0
8 *16:8 *66:8 0
9 *16:8 *70:12 0
10 *16:8 *170:8 0
11 *16:8 *201:21 0
12 *16:8 *205:20 0
*RES
1 *539:X *16:8 47.7662 
2 *16:8 *541:A 40.3193 
*END

*D_NET *17 0.000262066
*CONN
*I *541:B I *D sg13cmos5l_nor2_1
*I *540:Y O *D sg13cmos5l_nand2_1
*CAP
1 *541:B 0.000123305
2 *540:Y 0.000123305
3 *541:B *540:A 1.54556e-05
4 *541:B *591:A 0
5 *541:B *644:A 0
6 *541:B *18:8 0
7 *541:B *45:8 0
8 *541:A *541:B 0
*RES
1 *540:Y *541:B 41.4832 
*END

*D_NET *18 0.0029075
*CONN
*I *571:B I *D sg13cmos5l_nor2_1
*I *569:A I *D sg13cmos5l_nor2b_1
*I *573:D I *D sg13cmos5l_nor4_1
*I *541:Y O *D sg13cmos5l_nor2_1
*CAP
1 *571:B 0
2 *569:A 0.000230199
3 *573:D 0.000110018
4 *541:Y 0.000381376
5 *18:40 0.00010096
6 *18:12 0.000455387
7 *18:8 0.000597506
8 *569:A *569:B_N 0
9 *569:A *209:12 0
10 *573:D *569:B_N 0
11 *573:D *578:A2 4.74145e-05
12 *573:D *46:10 0
13 *573:D *203:22 4.78192e-05
14 *18:8 *572:A 0
15 *18:8 *578:A2 0.000134792
16 *18:8 *583:A 0
17 *18:8 *644:A 0
18 *18:8 *45:8 0
19 *18:12 *569:B_N 0.000176471
20 *18:12 *572:A 3.23417e-05
21 *18:12 *578:A2 0.000176471
22 *18:40 *571:A 0.00034162
23 *18:40 *45:16 7.51285e-05
24 *18:40 *209:12 0
25 *541:B *18:8 0
*RES
1 *541:Y *18:8 24.1303 
2 *18:8 *18:12 21.4008 
3 *18:12 *573:D 41.133 
4 *18:12 *569:A 42.3072 
5 *18:8 *18:40 41.5862 
6 *18:40 *571:B 20 
*END

*D_NET *19 0.0015069
*CONN
*I *543:B1 I *D sg13cmos5l_o21ai_1
*I *542:Y O *D sg13cmos5l_nand2b_1
*CAP
1 *543:B1 0
2 *542:Y 0.000516395
3 *19:10 0.000516395
4 *19:10 *547:A2 8.03692e-05
5 *19:10 *178:10 0.000393736
6 *19:10 *199:40 0
7 *19:10 *205:20 0
8 *19:10 *206:12 0
*RES
1 *542:Y *19:10 45.1242 
2 *19:10 *543:B1 40 
*END

*D_NET *20 0.000683206
*CONN
*I *550:A0 I *D sg13cmos5l_mux4_1
*I *543:Y O *D sg13cmos5l_o21ai_1
*CAP
1 *550:A0 0.000205838
2 *543:Y 0.000205838
3 *550:A0 *543:A1 0
4 *550:A0 *544:A_N 0
5 *550:A0 *550:S0 4.77425e-05
6 *550:A0 *700:A 0
7 *550:A0 *701:A 0.00011159
8 *550:A0 *198:49 8.00842e-05
9 *550:A0 *198:76 3.21143e-05
*RES
1 *543:Y *550:A0 42.3484 
*END

*D_NET *21 0.000510552
*CONN
*I *545:B1 I *D sg13cmos5l_o21ai_1
*I *544:Y O *D sg13cmos5l_nand2b_1
*CAP
1 *545:B1 0.000239869
2 *544:Y 0.000239869
3 *545:B1 *544:A_N 1.54008e-05
4 *545:B1 *545:A2 0
5 *545:B1 *550:A1 1.5412e-05
*RES
1 *544:Y *545:B1 42.2248 
*END

*D_NET *22 0.00142939
*CONN
*I *550:A1 I *D sg13cmos5l_mux4_1
*I *545:Y O *D sg13cmos5l_o21ai_1
*CAP
1 *550:A1 0.000464973
2 *545:Y 0.000464973
3 *550:A1 *545:A2 0
4 *550:A1 *550:A3 0
5 *550:A1 *588:A 0.000484032
6 *550:A1 *198:49 0
7 *545:B1 *550:A1 1.5412e-05
*RES
1 *545:Y *550:A1 45.0367 
*END

*D_NET *23 0.000685977
*CONN
*I *547:B1 I *D sg13cmos5l_o21ai_1
*I *546:Y O *D sg13cmos5l_nand2b_1
*CAP
1 *547:B1 0.000238789
2 *546:Y 0.000238789
3 *547:B1 *542:B 0
4 *547:B1 *547:A1 8.01938e-05
5 *547:B1 *547:A2 1.54556e-05
6 *547:B1 *712:A 0.000112749
7 *547:B1 *715:A 0
*RES
1 *546:Y *547:B1 43.1312 
*END

*D_NET *24 0.00185718
*CONN
*I *550:A2 I *D sg13cmos5l_mux4_1
*I *547:Y O *D sg13cmos5l_o21ai_1
*CAP
1 *550:A2 0
2 *547:Y 0.000757781
3 *24:8 0.000757781
4 *24:8 *550:S0 0.00018128
5 *24:8 *198:8 0
6 *24:8 *198:47 0
7 *24:8 *199:14 0
8 *24:8 *205:10 0
9 *24:8 *206:29 0.000160341
*RES
1 *547:Y *24:8 46.5302 
2 *24:8 *550:A2 40 
*END

*D_NET *25 0.000665249
*CONN
*I *549:B1 I *D sg13cmos5l_o21ai_1
*I *548:Y O *D sg13cmos5l_nand2b_1
*CAP
1 *549:B1 4.75839e-05
2 *548:Y 0.00023715
3 *25:8 0.000284734
4 *549:B1 *550:A3 1.54556e-05
5 *549:B1 *195:27 8.03256e-05
6 *549:B1 *204:18 0
7 *25:8 *50:8 0
8 *25:8 *65:8 0
9 *25:8 *199:14 0
*RES
1 *548:Y *25:8 42.575 
2 *25:8 *549:B1 40.5356 
*END

*D_NET *26 0.000549085
*CONN
*I *550:A3 I *D sg13cmos5l_mux4_1
*I *549:Y O *D sg13cmos5l_o21ai_1
*CAP
1 *550:A3 0.000266815
2 *549:Y 0.000266815
3 *550:A3 *198:49 0
4 *550:A3 *204:18 0
5 *550:A3 *204:33 0
6 *549:B1 *550:A3 1.54556e-05
7 *550:A1 *550:A3 0
*RES
1 *549:Y *550:A3 42.6162 
*END

*D_NET *27 0.000898906
*CONN
*I *568:A1 I *D sg13cmos5l_a221oi_1
*I *550:X O *D sg13cmos5l_mux4_1
*CAP
1 *568:A1 0.000134551
2 *550:X 0.000210962
3 *27:8 0.000345513
4 *568:A1 *540:A 0
5 *568:A1 *568:A2 0
6 *568:A1 *37:14 1.54556e-05
7 *568:A1 *45:8 0.000144691
8 *568:A1 *208:49 4.77347e-05
9 *27:8 *199:14 0
10 *27:8 *205:20 0
*RES
1 *550:X *27:8 42.3278 
2 *27:8 *568:A1 41.4008 
*END

*D_NET *28 0.000244236
*CONN
*I *568:A2 I *D sg13cmos5l_a221oi_1
*I *551:Y O *D sg13cmos5l_nor2b_1
*CAP
1 *568:A2 0.000122118
2 *551:Y 0.000122118
3 *568:A2 *540:A 0
4 *568:A2 *37:14 0
5 *568:A2 *208:39 0
6 *568:A1 *568:A2 0
*RES
1 *551:Y *568:A2 41.1845 
*END

*D_NET *29 0.0018476
*CONN
*I *553:B1 I *D sg13cmos5l_o21ai_1
*I *552:Y O *D sg13cmos5l_nand2b_1
*CAP
1 *553:B1 8.72816e-05
2 *552:Y 0.000764009
3 *29:10 0.000851291
4 *553:B1 *553:A2 0.00014502
5 *553:B1 *204:54 0
6 *553:B1 *204:68 0
7 *29:10 *552:B 0
8 *29:10 *552:A_N 0
9 *29:10 *555:B1 0
10 *29:10 *30:8 0
11 *29:10 *32:10 0
12 *29:10 *34:10 0
13 *29:10 *143:14 0
14 *29:10 *200:50 0
15 *29:10 *204:54 0
16 *29:10 *206:37 0
*RES
1 *552:Y *29:10 47.622 
2 *29:10 *553:B1 40.9682 
*END

*D_NET *30 0.00027818
*CONN
*I *560:A0 I *D sg13cmos5l_mux4_1
*I *553:Y O *D sg13cmos5l_o21ai_1
*CAP
1 *560:A0 0
2 *553:Y 0.00013909
3 *30:8 0.00013909
4 *30:8 *204:54 0
5 *30:8 *206:37 0
6 *29:10 *30:8 0
*RES
1 *553:Y *30:8 41.0918 
2 *30:8 *560:A0 40 
*END

*D_NET *31 0.00156866
*CONN
*I *555:B1 I *D sg13cmos5l_o21ai_1
*I *554:Y O *D sg13cmos5l_nand2b_1
*CAP
1 *555:B1 5.63175e-05
2 *554:Y 0.000523394
3 *31:8 0.000579711
4 *555:B1 *668:A 0
5 *555:B1 *32:10 1.5412e-05
6 *555:B1 *143:14 0
7 *31:8 *147:25 0
8 *31:8 *148:8 0
9 *31:8 *150:10 0.000393822
10 *31:8 *151:8 0
11 *31:8 *200:50 0
12 *31:8 *200:63 0
13 *29:10 *555:B1 0
*RES
1 *554:Y *31:8 45.7886 
2 *31:8 *555:B1 40.5356 
*END

*D_NET *32 0.00120853
*CONN
*I *560:A1 I *D sg13cmos5l_mux4_1
*I *555:Y O *D sg13cmos5l_o21ai_1
*CAP
1 *560:A1 3.35163e-05
2 *555:Y 0.00056304
3 *32:10 0.000596557
4 *560:A1 *200:46 0
5 *32:10 *34:10 0
6 *32:10 *200:46 0
7 *32:10 *206:37 0
8 *555:B1 *32:10 1.5412e-05
9 *29:10 *32:10 0
*RES
1 *555:Y *32:10 44.6556 
2 *32:10 *560:A1 40.3193 
*END

*D_NET *33 0.00105331
*CONN
*I *557:B1 I *D sg13cmos5l_o21ai_1
*I *556:Y O *D sg13cmos5l_nand2b_1
*CAP
1 *557:B1 5.10993e-05
2 *556:Y 0.000427669
3 *33:8 0.000478768
4 *557:B1 *539:S0 0
5 *557:B1 *557:A2 8.03692e-05
6 *557:B1 *34:10 1.54008e-05
7 *33:8 *557:A2 0
8 *33:8 *160:12 0
*RES
1 *556:Y *33:8 44.3054 
2 *33:8 *557:B1 40.5356 
*END

*D_NET *34 0.00143004
*CONN
*I *560:A2 I *D sg13cmos5l_mux4_1
*I *557:Y O *D sg13cmos5l_o21ai_1
*CAP
1 *560:A2 0
2 *557:Y 0.000651381
3 *34:10 0.000651381
4 *34:10 *539:S0 0.000111876
5 *34:10 *557:A2 0
6 *34:10 *200:50 0
7 *34:10 *206:37 0
8 *557:B1 *34:10 1.54008e-05
9 *29:10 *34:10 0
10 *32:10 *34:10 0
*RES
1 *557:Y *34:10 45.459 
2 *34:10 *560:A2 40 
*END

*D_NET *35 0.000798559
*CONN
*I *559:B1 I *D sg13cmos5l_o21ai_1
*I *558:Y O *D sg13cmos5l_nand2b_1
*CAP
1 *559:B1 0.000319036
2 *558:Y 0.000319036
3 *559:B1 *558:B 8.02924e-05
4 *559:B1 *160:12 8.01938e-05
5 *559:B1 *200:46 0
6 *559:B1 *201:52 0
7 *559:B1 *204:68 0
*RES
1 *558:Y *559:B1 43.0488 
*END

*D_NET *36 0.000368806
*CONN
*I *560:A3 I *D sg13cmos5l_mux4_1
*I *559:Y O *D sg13cmos5l_o21ai_1
*CAP
1 *560:A3 0.000184403
2 *559:Y 0.000184403
3 *560:A3 *200:46 0
*RES
1 *559:Y *560:A3 41.751 
*END

*D_NET *37 0.00359493
*CONN
*I *568:B1 I *D sg13cmos5l_a221oi_1
*I *560:X O *D sg13cmos5l_mux4_1
*CAP
1 *568:B1 0
2 *560:X 0.000305956
3 *37:14 0.00128583
4 *37:8 0.00159179
5 *37:8 *539:S0 0
6 *37:8 *557:A2 0
7 *37:8 *200:46 0
8 *37:14 *694:A 0
9 *37:14 *68:8 0
10 *37:14 *160:12 0
11 *37:14 *169:8 0
12 *37:14 *170:8 0
13 *37:14 *173:8 0
14 *37:14 *196:8 0
15 *37:14 *201:41 0.000395896
16 *37:14 *201:52 0
17 *37:14 *204:68 0
18 *37:14 *205:20 0
19 *37:14 *208:22 0
20 *37:14 *208:39 0
21 *568:A1 *37:14 1.54556e-05
22 *568:A2 *37:14 0
*RES
1 *560:X *37:8 42.1442 
2 *37:8 *37:14 34.42 
3 *37:14 *568:B1 20 
*END

*D_NET *38 0.000682215
*CONN
*I *568:B2 I *D sg13cmos5l_a221oi_1
*I *561:Y O *D sg13cmos5l_nor2b_1
*CAP
1 *568:B2 0
2 *561:Y 5.24328e-05
3 *38:8 5.24328e-05
4 *38:8 *561:B_N 0.000181695
5 *38:8 *173:8 0.000289504
6 *38:8 *207:35 0.000106151
*RES
1 *561:Y *38:8 41.339 
2 *38:8 *568:B2 40 
*END

*D_NET *39 0.000465651
*CONN
*I *566:A0 I *D sg13cmos5l_mux4_1
*I *562:X O *D sg13cmos5l_mux2_1
*CAP
1 *566:A0 0.000225125
2 *562:X 0.000225125
3 *566:A0 *562:S 0
4 *566:A0 *564:S 0
5 *566:A0 *566:S0 1.54008e-05
*RES
1 *562:X *566:A0 42.2145 
*END

*D_NET *40 0.0026831
*CONN
*I *566:A1 I *D sg13cmos5l_mux4_1
*I *563:X O *D sg13cmos5l_mux2_1
*CAP
1 *566:A1 3.7009e-05
2 *563:X 0.000708436
3 *40:8 0.000745445
4 *40:8 *42:10 0
5 *40:8 *121:10 0
6 *40:8 *125:20 0.00119221
7 *40:8 *134:16 0
8 *40:8 *208:18 0
*RES
1 *563:X *40:8 48.5078 
2 *40:8 *566:A1 40.3193 
*END

*D_NET *41 0.000960443
*CONN
*I *566:A2 I *D sg13cmos5l_mux4_1
*I *564:X O *D sg13cmos5l_mux2_1
*CAP
1 *566:A2 0.000480221
2 *564:X 0.000480221
3 *566:A2 *564:S 0
4 *566:A2 *628:A 0
5 *566:A2 *642:A 0
6 *566:A2 *643:A 0
7 *566:A2 *204:33 0
8 *566:A2 *208:18 0
*RES
1 *564:X *566:A2 44.5029 
*END

*D_NET *42 0.00141594
*CONN
*I *566:A3 I *D sg13cmos5l_mux4_1
*I *565:X O *D sg13cmos5l_mux2_1
*CAP
1 *566:A3 0
2 *565:X 0.000323579
3 *42:10 0.000323579
4 *42:10 *562:S 0
5 *42:10 *117:8 0
6 *42:10 *134:16 0.000768781
7 *42:10 *208:18 0
8 *40:8 *42:10 0
*RES
1 *565:X *42:10 44.0994 
2 *42:10 *566:A3 40 
*END

*D_NET *43 0.000570755
*CONN
*I *567:C I *D sg13cmos5l_nor3_1
*I *566:X O *D sg13cmos5l_mux4_1
*CAP
1 *567:C 0.00017276
2 *566:X 0.00017276
3 *567:C *208:18 0.000209779
4 *567:C *208:22 1.54556e-05
*RES
1 *566:X *567:C 41.9982 
*END

*D_NET *44 0.000762558
*CONN
*I *568:C1 I *D sg13cmos5l_a221oi_1
*I *567:Y O *D sg13cmos5l_nor3_1
*CAP
1 *568:C1 0.000155394
2 *567:Y 0.000155394
3 *568:C1 *207:18 0.000242055
4 *568:C1 *208:22 0.000209714
*RES
1 *567:Y *568:C1 41.8334 
*END

*D_NET *45 0.00279267
*CONN
*I *578:A1 I *D sg13cmos5l_a21o_1
*I *572:A I *D sg13cmos5l_and2_1
*I *569:B_N I *D sg13cmos5l_nor2b_1
*I *568:Y O *D sg13cmos5l_a221oi_1
*CAP
1 *578:A1 0
2 *572:A 7.19038e-05
3 *569:B_N 0.000242231
4 *568:Y 0.000581714
5 *45:16 0.000556022
6 *45:8 0.000823601
7 *569:B_N *572:B 1.54008e-05
8 *569:B_N *578:A2 0
9 *569:B_N *203:22 0
10 *572:A *572:B 4.77425e-05
11 *572:A *583:A 0
12 *45:8 *548:B 0
13 *45:8 *577:B1 0
14 *45:8 *578:A2 2.54237e-05
15 *45:8 *578:B1 0
16 *45:8 *590:A 0
17 *45:8 *204:18 0
18 *45:8 *204:33 0
19 *45:8 *208:49 0
20 *45:16 *571:A 0
21 *45:16 *46:10 0
22 *45:16 *203:22 0
23 *45:16 *209:12 0
24 *541:B *45:8 0
25 *568:A1 *45:8 0.000144691
26 *569:A *569:B_N 0
27 *573:D *569:B_N 0
28 *18:8 *572:A 0
29 *18:8 *45:8 0
30 *18:12 *569:B_N 0.000176471
31 *18:12 *572:A 3.23417e-05
32 *18:40 *45:16 7.51285e-05
*RES
1 *568:Y *45:8 25.8916 
2 *45:8 *45:16 42.1527 
3 *45:16 *569:B_N 22.2151 
4 *45:16 *572:A 20.7519 
5 *45:8 *578:A1 20 
*END

*D_NET *46 0.00206942
*CONN
*I *573:A I *D sg13cmos5l_nor4_1
*I *571:A I *D sg13cmos5l_nor2_1
*I *577:B1 I *D sg13cmos5l_a21oi_1
*I *570:Y O *D sg13cmos5l_inv_1
*CAP
1 *573:A 0.000155927
2 *571:A 0.000363374
3 *577:B1 0.000111847
4 *570:Y 0
5 *46:10 0.000652712
6 *46:4 0.000333419
7 *571:A *591:A 0
8 *571:A *66:8 0
9 *571:A *108:8 0
10 *571:A *203:22 0
11 *571:A *209:12 0
12 *573:A *573:B 1.54008e-05
13 *573:A *578:B1 0
14 *573:A *722:RESET_B 1.54008e-05
15 *573:A *197:34 0
16 *573:A *203:22 0
17 *577:B1 *577:A1 0
18 *577:B1 *591:A 0
19 *577:B1 *65:8 0
20 *577:B1 *197:34 0
21 *46:10 *577:A2 0
22 *46:10 *578:A2 0
23 *46:10 *197:34 7.97151e-05
24 *573:D *46:10 0
25 *18:40 *571:A 0.00034162
26 *45:8 *577:B1 0
27 *45:16 *571:A 0
28 *45:16 *46:10 0
*RES
1 *570:Y *46:4 20 
2 *46:4 *46:10 21.9364 
3 *46:10 *577:B1 41.1639 
4 *46:10 *571:A 44.3775 
5 *46:4 *573:A 21.5965 
*END

*D_NET *47 0.000368447
*CONN
*I *572:B I *D sg13cmos5l_and2_1
*I *571:Y O *D sg13cmos5l_nor2_1
*CAP
1 *572:B 0.000152652
2 *571:Y 0.000152652
3 *572:B *583:A 0
4 *572:B *593:A 0
5 *569:B_N *572:B 1.54008e-05
6 *572:A *572:B 4.77425e-05
*RES
1 *571:Y *572:B 41.8334 
*END

*D_NET *48 0.0011665
*CONN
*I *578:A2 I *D sg13cmos5l_a21o_1
*I *573:Y O *D sg13cmos5l_nor4_1
*CAP
1 *578:A2 0.000391198
2 *573:Y 0.000391198
3 *578:A2 *578:B1 0
4 *569:B_N *578:A2 0
5 *573:D *578:A2 4.74145e-05
6 *18:8 *578:A2 0.000134792
7 *18:12 *578:A2 0.000176471
8 *45:8 *578:A2 2.54237e-05
9 *46:10 *578:A2 0
*RES
1 *573:Y *578:A2 44.2281 
*END

*D_NET *49 0.000244402
*CONN
*I *575:B I *D sg13cmos5l_nand2_1
*I *574:X O *D sg13cmos5l_mux2_1
*CAP
1 *575:B 0.000122201
2 *574:X 0.000122201
3 *575:B *574:A1 0
4 *575:B *575:A 0
*RES
1 *574:X *575:B 41.3802 
*END

*D_NET *50 0.000732407
*CONN
*I *577:A1 I *D sg13cmos5l_a21oi_1
*I *575:Y O *D sg13cmos5l_nand2_1
*CAP
1 *577:A1 3.5371e-05
2 *575:Y 0.000205949
3 *50:8 0.00024132
4 *577:A1 *577:A2 1.54556e-05
5 *50:8 *63:10 0.000234311
6 *50:8 *197:12 0
7 *50:8 *197:34 0
8 *577:B1 *577:A1 0
9 *25:8 *50:8 0
*RES
1 *575:Y *50:8 42.575 
2 *50:8 *577:A1 40.3193 
*END

*D_NET *51 0.00192927
*CONN
*I *577:A2 I *D sg13cmos5l_a21oi_1
*I *576:Y O *D sg13cmos5l_nand3b_1
*CAP
1 *577:A2 0.000627995
2 *576:Y 0.000627995
3 *577:A2 *576:C 0.000128161
4 *577:A2 *576:A_N 7.94957e-05
5 *577:A2 *578:B1 0
6 *577:A2 *722:RESET_B 0
7 *577:A2 *723:RESET_B 0.00027343
8 *577:A2 *197:16 0.00017674
9 *577:A2 *197:34 0
10 *577:A2 *203:14 0
11 *577:A2 *204:18 0
12 *577:A1 *577:A2 1.54556e-05
13 *46:10 *577:A2 0
*RES
1 *576:Y *577:A2 46.6023 
*END

*D_NET *52 0.000394654
*CONN
*I *578:B1 I *D sg13cmos5l_a21o_1
*I *577:Y O *D sg13cmos5l_a21oi_1
*CAP
1 *578:B1 0.000197327
2 *577:Y 0.000197327
3 *573:A *578:B1 0
4 *577:A2 *578:B1 0
5 *578:A2 *578:B1 0
6 *45:8 *578:B1 0
*RES
1 *577:Y *578:B1 42.1218 
*END

*D_NET *53 0.000313969
*CONN
*I *722:CLK I *D sg13cmos5l_dfrbp_1
*I *569:Y O *D sg13cmos5l_nor2b_1
*CAP
1 *722:CLK 0.000156985
2 *569:Y 0.000156985
3 *722:CLK *573:B 0
*RES
1 *569:Y *722:CLK 41.4008 
*END

*D_NET *54 0.00329946
*CONN
*I *722:D I *D sg13cmos5l_dfrbp_1
*I *576:C I *D sg13cmos5l_nand3b_1
*I *723:CLK I *D sg13cmos5l_dfrbp_1
*I *722:Q_N O *D sg13cmos5l_dfrbp_1
*CAP
1 *722:D 0
2 *576:C 0.00034853
3 *723:CLK 0.000261344
4 *722:Q_N 0.000490278
5 *54:19 0.00034853
6 *54:8 0.000751622
7 *576:C *573:B 0.000240587
8 *576:C *202:20 1.54008e-05
9 *723:CLK *576:A_N 0
10 *723:CLK *723:D 0.000715006
11 *723:CLK *203:10 0
12 *577:A2 *576:C 0.000128161
*RES
1 *722:Q_N *54:8 45.7886 
2 *54:8 *723:CLK 43.811 
3 *54:8 *54:19 20 
4 *54:19 *576:C 24.0994 
5 *54:19 *722:D 20 
*END

*D_NET *55 0.00297022
*CONN
*I *724:CLK I *D sg13cmos5l_dfrbp_1
*I *723:D I *D sg13cmos5l_dfrbp_1
*I *574:A0 I *D sg13cmos5l_mux2_1
*I *723:Q_N O *D sg13cmos5l_dfrbp_1
*CAP
1 *724:CLK 0.000134619
2 *723:D 0.000257778
3 *574:A0 0.000321889
4 *723:Q_N 9.02975e-05
5 *55:19 0.000578755
6 *55:8 0.000598545
7 *574:A0 *574:A1 0.000273328
8 *574:A0 *574:S 0
9 *724:CLK *203:14 0
10 *55:8 *203:10 0
11 *723:CLK *723:D 0.000715006
*RES
1 *723:Q_N *55:8 40.8446 
2 *55:8 *574:A0 43.5638 
3 *55:8 *55:19 1.8334 
4 *55:19 *723:D 43.6359 
5 *55:19 *724:CLK 41.4008 
*END

*D_NET *56 0.0026909
*CONN
*I *724:D I *D sg13cmos5l_dfrbp_1
*I *574:A1 I *D sg13cmos5l_mux2_1
*I *724:Q_N O *D sg13cmos5l_dfrbp_1
*CAP
1 *724:D 0.000584792
2 *574:A1 0.000169331
3 *724:Q_N 0.000150693
4 *56:8 0.000904816
5 *574:A1 *575:A 0
6 *574:A1 *63:10 0
7 *574:A1 *203:14 0
8 *724:D *203:22 0.000607939
9 *724:D *204:18 0
10 *56:8 *204:18 0
11 *574:A0 *574:A1 0.000273328
12 *575:B *574:A1 0
*RES
1 *724:Q_N *56:8 41.0918 
2 *56:8 *574:A1 41.8334 
3 *56:8 *724:D 45.3354 
*END

*D_NET *57 0.000402424
*CONN
*I *583:A I *D sg13cmos5l_inv_1
*I *572:X O *D sg13cmos5l_and2_1
*CAP
1 *583:A 0.000201212
2 *572:X 0.000201212
3 *583:A *593:A 0
4 *572:A *583:A 0
5 *572:B *583:A 0
6 *18:8 *583:A 0
*RES
1 *572:X *583:A 42.1012 
*END

*D_NET *58 0.00093517
*CONN
*I *584:A I *D sg13cmos5l_inv_1
*I *720:Y O *D sg13cmos5l_inv_1
*CAP
1 *584:A 0.000165824
2 *720:Y 0.00027789
3 *58:10 0.000443714
4 *584:A *586:A 0
5 *584:A *59:10 0
6 *58:10 *545:A2 0
7 *58:10 *59:10 0
8 *58:10 *195:27 4.77421e-05
*RES
1 *720:Y *58:10 42.5853 
2 *58:10 *584:A 41.3184 
*END

*D_NET *59 0.0011591
*CONN
*I *585:A I *D sg13cmos5l_inv_1
*I *584:Y O *D sg13cmos5l_inv_1
*CAP
1 *585:A 0.000260571
2 *584:Y 0.000222466
3 *59:10 0.000483036
4 *585:A *586:A 0
5 *585:A *61:10 7.99597e-05
6 *59:10 *545:A2 0.000113064
7 *584:A *59:10 0
8 *58:10 *59:10 0
*RES
1 *584:Y *59:10 41.9364 
2 *59:10 *585:A 41.8334 
*END

*D_NET *60 0.000662695
*CONN
*I *586:A I *D sg13cmos5l_inv_1
*I *585:Y O *D sg13cmos5l_inv_1
*CAP
1 *586:A 0.000291368
2 *585:Y 0.000291368
3 *586:A *61:10 7.99597e-05
4 *584:A *586:A 0
5 *585:A *586:A 0
*RES
1 *585:Y *586:A 42.5441 
*END

*D_NET *61 0.00255387
*CONN
*I *587:A I *D sg13cmos5l_inv_1
*I *544:A_N I *D sg13cmos5l_nand2b_1
*I *586:Y O *D sg13cmos5l_inv_1
*CAP
1 *587:A 2.77263e-05
2 *544:A_N 0.000543494
3 *586:Y 0.000155849
4 *61:14 0.000732441
5 *61:10 0.00031707
6 *544:A_N *545:A2 0
7 *544:A_N *588:A 0
8 *544:A_N *198:49 8.02927e-05
9 *61:10 *545:A2 0.00012816
10 *61:10 *197:12 0.000393514
11 *61:14 *574:S 0
12 *61:14 *588:A 0
13 *545:B1 *544:A_N 1.54008e-05
14 *550:A0 *544:A_N 0
15 *585:A *61:10 7.99597e-05
16 *586:A *61:10 7.99597e-05
*RES
1 *586:Y *61:10 42.369 
2 *61:10 *61:14 20.9682 
3 *61:14 *544:A_N 24.3878 
4 *61:14 *587:A 20.3502 
*END

*D_NET *62 0.00149969
*CONN
*I *588:A I *D sg13cmos5l_inv_1
*I *587:Y O *D sg13cmos5l_inv_1
*CAP
1 *588:A 0.00038797
2 *587:Y 0.00038797
3 *588:A *545:A2 8.01982e-05
4 *588:A *574:S 4.79124e-05
5 *588:A *63:10 0.000111603
6 *588:A *195:27 0
7 *544:A_N *588:A 0
8 *550:A1 *588:A 0.000484032
9 *61:14 *588:A 0
*RES
1 *587:Y *588:A 44.5835 
*END

*D_NET *63 0.000943672
*CONN
*I *589:A I *D sg13cmos5l_inv_1
*I *588:Y O *D sg13cmos5l_inv_1
*CAP
1 *589:A 0
2 *588:Y 0.000298879
3 *63:10 0.000298879
4 *63:10 *195:27 0
5 *63:10 *197:12 0
6 *63:10 *204:18 0
7 *574:A1 *63:10 0
8 *588:A *63:10 0.000111603
9 *50:8 *63:10 0.000234311
*RES
1 *588:Y *63:10 43.4814 
2 *63:10 *589:A 40 
*END

*D_NET *64 0.000379514
*CONN
*I *590:A I *D sg13cmos5l_inv_1
*I *589:Y O *D sg13cmos5l_inv_1
*CAP
1 *590:A 0.000189757
2 *589:Y 0.000189757
3 *590:A *548:B 0
4 *590:A *204:18 0
5 *45:8 *590:A 0
*RES
1 *589:Y *590:A 41.9982 
*END

*D_NET *65 0.000507332
*CONN
*I *591:A I *D sg13cmos5l_inv_1
*I *548:A_N I *D sg13cmos5l_nand2b_1
*I *590:Y O *D sg13cmos5l_inv_1
*CAP
1 *591:A 0.000126837
2 *548:A_N 0
3 *590:Y 0.000126829
4 *65:8 0.000253666
5 *65:8 *199:14 0
6 *541:B *591:A 0
7 *571:A *591:A 0
8 *577:B1 *591:A 0
9 *577:B1 *65:8 0
10 *25:8 *65:8 0
*RES
1 *590:Y *65:8 41.339 
2 *65:8 *548:A_N 40 
3 *65:8 *591:A 41.442 
*END

*D_NET *66 0.000503104
*CONN
*I *592:A I *D sg13cmos5l_inv_1
*I *591:Y O *D sg13cmos5l_inv_1
*CAP
1 *592:A 0
2 *591:Y 0.000160661
3 *66:8 0.000160661
4 *66:8 *108:8 0.000181781
5 *571:A *66:8 0
6 *16:8 *66:8 0
*RES
1 *591:Y *66:8 42.0806 
2 *66:8 *592:A 40 
*END

*D_NET *67 0.000575863
*CONN
*I *593:A I *D sg13cmos5l_inv_1
*I *592:Y O *D sg13cmos5l_inv_1
*CAP
1 *593:A 0.000287932
2 *592:Y 0.000287932
3 *593:A *597:A 0
4 *593:A *633:A 0
5 *593:A *644:A 0
6 *572:B *593:A 0
7 *583:A *593:A 0
*RES
1 *592:Y *593:A 42.9046 
*END

*D_NET *68 0.000724436
*CONN
*I *594:A I *D sg13cmos5l_inv_1
*I *721:Y O *D sg13cmos5l_inv_1
*CAP
1 *594:A 3.39997e-05
2 *721:Y 0.000157158
3 *68:8 0.000191157
4 *594:A *699:A 0
5 *68:8 *196:8 0.000342122
6 *68:8 *206:37 0
7 *37:14 *68:8 0
*RES
1 *721:Y *68:8 42.3278 
2 *68:8 *594:A 40.3193 
*END

*D_NET *69 0.000212025
*CONN
*I *595:A I *D sg13cmos5l_inv_1
*I *593:Y O *D sg13cmos5l_inv_1
*CAP
1 *595:A 0.000106012
2 *593:Y 0.000106012
3 *595:A *597:A 0
4 *595:A *598:A 0
*RES
1 *593:Y *595:A 41.339 
*END

*D_NET *70 0.000638729
*CONN
*I *596:A I *D sg13cmos5l_inv_1
*I *535:A0 I *D sg13cmos5l_mux2_1
*I *595:Y O *D sg13cmos5l_inv_1
*CAP
1 *596:A 0
2 *535:A0 0
3 *595:Y 7.56521e-05
4 *70:12 0.000179174
5 *70:6 0.000254826
6 *70:6 *597:A 0
7 *70:12 *537:A0 0
8 *70:12 *201:21 0.000129078
9 *16:8 *70:12 0
*RES
1 *595:Y *70:6 20.8446 
2 *70:6 *70:12 42.3278 
3 *70:12 *535:A0 20 
4 *70:6 *596:A 20 
*END

*D_NET *71 0.000438827
*CONN
*I *597:A I *D sg13cmos5l_inv_1
*I *596:Y O *D sg13cmos5l_inv_1
*CAP
1 *597:A 0.000211686
2 *596:Y 0.000211686
3 *597:A *598:A 0
4 *597:A *599:A 1.54556e-05
5 *593:A *597:A 0
6 *595:A *597:A 0
7 *70:6 *597:A 0
*RES
1 *596:Y *597:A 42.3484 
*END

*D_NET *72 0.000737692
*CONN
*I *598:A I *D sg13cmos5l_inv_1
*I *597:Y O *D sg13cmos5l_inv_1
*CAP
1 *598:A 0.000296809
2 *597:Y 0.000296809
3 *598:A *599:A 0.000144073
4 *595:A *598:A 0
5 *597:A *598:A 0
*RES
1 *597:Y *598:A 43.4093 
*END

*D_NET *73 0.000680617
*CONN
*I *599:A I *D sg13cmos5l_inv_1
*I *598:Y O *D sg13cmos5l_inv_1
*CAP
1 *599:A 0.000260544
2 *598:Y 0.000260544
3 *599:A *600:A 0
4 *597:A *599:A 1.54556e-05
5 *598:A *599:A 0.000144073
*RES
1 *598:Y *599:A 42.5647 
*END

*D_NET *74 0.00250637
*CONN
*I *537:A0 I *D sg13cmos5l_mux2_1
*I *600:A I *D sg13cmos5l_inv_1
*I *599:Y O *D sg13cmos5l_inv_1
*CAP
1 *537:A0 0.000392331
2 *600:A 5.92185e-05
3 *599:Y 5.65235e-05
4 *74:8 0.000508073
5 *537:A0 *537:A1 0
6 *537:A0 *537:S 8.00842e-05
7 *537:A0 *201:21 0
8 *537:A0 *209:12 0.00122845
9 *74:8 *209:12 0.000181695
10 *539:A2 *537:A0 0
11 *599:A *600:A 0
12 *70:12 *537:A0 0
*RES
1 *599:Y *74:8 40.8446 
2 *74:8 *600:A 40.5356 
3 *74:8 *537:A0 46.3242 
*END

*D_NET *75 9.80728e-05
*CONN
*I *601:A I *D sg13cmos5l_inv_1
*I *600:Y O *D sg13cmos5l_inv_1
*CAP
1 *601:A 4.90364e-05
2 *600:Y 4.90364e-05
*RES
1 *600:Y *601:A 40.5974 
*END

*D_NET *76 9.45957e-05
*CONN
*I *602:A I *D sg13cmos5l_inv_1
*I *601:Y O *D sg13cmos5l_inv_1
*CAP
1 *602:A 4.72978e-05
2 *601:Y 4.72978e-05
3 *602:A *535:S 0
*RES
1 *601:Y *602:A 40.5974 
*END

*D_NET *77 9.9762e-05
*CONN
*I *603:A I *D sg13cmos5l_inv_1
*I *602:Y O *D sg13cmos5l_inv_1
*CAP
1 *603:A 4.9881e-05
2 *602:Y 4.9881e-05
3 *603:A *535:A1 0
*RES
1 *602:Y *603:A 40.5974 
*END

*D_NET *78 0.000619135
*CONN
*I *604:A I *D sg13cmos5l_inv_1
*I *535:A1 I *D sg13cmos5l_mux2_1
*I *603:Y O *D sg13cmos5l_inv_1
*CAP
1 *604:A 0.00016822
2 *535:A1 0.000141348
3 *603:Y 0
4 *78:4 0.000309568
5 *539:A2 *535:A1 0
6 *539:A2 *604:A 0
7 *603:A *535:A1 0
*RES
1 *603:Y *78:4 20 
2 *78:4 *535:A1 21.5347 
3 *78:4 *604:A 22.1218 
*END

*D_NET *79 0.000691285
*CONN
*I *605:A I *D sg13cmos5l_inv_1
*I *594:Y O *D sg13cmos5l_inv_1
*CAP
1 *605:A 0.000302064
2 *594:Y 0.000302064
3 *605:A *616:A 8.71573e-05
4 *605:A *626:A 0
*RES
1 *594:Y *605:A 43.5226 
*END

*D_NET *80 0.000718306
*CONN
*I *606:A I *D sg13cmos5l_inv_1
*I *604:Y O *D sg13cmos5l_inv_1
*CAP
1 *606:A 0.000359153
2 *604:Y 0.000359153
*RES
1 *604:Y *606:A 43.5535 
*END

*D_NET *81 0.000915444
*CONN
*I *607:A I *D sg13cmos5l_inv_1
*I *606:Y O *D sg13cmos5l_inv_1
*CAP
1 *607:A 0.000194323
2 *606:Y 0.000263398
3 *81:8 0.000457722
4 *81:8 *209:12 0
*RES
1 *606:Y *81:8 42.575 
2 *81:8 *607:A 41.6171 
*END

*D_NET *82 0.00118614
*CONN
*I *608:A I *D sg13cmos5l_inv_1
*I *607:Y O *D sg13cmos5l_inv_1
*CAP
1 *608:A 0.000189874
2 *607:Y 0.000153254
3 *82:8 0.000343128
4 *608:A *537:S 0
5 *608:A *83:10 0
6 *82:8 *609:A 0.000499887
7 *82:8 *200:94 0
*RES
1 *607:Y *82:8 42.3278 
2 *82:8 *608:A 41.6171 
*END

*D_NET *83 0.00213774
*CONN
*I *609:A I *D sg13cmos5l_inv_1
*I *537:A1 I *D sg13cmos5l_mux2_1
*I *608:Y O *D sg13cmos5l_inv_1
*CAP
1 *609:A 0.000447073
2 *537:A1 9.37644e-05
3 *608:Y 0.000165497
4 *83:10 0.000706334
5 *537:A1 *201:21 0
6 *537:A1 *209:12 0
7 *609:A *200:94 0
8 *609:A *209:12 0
9 *83:10 *537:S 0.00022518
10 *537:A0 *537:A1 0
11 *608:A *83:10 0
12 *82:8 *609:A 0.000499887
*RES
1 *608:Y *83:10 41.751 
2 *83:10 *537:A1 40.8446 
3 *83:10 *609:A 44.5526 
*END

*D_NET *84 9.45957e-05
*CONN
*I *610:A I *D sg13cmos5l_inv_1
*I *609:Y O *D sg13cmos5l_inv_1
*CAP
1 *610:A 4.72978e-05
2 *609:Y 4.72978e-05
3 *13:12 *610:A 0
*RES
1 *609:Y *610:A 40.5974 
*END

*D_NET *85 9.45957e-05
*CONN
*I *611:A I *D sg13cmos5l_inv_1
*I *610:Y O *D sg13cmos5l_inv_1
*CAP
1 *611:A 4.72978e-05
2 *610:Y 4.72978e-05
3 *611:A *536:A0 0
*RES
1 *610:Y *611:A 40.5974 
*END

*D_NET *86 0.000107701
*CONN
*I *612:A I *D sg13cmos5l_inv_1
*I *611:Y O *D sg13cmos5l_inv_1
*CAP
1 *612:A 5.38503e-05
2 *611:Y 5.38503e-05
3 *612:A *536:A0 0
*RES
1 *611:Y *612:A 40.5974 
*END

*D_NET *87 0.0007346
*CONN
*I *613:A I *D sg13cmos5l_inv_1
*I *536:A0 I *D sg13cmos5l_mux2_1
*I *612:Y O *D sg13cmos5l_inv_1
*CAP
1 *613:A 8.34402e-05
2 *536:A0 0.000268432
3 *612:Y 0
4 *87:4 0.000351872
5 *536:A0 *536:S 1.54008e-05
6 *536:A0 *614:A 0
7 *613:A *614:A 1.54556e-05
8 *611:A *536:A0 0
9 *612:A *536:A0 0
*RES
1 *612:Y *87:4 20 
2 *87:4 *536:A0 22.9458 
3 *87:4 *613:A 21.133 
*END

*D_NET *88 0.000493486
*CONN
*I *614:A I *D sg13cmos5l_inv_1
*I *613:Y O *D sg13cmos5l_inv_1
*CAP
1 *614:A 0.000239015
2 *613:Y 0.000239015
3 *614:A *623:A 0
4 *614:A *625:A 0
5 *536:A0 *614:A 0
6 *613:A *614:A 1.54556e-05
*RES
1 *613:Y *614:A 42.7398 
*END

*D_NET *89 0.000289455
*CONN
*I *615:A I *D sg13cmos5l_inv_1
*I *614:Y O *D sg13cmos5l_inv_1
*CAP
1 *615:A 0
2 *614:Y 0.000144727
3 *89:8 0.000144727
4 *89:8 *96:8 0
5 *89:8 *97:8 0
6 *89:8 *209:12 0
*RES
1 *614:Y *89:8 41.8334 
2 *89:8 *615:A 40 
*END

*D_NET *90 0.000328958
*CONN
*I *616:A I *D sg13cmos5l_inv_1
*I *605:Y O *D sg13cmos5l_inv_1
*CAP
1 *616:A 0.0001209
2 *605:Y 0.0001209
3 *616:A *710:A 0
4 *605:A *616:A 8.71573e-05
*RES
1 *605:Y *616:A 41.3519 
*END

*D_NET *91 0.000230576
*CONN
*I *617:A I *D sg13cmos5l_inv_1
*I *615:Y O *D sg13cmos5l_inv_1
*CAP
1 *617:A 0.000115288
2 *615:Y 0.000115288
*RES
1 *615:Y *617:A 41.3802 
*END

*D_NET *92 0.00163618
*CONN
*I *538:A0 I *D sg13cmos5l_mux2_1
*I *618:A I *D sg13cmos5l_inv_1
*I *617:Y O *D sg13cmos5l_inv_1
*CAP
1 *538:A0 0.000410155
2 *618:A 0.000154942
3 *617:Y 0.000188664
4 *92:10 0.000753761
5 *538:A0 *96:8 0
6 *538:A0 *96:18 0
7 *538:A0 *200:94 0
8 *618:A *94:8 0.000128662
9 *618:A *95:8 0
10 *618:A *96:8 0
11 *92:10 *623:A 0
*RES
1 *617:Y *92:10 41.9673 
2 *92:10 *618:A 41.7304 
3 *92:10 *538:A0 44.944 
*END

*D_NET *93 9.45957e-05
*CONN
*I *619:A I *D sg13cmos5l_inv_1
*I *618:Y O *D sg13cmos5l_inv_1
*CAP
1 *619:A 4.72978e-05
2 *618:Y 4.72978e-05
*RES
1 *618:Y *619:A 40.5974 
*END

*D_NET *94 0.000653631
*CONN
*I *620:A I *D sg13cmos5l_inv_1
*I *619:Y O *D sg13cmos5l_inv_1
*CAP
1 *620:A 0
2 *619:Y 9.14239e-05
3 *94:8 9.14239e-05
4 *94:8 *95:8 0.000342122
5 *94:8 *96:8 0
6 *618:A *94:8 0.000128662
*RES
1 *619:Y *94:8 41.5862 
2 *94:8 *620:A 40 
*END

*D_NET *95 0.000721702
*CONN
*I *621:A I *D sg13cmos5l_inv_1
*I *620:Y O *D sg13cmos5l_inv_1
*CAP
1 *621:A 3.00908e-05
2 *620:Y 0.0001597
3 *95:8 0.00018979
4 *95:8 *96:8 0
5 *618:A *95:8 0
6 *94:8 *95:8 0.000342122
*RES
1 *620:Y *95:8 42.3278 
2 *95:8 *621:A 40.3193 
*END

*D_NET *96 0.00169604
*CONN
*I *622:A I *D sg13cmos5l_inv_1
*I *536:A1 I *D sg13cmos5l_mux2_1
*I *621:Y O *D sg13cmos5l_inv_1
*CAP
1 *622:A 0
2 *536:A1 0
3 *621:Y 0.000506819
4 *96:18 0.000171517
5 *96:12 0.0003412
6 *96:8 0.000676502
7 *96:8 *97:8 0
8 *96:12 *536:S 0
9 *96:12 *538:S 0
10 *96:12 *623:A 0
11 *96:18 *200:94 0
12 *96:18 *209:12 0
13 *538:A0 *96:8 0
14 *538:A0 *96:18 0
15 *618:A *96:8 0
16 *89:8 *96:8 0
17 *94:8 *96:8 0
18 *95:8 *96:8 0
*RES
1 *621:Y *96:8 45.5414 
2 *96:8 *96:12 21.6171 
3 *96:12 *96:18 41.8334 
4 *96:18 *536:A1 20 
5 *96:12 *622:A 20 
*END

*D_NET *97 0.000749652
*CONN
*I *623:A I *D sg13cmos5l_inv_1
*I *622:Y O *D sg13cmos5l_inv_1
*CAP
1 *623:A 0.000218193
2 *622:Y 0.000156633
3 *97:8 0.000374826
4 *623:A *624:A 0
5 *614:A *623:A 0
6 *89:8 *97:8 0
7 *92:10 *623:A 0
8 *96:8 *97:8 0
9 *96:12 *623:A 0
*RES
1 *622:Y *97:8 41.8334 
2 *97:8 *623:A 42.2145 
*END

*D_NET *98 0.000251248
*CONN
*I *624:A I *D sg13cmos5l_inv_1
*I *623:Y O *D sg13cmos5l_inv_1
*CAP
1 *624:A 0.000125624
2 *623:Y 0.000125624
3 *624:A *538:S 0
4 *623:A *624:A 0
*RES
1 *623:Y *624:A 41.3802 
*END

*D_NET *99 9.45957e-05
*CONN
*I *625:A I *D sg13cmos5l_inv_1
*I *624:Y O *D sg13cmos5l_inv_1
*CAP
1 *625:A 4.72978e-05
2 *624:Y 4.72978e-05
3 *614:A *625:A 0
*RES
1 *624:Y *625:A 40.5974 
*END

*D_NET *100 0.000362717
*CONN
*I *538:A1 I *D sg13cmos5l_mux2_1
*I *625:Y O *D sg13cmos5l_inv_1
*CAP
1 *538:A1 0.000181359
2 *625:Y 0.000181359
3 *538:A1 *686:A 0
4 *538:A1 *687:A 0
*RES
1 *625:Y *538:A1 42.1527 
*END

*D_NET *101 0.000465616
*CONN
*I *626:A I *D sg13cmos5l_inv_1
*I *616:Y O *D sg13cmos5l_inv_1
*CAP
1 *626:A 0.000232808
2 *616:Y 0.000232808
3 *626:A *628:A 0
4 *626:A *661:A 0
5 *626:A *662:A 0
6 *605:A *626:A 0
*RES
1 *616:Y *626:A 42.7089 
*END

*D_NET *102 0.000133739
*CONN
*I *627:A I *D sg13cmos5l_inv_1
*I *626:Y O *D sg13cmos5l_inv_1
*CAP
1 *627:A 6.68694e-05
2 *626:Y 6.68694e-05
3 *627:A *660:A 0
4 *627:A *661:A 0
*RES
1 *626:Y *627:A 40.8446 
*END

*D_NET *103 0.00166374
*CONN
*I *628:A I *D sg13cmos5l_inv_1
*I *562:A0 I *D sg13cmos5l_mux2_1
*I *627:Y O *D sg13cmos5l_inv_1
*CAP
1 *628:A 4.82357e-05
2 *562:A0 0.000641691
3 *627:Y 0.000102671
4 *103:8 0.000792599
5 *562:A0 *562:A1 4.77425e-05
6 *562:A0 *562:S 1.54008e-05
7 *562:A0 *632:A 0
8 *562:A0 *107:8 0
9 *562:A0 *116:8 0
10 *562:A0 *120:8 0
11 *562:A0 *204:54 0
12 *562:A0 *208:18 0
13 *628:A *629:A 1.54008e-05
14 *103:8 *204:54 0
15 *566:A2 *628:A 0
16 *626:A *628:A 0
*RES
1 *627:Y *103:8 41.339 
2 *103:8 *562:A0 46.5714 
3 *103:8 *628:A 40.5356 
*END

*D_NET *104 0.00027736
*CONN
*I *629:A I *D sg13cmos5l_inv_1
*I *628:Y O *D sg13cmos5l_inv_1
*CAP
1 *629:A 0.00013098
2 *628:Y 0.00013098
3 *628:A *629:A 1.54008e-05
*RES
1 *628:Y *629:A 41.4008 
*END

*D_NET *105 9.45957e-05
*CONN
*I *630:A I *D sg13cmos5l_inv_1
*I *629:Y O *D sg13cmos5l_inv_1
*CAP
1 *630:A 4.72978e-05
2 *629:Y 4.72978e-05
*RES
1 *629:Y *630:A 40.5974 
*END

*D_NET *106 9.45957e-05
*CONN
*I *631:A I *D sg13cmos5l_inv_1
*I *630:Y O *D sg13cmos5l_inv_1
*CAP
1 *631:A 4.72978e-05
2 *630:Y 4.72978e-05
*RES
1 *630:Y *631:A 40.5974 
*END

*D_NET *107 0.000951828
*CONN
*I *564:A0 I *D sg13cmos5l_mux2_1
*I *632:A I *D sg13cmos5l_inv_1
*I *631:Y O *D sg13cmos5l_inv_1
*CAP
1 *564:A0 0
2 *632:A 0.000105374
3 *631:Y 0.00016233
4 *107:8 0.000267704
5 *632:A *564:A1 0.000212543
6 *632:A *116:8 0.000128662
7 *107:8 *564:A1 7.52149e-05
8 *562:A0 *632:A 0
9 *562:A0 *107:8 0
*RES
1 *631:Y *107:8 42.0806 
2 *107:8 *632:A 41.5862 
3 *107:8 *564:A0 40 
*END

*D_NET *108 0.000522067
*CONN
*I *633:A I *D sg13cmos5l_inv_1
*I *583:Y O *D sg13cmos5l_inv_1
*CAP
1 *633:A 3.12507e-05
2 *583:Y 0.000131165
3 *108:8 0.000162415
4 *633:A *644:A 1.54556e-05
5 *571:A *108:8 0
6 *593:A *633:A 0
7 *66:8 *108:8 0.000181781
*RES
1 *583:Y *108:8 41.8334 
2 *108:8 *633:A 40.3193 
*END

*D_NET *109 9.68552e-05
*CONN
*I *634:A I *D sg13cmos5l_inv_1
*I *632:Y O *D sg13cmos5l_inv_1
*CAP
1 *634:A 4.84276e-05
2 *632:Y 4.84276e-05
3 *634:A *562:A1 0
*RES
1 *632:Y *634:A 40.5974 
*END

*D_NET *110 0.000107701
*CONN
*I *635:A I *D sg13cmos5l_inv_1
*I *634:Y O *D sg13cmos5l_inv_1
*CAP
1 *635:A 5.38503e-05
2 *634:Y 5.38503e-05
3 *635:A *562:A1 0
*RES
1 *634:Y *635:A 40.5974 
*END

*D_NET *111 0.000107701
*CONN
*I *636:A I *D sg13cmos5l_inv_1
*I *635:Y O *D sg13cmos5l_inv_1
*CAP
1 *636:A 5.38503e-05
2 *635:Y 5.38503e-05
3 *636:A *562:A1 0
*RES
1 *635:Y *636:A 40.5974 
*END

*D_NET *112 0.00127363
*CONN
*I *637:A I *D sg13cmos5l_inv_1
*I *562:A1 I *D sg13cmos5l_mux2_1
*I *636:Y O *D sg13cmos5l_inv_1
*CAP
1 *637:A 0
2 *562:A1 0.000284644
3 *636:Y 0
4 *112:25 0.000328298
5 *112:4 0.000612942
6 *562:A1 *562:S 0
7 *562:A1 *641:A 0
8 *112:25 *116:8 0
9 *112:25 *120:8 0
10 *112:25 *208:12 0
11 *112:25 *208:18 0
12 *562:A0 *562:A1 4.77425e-05
13 *634:A *562:A1 0
14 *635:A *562:A1 0
15 *636:A *562:A1 0
*RES
1 *636:Y *112:4 20 
2 *112:4 *562:A1 23.1209 
3 *112:4 *112:25 42.9664 
4 *112:25 *637:A 20 
*END

*D_NET *113 0.000718038
*CONN
*I *638:A I *D sg13cmos5l_inv_1
*I *637:Y O *D sg13cmos5l_inv_1
*CAP
1 *638:A 0
2 *637:Y 0.000135177
3 *113:8 0.000135177
4 *113:8 *116:8 0.000447684
5 *113:8 *208:12 0
*RES
1 *637:Y *113:8 42.0806 
2 *113:8 *638:A 40 
*END

*D_NET *114 9.50856e-05
*CONN
*I *639:A I *D sg13cmos5l_inv_1
*I *638:Y O *D sg13cmos5l_inv_1
*CAP
1 *639:A 4.75428e-05
2 *638:Y 4.75428e-05
3 *639:A *648:A 0
4 *639:A *653:A 0
*RES
1 *638:Y *639:A 40.5974 
*END

*D_NET *115 9.54314e-05
*CONN
*I *640:A I *D sg13cmos5l_inv_1
*I *639:Y O *D sg13cmos5l_inv_1
*CAP
1 *640:A 4.77157e-05
2 *639:Y 4.77157e-05
3 *640:A *653:A 0
*RES
1 *639:Y *640:A 40.5974 
*END

*D_NET *116 0.00307495
*CONN
*I *564:A1 I *D sg13cmos5l_mux2_1
*I *641:A I *D sg13cmos5l_inv_1
*I *640:Y O *D sg13cmos5l_inv_1
*CAP
1 *564:A1 0.000112595
2 *641:A 0.000225768
3 *640:Y 0.000767058
4 *116:8 0.00110542
5 *641:A *564:S 0
6 *116:8 *120:8 0
7 *116:8 *208:12 0
8 *562:A0 *116:8 0
9 *562:A1 *641:A 0
10 *632:A *564:A1 0.000212543
11 *632:A *116:8 0.000128662
12 *107:8 *564:A1 7.52149e-05
13 *112:25 *116:8 0
14 *113:8 *116:8 0.000447684
*RES
1 *640:Y *116:8 49.2494 
2 *116:8 *641:A 42.0497 
3 *116:8 *564:A1 41.6583 
*END

*D_NET *117 0.000586552
*CONN
*I *642:A I *D sg13cmos5l_inv_1
*I *641:Y O *D sg13cmos5l_inv_1
*CAP
1 *642:A 6.31016e-05
2 *641:Y 8.60878e-05
3 *117:8 0.000149189
4 *642:A *643:A 0
5 *117:8 *208:18 0.000288173
6 *566:A2 *642:A 0
7 *42:10 *117:8 0
*RES
1 *641:Y *117:8 41.339 
2 *117:8 *642:A 40.5356 
*END

*D_NET *118 0.000256151
*CONN
*I *643:A I *D sg13cmos5l_inv_1
*I *642:Y O *D sg13cmos5l_inv_1
*CAP
1 *643:A 0.000128075
2 *642:Y 0.000128075
3 *566:A2 *643:A 0
4 *642:A *643:A 0
*RES
1 *642:Y *643:A 41.3802 
*END

*D_NET *119 0.000542277
*CONN
*I *644:A I *D sg13cmos5l_inv_1
*I *633:Y O *D sg13cmos5l_inv_1
*CAP
1 *644:A 0.00026341
2 *633:Y 0.00026341
3 *644:A *655:A 0
4 *541:A *644:A 0
5 *541:B *644:A 0
6 *593:A *644:A 0
7 *633:A *644:A 1.54556e-05
8 *18:8 *644:A 0
*RES
1 *633:Y *644:A 42.9664 
*END

*D_NET *120 0.00147906
*CONN
*I *645:A I *D sg13cmos5l_inv_1
*I *643:Y O *D sg13cmos5l_inv_1
*CAP
1 *645:A 0
2 *643:Y 0.000301649
3 *120:8 0.000301649
4 *120:8 *208:18 0.000875761
5 *562:A0 *120:8 0
6 *112:25 *120:8 0
7 *116:8 *120:8 0
*RES
1 *643:Y *120:8 44.0582 
2 *120:8 *645:A 40 
*END

*D_NET *121 0.00272988
*CONN
*I *563:A0 I *D sg13cmos5l_mux2_1
*I *646:A I *D sg13cmos5l_inv_1
*I *645:Y O *D sg13cmos5l_inv_1
*CAP
1 *563:A0 9.68402e-05
2 *646:A 0.000425197
3 *645:Y 0.00056972
4 *121:10 0.00109176
5 *563:A0 *649:A 0.000176861
6 *563:A0 *129:8 0.000176861
7 *646:A *647:A 0
8 *646:A *650:A 0
9 *646:A *651:A 8.00842e-05
10 *646:A *653:A 0.000112563
11 *121:10 *562:S 0
12 *121:10 *125:20 0
13 *121:10 *208:12 0
14 *732:A *646:A 0
15 *40:8 *121:10 0
*RES
1 *645:Y *121:10 45.5826 
2 *121:10 *646:A 44.5629 
3 *121:10 *563:A0 41.1845 
*END

*D_NET *122 0.00153987
*CONN
*I *647:A I *D sg13cmos5l_inv_1
*I *646:Y O *D sg13cmos5l_inv_1
*CAP
1 *647:A 0.000657241
2 *646:Y 0.000657241
3 *647:A *650:A 0.000177477
4 *647:A *651:A 0
5 *647:A *652:A 4.79124e-05
6 *647:A *704:A 0
7 *647:A *125:12 0
8 *647:A *197:8 0
9 *647:A *208:12 0
10 *646:A *647:A 0
*RES
1 *646:Y *647:A 47.2512 
*END

*D_NET *123 0.00261165
*CONN
*I *648:A I *D sg13cmos5l_inv_1
*I *647:Y O *D sg13cmos5l_inv_1
*CAP
1 *648:A 0.000771904
2 *647:Y 0.000378465
3 *123:8 0.00115037
4 *648:A *649:A 0
5 *648:A *653:A 1.11656e-05
6 *648:A *129:8 9.09193e-05
7 *648:A *131:10 0.000208824
8 *123:8 *178:10 0
9 *123:8 *207:14 0
10 *639:A *648:A 0
*RES
1 *647:Y *123:8 43.811 
2 *123:8 *648:A 45.9946 
*END

*D_NET *124 0.00132102
*CONN
*I *649:A I *D sg13cmos5l_inv_1
*I *648:Y O *D sg13cmos5l_inv_1
*CAP
1 *649:A 0.000378862
2 *648:Y 0.000378862
3 *649:A *542:B 0
4 *649:A *653:A 0.000306211
5 *649:A *654:A 0
6 *649:A *125:12 8.02267e-05
7 *649:A *129:8 0
8 *563:A0 *649:A 0.000176861
9 *648:A *649:A 0
*RES
1 *648:Y *649:A 43.3967 
*END

*D_NET *125 0.00460296
*CONN
*I *650:A I *D sg13cmos5l_inv_1
*I *565:A0 I *D sg13cmos5l_mux2_1
*I *649:Y O *D sg13cmos5l_inv_1
*CAP
1 *650:A 0.000232338
2 *565:A0 0
3 *649:Y 0.000349168
4 *125:20 0.000675099
5 *125:12 0.0012566
6 *650:A *652:A 6.47875e-05
7 *650:A *653:A 0
8 *650:A *127:10 0
9 *125:12 *652:A 4.79124e-05
10 *125:12 *653:A 0
11 *125:12 *704:A 8.03692e-05
12 *125:12 *705:A 0
13 *125:20 *563:S 0
14 *125:20 *564:S 0
15 *125:20 *127:10 0
16 *125:20 *128:8 0
17 *125:20 *131:10 0.000446767
18 *646:A *650:A 0
19 *647:A *650:A 0.000177477
20 *647:A *125:12 0
21 *649:A *125:12 8.02267e-05
22 *40:8 *125:20 0.00119221
23 *121:10 *125:20 0
*RES
1 *649:Y *125:12 23.7801 
2 *125:12 *125:20 48.0855 
3 *125:20 *565:A0 20 
4 *125:12 *650:A 22.5029 
*END

*D_NET *126 0.000363246
*CONN
*I *651:A I *D sg13cmos5l_inv_1
*I *650:Y O *D sg13cmos5l_inv_1
*CAP
1 *651:A 4.90966e-05
2 *650:Y 9.24845e-05
3 *126:8 0.000141581
4 *646:A *651:A 8.00842e-05
5 *647:A *651:A 0
*RES
1 *650:Y *126:8 40.8446 
2 *126:8 *651:A 40.5356 
*END

*D_NET *127 0.00080505
*CONN
*I *652:A I *D sg13cmos5l_inv_1
*I *651:Y O *D sg13cmos5l_inv_1
*CAP
1 *652:A 6.2323e-05
2 *651:Y 0.000187711
3 *127:10 0.000250034
4 *127:10 *653:A 0.000144371
5 *127:10 *128:8 0
6 *647:A *652:A 4.79124e-05
7 *650:A *652:A 6.47875e-05
8 *650:A *127:10 0
9 *125:12 *652:A 4.79124e-05
10 *125:20 *127:10 0
*RES
1 *651:Y *127:10 41.8128 
2 *127:10 *652:A 40.7519 
*END

*D_NET *128 0.00192954
*CONN
*I *653:A I *D sg13cmos5l_inv_1
*I *652:Y O *D sg13cmos5l_inv_1
*CAP
1 *653:A 0.000414055
2 *652:Y 8.08335e-05
3 *128:8 0.000494889
4 *128:8 *563:S 7.52149e-05
5 *128:8 *207:14 0.000290234
6 *639:A *653:A 0
7 *640:A *653:A 0
8 *646:A *653:A 0.000112563
9 *648:A *653:A 1.11656e-05
10 *649:A *653:A 0.000306211
11 *650:A *653:A 0
12 *125:12 *653:A 0
13 *125:20 *128:8 0
14 *127:10 *653:A 0.000144371
15 *127:10 *128:8 0
*RES
1 *652:Y *128:8 41.339 
2 *128:8 *653:A 44.7303 
*END

*D_NET *129 0.00126991
*CONN
*I *654:A I *D sg13cmos5l_inv_1
*I *563:A1 I *D sg13cmos5l_mux2_1
*I *653:Y O *D sg13cmos5l_inv_1
*CAP
1 *654:A 0.000222214
2 *563:A1 0
3 *653:Y 0.000174438
4 *129:8 0.000396652
5 *654:A *131:10 0.000208824
6 *563:A0 *129:8 0.000176861
7 *648:A *129:8 9.09193e-05
8 *649:A *654:A 0
9 *649:A *129:8 0
*RES
1 *653:Y *129:8 22.2145 
2 *129:8 *563:A1 20 
3 *129:8 *654:A 22.4308 
*END

*D_NET *130 0.000237437
*CONN
*I *655:A I *D sg13cmos5l_inv_1
*I *644:Y O *D sg13cmos5l_inv_1
*CAP
1 *655:A 0.000118718
2 *644:Y 0.000118718
3 *655:A *677:A 0
4 *541:A *655:A 0
5 *644:A *655:A 0
*RES
1 *644:Y *655:A 41.3802 
*END

*D_NET *131 0.00243422
*CONN
*I *656:A I *D sg13cmos5l_inv_1
*I *654:Y O *D sg13cmos5l_inv_1
*CAP
1 *656:A 0.000238025
2 *654:Y 0.000202544
3 *131:10 0.000440569
4 *656:A *657:A 0.000241396
5 *131:10 *563:S 0.000447269
6 *648:A *131:10 0.000208824
7 *654:A *131:10 0.000208824
8 *125:20 *131:10 0.000446767
*RES
1 *654:Y *131:10 43.4814 
2 *131:10 *656:A 42.266 
*END

*D_NET *132 0.000650073
*CONN
*I *657:A I *D sg13cmos5l_inv_1
*I *656:Y O *D sg13cmos5l_inv_1
*CAP
1 *657:A 0.000204339
2 *656:Y 0.000204339
3 *656:A *657:A 0.000241396
*RES
1 *656:Y *657:A 41.6171 
*END

*D_NET *133 0.00204329
*CONN
*I *658:A I *D sg13cmos5l_inv_1
*I *657:Y O *D sg13cmos5l_inv_1
*CAP
1 *658:A 0.000131839
2 *657:Y 0.00012332
3 *133:8 0.000255159
4 *658:A *562:S 0
5 *658:A *134:8 0
6 *658:A *199:40 0.00020902
7 *133:8 *563:S 0.00060761
8 *133:8 *564:S 5.30319e-05
9 *133:8 *207:14 0.000663315
*RES
1 *657:Y *133:8 43.0694 
2 *133:8 *658:A 41.4008 
*END

*D_NET *134 0.00340681
*CONN
*I *565:A1 I *D sg13cmos5l_mux2_1
*I *659:A I *D sg13cmos5l_inv_1
*I *658:Y O *D sg13cmos5l_inv_1
*CAP
1 *565:A1 0
2 *659:A 0
3 *658:Y 0.000169275
4 *134:16 0.000559967
5 *134:8 0.000729243
6 *134:8 *562:S 0.000176449
7 *134:8 *700:A 0
8 *134:16 *564:S 0.000501045
9 *134:16 *204:37 0
10 *134:16 *204:54 0
11 *134:16 *206:37 0.000502047
12 *134:16 *207:14 0
13 *658:A *134:8 0
14 *40:8 *134:16 0
15 *42:10 *134:16 0.000768781
*RES
1 *658:Y *134:8 21.7819 
2 *134:8 *134:16 47.5911 
3 *134:16 *659:A 20 
4 *134:8 *565:A1 20 
*END

*D_NET *135 0.000133739
*CONN
*I *660:A I *D sg13cmos5l_inv_1
*I *659:Y O *D sg13cmos5l_inv_1
*CAP
1 *660:A 6.68694e-05
2 *659:Y 6.68694e-05
3 *627:A *660:A 0
*RES
1 *659:Y *660:A 40.8446 
*END

*D_NET *136 0.000102278
*CONN
*I *661:A I *D sg13cmos5l_inv_1
*I *660:Y O *D sg13cmos5l_inv_1
*CAP
1 *661:A 5.1139e-05
2 *660:Y 5.1139e-05
3 *626:A *661:A 0
4 *627:A *661:A 0
*RES
1 *660:Y *661:A 40.5974 
*END

*D_NET *137 0.00111752
*CONN
*I *662:A I *D sg13cmos5l_inv_1
*I *661:Y O *D sg13cmos5l_inv_1
*CAP
1 *662:A 0.000186114
2 *661:Y 0.000148802
3 *137:8 0.000334916
4 *662:A *553:A2 0
5 *137:8 *204:54 0.000447684
6 *137:8 *206:37 0
7 *626:A *662:A 0
*RES
1 *661:Y *137:8 42.0806 
2 *137:8 *662:A 41.7769 
*END

*D_NET *138 0.000900157
*CONN
*I *663:A I *D sg13cmos5l_inv_1
*I *553:A2 I *D sg13cmos5l_o21ai_1
*I *662:Y O *D sg13cmos5l_inv_1
*CAP
1 *663:A 0
2 *553:A2 0.000228763
3 *662:Y 0.000141078
4 *138:6 0.000369841
5 *553:A2 *664:A 0
6 *553:A2 *201:41 1.54556e-05
7 *553:B1 *553:A2 0.00014502
8 *662:A *553:A2 0
*RES
1 *662:Y *138:6 21.8334 
2 *138:6 *553:A2 22.7192 
3 *138:6 *663:A 20 
*END

*D_NET *139 9.57626e-05
*CONN
*I *664:A I *D sg13cmos5l_inv_1
*I *663:Y O *D sg13cmos5l_inv_1
*CAP
1 *664:A 4.78813e-05
2 *663:Y 4.78813e-05
3 *553:A2 *664:A 0
*RES
1 *663:Y *664:A 40.5974 
*END

*D_NET *140 0.000133739
*CONN
*I *665:A I *D sg13cmos5l_inv_1
*I *664:Y O *D sg13cmos5l_inv_1
*CAP
1 *665:A 6.68694e-05
2 *664:Y 6.68694e-05
*RES
1 *664:Y *665:A 40.8446 
*END

*D_NET *141 9.45957e-05
*CONN
*I *666:A I *D sg13cmos5l_inv_1
*I *655:Y O *D sg13cmos5l_inv_1
*CAP
1 *666:A 4.72978e-05
2 *655:Y 4.72978e-05
*RES
1 *655:Y *666:A 40.5974 
*END

*D_NET *142 0.000212025
*CONN
*I *667:A I *D sg13cmos5l_inv_1
*I *665:Y O *D sg13cmos5l_inv_1
*CAP
1 *667:A 0.000106012
2 *665:Y 0.000106012
*RES
1 *665:Y *667:A 41.339 
*END

*D_NET *143 0.000708799
*CONN
*I *668:A I *D sg13cmos5l_inv_1
*I *555:A2 I *D sg13cmos5l_o21ai_1
*I *667:Y O *D sg13cmos5l_inv_1
*CAP
1 *668:A 0.000128529
2 *555:A2 0
3 *667:Y 6.68694e-05
4 *143:14 0.000121393
5 *143:6 0.000316791
6 *668:A *552:A_N 0
7 *668:A *147:25 0
8 *143:14 *200:50 7.52158e-05
9 *555:B1 *668:A 0
10 *555:B1 *143:14 0
11 *29:10 *143:14 0
*RES
1 *667:Y *143:6 20.8446 
2 *143:6 *143:14 41.3802 
3 *143:14 *555:A2 20 
4 *143:6 *668:A 21.4008 
*END

*D_NET *144 9.45957e-05
*CONN
*I *669:A I *D sg13cmos5l_inv_1
*I *668:Y O *D sg13cmos5l_inv_1
*CAP
1 *669:A 4.72978e-05
2 *668:Y 4.72978e-05
*RES
1 *668:Y *669:A 40.5974 
*END

*D_NET *145 9.45957e-05
*CONN
*I *670:A I *D sg13cmos5l_inv_1
*I *669:Y O *D sg13cmos5l_inv_1
*CAP
1 *670:A 4.72978e-05
2 *669:Y 4.72978e-05
*RES
1 *669:Y *670:A 40.5974 
*END

*D_NET *146 9.45957e-05
*CONN
*I *671:A I *D sg13cmos5l_inv_1
*I *670:Y O *D sg13cmos5l_inv_1
*CAP
1 *671:A 4.72978e-05
2 *670:Y 4.72978e-05
*RES
1 *670:Y *671:A 40.5974 
*END

*D_NET *147 0.000972794
*CONN
*I *672:A I *D sg13cmos5l_inv_1
*I *552:A_N I *D sg13cmos5l_nand2b_1
*I *671:Y O *D sg13cmos5l_inv_1
*CAP
1 *672:A 0
2 *552:A_N 0.000195319
3 *671:Y 0
4 *147:25 0.000283372
5 *147:4 0.000478691
6 *552:A_N *552:B 1.5412e-05
7 *668:A *552:A_N 0
8 *668:A *147:25 0
9 *29:10 *552:A_N 0
10 *31:8 *147:25 0
*RES
1 *671:Y *147:4 20 
2 *147:4 *552:A_N 21.854 
3 *147:4 *147:25 42.9664 
4 *147:25 *672:A 20 
*END

*D_NET *148 0.000327757
*CONN
*I *673:A I *D sg13cmos5l_inv_1
*I *672:Y O *D sg13cmos5l_inv_1
*CAP
1 *673:A 0
2 *672:Y 0.000163879
3 *148:8 0.000163879
4 *31:8 *148:8 0
*RES
1 *672:Y *148:8 41.8334 
2 *148:8 *673:A 40 
*END

*D_NET *149 9.45957e-05
*CONN
*I *674:A I *D sg13cmos5l_inv_1
*I *673:Y O *D sg13cmos5l_inv_1
*CAP
1 *674:A 4.72978e-05
2 *673:Y 4.72978e-05
*RES
1 *673:Y *674:A 40.5974 
*END

*D_NET *150 0.00161516
*CONN
*I *675:A I *D sg13cmos5l_inv_1
*I *674:Y O *D sg13cmos5l_inv_1
*CAP
1 *675:A 4.03686e-05
2 *674:Y 0.000255818
3 *150:10 0.000296187
4 *150:10 *676:A 7.56308e-05
5 *150:10 *151:8 0.000553334
6 *31:8 *150:10 0.000393822
*RES
1 *674:Y *150:10 44.0067 
2 *150:10 *675:A 40.3193 
*END

*D_NET *151 0.00152335
*CONN
*I *676:A I *D sg13cmos5l_inv_1
*I *554:A_N I *D sg13cmos5l_nand2b_1
*I *675:Y O *D sg13cmos5l_inv_1
*CAP
1 *676:A 3.70778e-05
2 *554:A_N 0
3 *675:Y 0.000133031
4 *151:8 0.000170109
5 *676:A *155:8 0
6 *151:8 *200:63 0.000554163
7 *31:8 *151:8 0
8 *150:10 *676:A 7.56308e-05
9 *150:10 *151:8 0.000553334
*RES
1 *675:Y *151:8 42.8222 
2 *151:8 *554:A_N 40 
3 *151:8 *676:A 40.5974 
*END

*D_NET *152 0.000286834
*CONN
*I *677:A I *D sg13cmos5l_inv_1
*I *666:Y O *D sg13cmos5l_inv_1
*CAP
1 *677:A 0.000143417
2 *666:Y 0.000143417
3 *655:A *677:A 0
*RES
1 *666:Y *677:A 41.4008 
*END

*D_NET *153 0.00160748
*CONN
*I *678:A I *D sg13cmos5l_inv_1
*I *676:Y O *D sg13cmos5l_inv_1
*CAP
1 *678:A 0
2 *676:Y 0.00034877
3 *153:10 0.00034877
4 *153:10 *556:B 0
5 *153:10 *681:A 1.54008e-05
6 *153:10 *154:8 0.000713346
7 *153:10 *155:8 0.000181192
8 *153:10 *200:63 0
*RES
1 *676:Y *153:10 44.9337 
2 *153:10 *678:A 40 
*END

*D_NET *154 0.00193894
*CONN
*I *679:A I *D sg13cmos5l_inv_1
*I *678:Y O *D sg13cmos5l_inv_1
*CAP
1 *679:A 3.56677e-05
2 *678:Y 0.0002092
3 *154:8 0.000244868
4 *154:8 *557:A2 0.000553835
5 *154:8 *681:A 0.000182023
6 *154:8 *155:8 0
7 *154:8 *157:10 0
8 *154:8 *160:12 0
9 *154:8 *200:63 0
10 *153:10 *154:8 0.000713346
*RES
1 *678:Y *154:8 44.0582 
2 *154:8 *679:A 40.3193 
*END

*D_NET *155 0.000546301
*CONN
*I *680:A I *D sg13cmos5l_inv_1
*I *679:Y O *D sg13cmos5l_inv_1
*CAP
1 *680:A 3.12714e-05
2 *679:Y 0.000127398
3 *155:8 0.000158669
4 *680:A *556:B 4.77702e-05
5 *155:8 *157:10 0
6 *676:A *155:8 0
7 *153:10 *155:8 0.000181192
8 *154:8 *155:8 0
*RES
1 *679:Y *155:8 41.5862 
2 *155:8 *680:A 40.3193 
*END

*D_NET *156 0.00237474
*CONN
*I *681:A I *D sg13cmos5l_inv_1
*I *557:A2 I *D sg13cmos5l_o21ai_1
*I *680:Y O *D sg13cmos5l_inv_1
*CAP
1 *681:A 0.000104261
2 *557:A2 0.000569
3 *680:Y 0
4 *156:6 0.000673261
5 *557:A2 *539:S0 0.000181192
6 *557:A2 *160:12 0
7 *557:A2 *200:63 0
8 *681:A *157:10 1.54008e-05
9 *681:A *160:12 0
10 *557:B1 *557:A2 8.03692e-05
11 *33:8 *557:A2 0
12 *34:10 *557:A2 0
13 *37:8 *557:A2 0
14 *153:10 *681:A 1.54008e-05
15 *154:8 *557:A2 0.000553835
16 *154:8 *681:A 0.000182023
*RES
1 *680:Y *156:6 40 
2 *156:6 *557:A2 46.4478 
3 *156:6 *681:A 41.3802 
*END

*D_NET *157 0.000602918
*CONN
*I *682:A I *D sg13cmos5l_inv_1
*I *681:Y O *D sg13cmos5l_inv_1
*CAP
1 *682:A 0
2 *681:Y 0.000293758
3 *157:10 0.000293758
4 *157:10 *556:B 0
5 *157:10 *556:A_N 0
6 *157:10 *160:12 0
7 *681:A *157:10 1.54008e-05
8 *154:8 *157:10 0
9 *155:8 *157:10 0
*RES
1 *681:Y *157:10 43.2342 
2 *157:10 *682:A 40 
*END

*D_NET *158 0.00023794
*CONN
*I *683:A I *D sg13cmos5l_inv_1
*I *682:Y O *D sg13cmos5l_inv_1
*CAP
1 *683:A 0.00011897
2 *682:Y 0.00011897
3 *683:A *556:A_N 0
4 *683:A *685:A 0
*RES
1 *682:Y *683:A 41.3802 
*END

*D_NET *159 0.000112161
*CONN
*I *684:A I *D sg13cmos5l_inv_1
*I *683:Y O *D sg13cmos5l_inv_1
*CAP
1 *684:A 5.60806e-05
2 *683:Y 5.60806e-05
3 *684:A *685:A 0
*RES
1 *683:Y *684:A 40.5974 
*END

*D_NET *160 0.00223678
*CONN
*I *685:A I *D sg13cmos5l_inv_1
*I *559:A2 I *D sg13cmos5l_o21ai_1
*I *684:Y O *D sg13cmos5l_inv_1
*CAP
1 *685:A 0.000224585
2 *559:A2 0
3 *684:Y 0
4 *160:12 0.00085371
5 *160:4 0.00107829
6 *685:A *556:A_N 0
7 *685:A *686:A 0
8 *160:12 *539:S0 0
9 *160:12 *557:A1 0
10 *160:12 *165:12 0
11 *160:12 *166:8 0
12 *557:A2 *160:12 0
13 *559:B1 *160:12 8.01938e-05
14 *681:A *160:12 0
15 *683:A *685:A 0
16 *684:A *685:A 0
17 *33:8 *160:12 0
18 *37:14 *160:12 0
19 *154:8 *160:12 0
20 *157:10 *160:12 0
*RES
1 *684:Y *160:4 20 
2 *160:4 *160:12 48.7962 
3 *160:12 *559:A2 20 
4 *160:4 *685:A 22.4308 
*END

*D_NET *161 0.000232103
*CONN
*I *686:A I *D sg13cmos5l_inv_1
*I *685:Y O *D sg13cmos5l_inv_1
*CAP
1 *686:A 0.000116052
2 *685:Y 0.000116052
3 *538:A1 *686:A 0
4 *685:A *686:A 0
*RES
1 *685:Y *686:A 41.3802 
*END

*D_NET *162 0.000100875
*CONN
*I *687:A I *D sg13cmos5l_inv_1
*I *686:Y O *D sg13cmos5l_inv_1
*CAP
1 *687:A 5.04373e-05
2 *686:Y 5.04373e-05
3 *538:A1 *687:A 0
*RES
1 *686:Y *687:A 40.5974 
*END

*D_NET *163 0.000102278
*CONN
*I *688:A I *D sg13cmos5l_inv_1
*I *677:Y O *D sg13cmos5l_inv_1
*CAP
1 *688:A 5.1139e-05
2 *677:Y 5.1139e-05
3 *688:A *699:A 0
4 *688:A *710:A 0
*RES
1 *677:Y *688:A 40.5974 
*END

*D_NET *164 0.000107701
*CONN
*I *689:A I *D sg13cmos5l_inv_1
*I *687:Y O *D sg13cmos5l_inv_1
*CAP
1 *689:A 5.38503e-05
2 *687:Y 5.38503e-05
3 *689:A *556:A_N 0
*RES
1 *687:Y *689:A 40.5974 
*END

*D_NET *165 0.000990569
*CONN
*I *556:A_N I *D sg13cmos5l_nand2b_1
*I *690:A I *D sg13cmos5l_inv_1
*I *689:Y O *D sg13cmos5l_inv_1
*CAP
1 *556:A_N 0.000232423
2 *690:A 0
3 *689:Y 0
4 *165:12 0.000262861
5 *165:4 0.000495284
6 *556:A_N *556:B 0
7 *683:A *556:A_N 0
8 *685:A *556:A_N 0
9 *689:A *556:A_N 0
10 *15:10 *165:12 0
11 *157:10 *556:A_N 0
12 *160:12 *165:12 0
*RES
1 *689:Y *165:4 20 
2 *165:4 *165:12 42.5853 
3 *165:12 *690:A 20 
4 *165:4 *556:A_N 22.4617 
*END

*D_NET *166 0.000381082
*CONN
*I *691:A I *D sg13cmos5l_inv_1
*I *690:Y O *D sg13cmos5l_inv_1
*CAP
1 *691:A 0
2 *690:Y 0.000190541
3 *166:8 0.000190541
4 *15:10 *166:8 0
5 *160:12 *166:8 0
*RES
1 *690:Y *166:8 42.0806 
2 *166:8 *691:A 40 
*END

*D_NET *167 0.000133739
*CONN
*I *692:A I *D sg13cmos5l_inv_1
*I *691:Y O *D sg13cmos5l_inv_1
*CAP
1 *692:A 6.68694e-05
2 *691:Y 6.68694e-05
3 *692:A *539:S0 0
*RES
1 *691:Y *692:A 40.8446 
*END

*D_NET *168 9.45957e-05
*CONN
*I *693:A I *D sg13cmos5l_inv_1
*I *692:Y O *D sg13cmos5l_inv_1
*CAP
1 *693:A 4.72978e-05
2 *692:Y 4.72978e-05
3 *539:A2 *693:A 0
*RES
1 *692:Y *693:A 40.5974 
*END

*D_NET *169 0.000456863
*CONN
*I *558:A_N I *D sg13cmos5l_nand2b_1
*I *694:A I *D sg13cmos5l_inv_1
*I *693:Y O *D sg13cmos5l_inv_1
*CAP
1 *558:A_N 0
2 *694:A 9.86601e-05
3 *693:Y 0.000129771
4 *169:8 0.000228432
5 *15:10 *169:8 0
6 *37:14 *694:A 0
7 *37:14 *169:8 0
*RES
1 *693:Y *169:8 41.339 
2 *169:8 *694:A 41.0918 
3 *169:8 *558:A_N 40 
*END

*D_NET *170 0.000287537
*CONN
*I *695:A I *D sg13cmos5l_inv_1
*I *694:Y O *D sg13cmos5l_inv_1
*CAP
1 *695:A 2.78714e-05
2 *694:Y 9.19873e-05
3 *170:8 0.000119859
4 *695:A *201:33 4.78195e-05
5 *16:8 *170:8 0
6 *37:14 *170:8 0
*RES
1 *694:Y *170:8 41.0918 
2 *170:8 *695:A 40.3193 
*END

*D_NET *171 0.000133739
*CONN
*I *696:A I *D sg13cmos5l_inv_1
*I *695:Y O *D sg13cmos5l_inv_1
*CAP
1 *696:A 6.68694e-05
2 *695:Y 6.68694e-05
*RES
1 *695:Y *696:A 40.8446 
*END

*D_NET *172 0.000133739
*CONN
*I *697:A I *D sg13cmos5l_inv_1
*I *696:Y O *D sg13cmos5l_inv_1
*CAP
1 *697:A 6.68694e-05
2 *696:Y 6.68694e-05
*RES
1 *696:Y *697:A 40.8446 
*END

*D_NET *173 0.00498319
*CONN
*I *698:A I *D sg13cmos5l_inv_1
*I *543:A2 I *D sg13cmos5l_o21ai_1
*I *697:Y O *D sg13cmos5l_inv_1
*CAP
1 *698:A 3.20375e-05
2 *543:A2 0.000106958
3 *697:Y 0
4 *173:8 0.000914749
5 *173:6 0.000775754
6 *543:A2 *543:A1 1.54556e-05
7 *543:A2 *701:A 0
8 *543:A2 *198:76 0
9 *543:A2 *205:20 0.000235228
10 *698:A *198:76 0
11 *698:A *206:29 0
12 *173:8 *561:B_N 0
13 *173:8 *205:20 0.00261351
14 *173:8 *207:35 0
15 *173:8 *208:39 0
16 *37:14 *173:8 0
17 *38:8 *173:8 0.000289504
*RES
1 *697:Y *173:6 40 
2 *173:6 *173:8 12.2158 
3 *173:8 *543:A2 41.4111 
4 *173:8 *698:A 40.291 
*END

*D_NET *174 0.000445085
*CONN
*I *699:A I *D sg13cmos5l_inv_1
*I *688:Y O *D sg13cmos5l_inv_1
*CAP
1 *699:A 0.000222543
2 *688:Y 0.000222543
3 *699:A *201:41 0
4 *594:A *699:A 0
5 *688:A *699:A 0
*RES
1 *688:Y *699:A 42.2145 
*END

*D_NET *175 0.000875352
*CONN
*I *700:A I *D sg13cmos5l_inv_1
*I *698:Y O *D sg13cmos5l_inv_1
*CAP
1 *700:A 0.000276956
2 *698:Y 0.000276956
3 *700:A *543:A1 0
4 *700:A *562:S 0
5 *700:A *701:A 0.000144261
6 *700:A *177:10 0
7 *700:A *199:40 0.00017718
8 *550:A0 *700:A 0
9 *134:8 *700:A 0
*RES
1 *698:Y *700:A 42.9561 
*END

*D_NET *176 0.00128087
*CONN
*I *701:A I *D sg13cmos5l_inv_1
*I *700:Y O *D sg13cmos5l_inv_1
*CAP
1 *701:A 0.000295074
2 *700:Y 0.000295074
3 *701:A *543:A1 0
4 *701:A *562:S 0
5 *701:A *177:10 0.000434868
6 *701:A *198:76 0
7 *543:A2 *701:A 0
8 *550:A0 *701:A 0.00011159
9 *700:A *701:A 0.000144261
*RES
1 *700:Y *701:A 43.3475 
*END

*D_NET *177 0.00161329
*CONN
*I *702:A I *D sg13cmos5l_inv_1
*I *701:Y O *D sg13cmos5l_inv_1
*CAP
1 *702:A 0
2 *701:Y 0.000589211
3 *177:10 0.000589211
4 *177:10 *199:40 0
5 *177:10 *207:14 0
6 *700:A *177:10 0
7 *701:A *177:10 0.000434868
*RES
1 *701:Y *177:10 45.6444 
2 *177:10 *702:A 40 
*END

*D_NET *178 0.00237708
*CONN
*I *547:A2 I *D sg13cmos5l_o21ai_1
*I *703:A I *D sg13cmos5l_inv_1
*I *702:Y O *D sg13cmos5l_inv_1
*CAP
1 *547:A2 0.000229337
2 *703:A 0.000116051
3 *702:Y 0.000318102
4 *178:10 0.00066349
5 *547:A2 *542:B 0.000159443
6 *547:A2 *547:A1 8.01938e-05
7 *703:A *542:B 4.77425e-05
8 *703:A *542:A_N 0.00012816
9 *703:A *706:A 0
10 *703:A *206:12 0
11 *178:10 *199:40 0.000144994
12 *178:10 *206:12 0
13 *547:B1 *547:A2 1.54556e-05
14 *19:10 *547:A2 8.03692e-05
15 *19:10 *178:10 0.000393736
16 *123:8 *178:10 0
*RES
1 *702:Y *178:10 43.4814 
2 *178:10 *703:A 41.4111 
3 *178:10 *547:A2 42.5029 
*END

*D_NET *179 0.000427825
*CONN
*I *704:A I *D sg13cmos5l_inv_1
*I *703:Y O *D sg13cmos5l_inv_1
*CAP
1 *704:A 0.000173728
2 *703:Y 0.000173728
3 *704:A *706:A 0
4 *704:A *197:8 0
5 *647:A *704:A 0
6 *125:12 *704:A 8.03692e-05
*RES
1 *703:Y *704:A 41.1401 
*END

*D_NET *180 0.000112161
*CONN
*I *705:A I *D sg13cmos5l_inv_1
*I *704:Y O *D sg13cmos5l_inv_1
*CAP
1 *705:A 5.60806e-05
2 *704:Y 5.60806e-05
3 *125:12 *705:A 0
*RES
1 *704:Y *705:A 40.5974 
*END

*D_NET *181 0.000305481
*CONN
*I *706:A I *D sg13cmos5l_inv_1
*I *705:Y O *D sg13cmos5l_inv_1
*CAP
1 *706:A 0.00015274
2 *705:Y 0.00015274
3 *706:A *542:B 0
4 *706:A *197:8 0
5 *703:A *706:A 0
6 *704:A *706:A 0
*RES
1 *705:Y *706:A 41.6171 
*END

*D_NET *182 0.000509627
*CONN
*I *542:A_N I *D sg13cmos5l_nand2b_1
*I *707:A I *D sg13cmos5l_inv_1
*I *706:Y O *D sg13cmos5l_inv_1
*CAP
1 *542:A_N 9.58159e-05
2 *707:A 0
3 *706:Y 9.49173e-05
4 *182:8 0.000190733
5 *542:A_N *206:12 0
6 *182:8 *206:12 0
7 *703:A *542:A_N 0.00012816
*RES
1 *706:Y *182:8 41.0918 
2 *182:8 *707:A 40 
3 *182:8 *542:A_N 41.339 
*END

*D_NET *183 0.000370451
*CONN
*I *708:A I *D sg13cmos5l_inv_1
*I *707:Y O *D sg13cmos5l_inv_1
*CAP
1 *708:A 0.000185226
2 *707:Y 0.000185226
3 *708:A *542:B 0
4 *708:A *546:B 0
5 *708:A *709:A 0
6 *708:A *197:8 0
7 *708:A *206:8 0
*RES
1 *707:Y *708:A 41.751 
*END

*D_NET *184 0.000505237
*CONN
*I *709:A I *D sg13cmos5l_inv_1
*I *708:Y O *D sg13cmos5l_inv_1
*CAP
1 *709:A 0.000252619
2 *708:Y 0.000252619
3 *709:A *711:A 0
4 *709:A *712:A 0
5 *709:A *197:8 0
6 *708:A *709:A 0
*RES
1 *708:Y *709:A 42.4617 
*END

*D_NET *185 9.47398e-05
*CONN
*I *710:A I *D sg13cmos5l_inv_1
*I *699:Y O *D sg13cmos5l_inv_1
*CAP
1 *710:A 4.73699e-05
2 *699:Y 4.73699e-05
3 *616:A *710:A 0
4 *688:A *710:A 0
*RES
1 *699:Y *710:A 40.5974 
*END

*D_NET *186 0.000964204
*CONN
*I *711:A I *D sg13cmos5l_inv_1
*I *709:Y O *D sg13cmos5l_inv_1
*CAP
1 *711:A 0.000174934
2 *709:Y 0.000112645
3 *186:8 0.000287579
4 *711:A *712:A 0
5 *711:A *197:8 0
6 *711:A *205:10 4.74248e-05
7 *186:8 *189:8 0
8 *186:8 *205:10 0.000341621
9 *709:A *711:A 0
*RES
1 *709:Y *186:8 41.5862 
2 *186:8 *711:A 41.6171 
*END

*D_NET *187 0.0010465
*CONN
*I *712:A I *D sg13cmos5l_inv_1
*I *546:A_N I *D sg13cmos5l_nand2b_1
*I *711:Y O *D sg13cmos5l_inv_1
*CAP
1 *712:A 0.000313116
2 *546:A_N 0
3 *711:Y 0.000153761
4 *187:8 0.000466877
5 *712:A *205:10 0
6 *187:8 *205:10 0
7 *187:8 *206:12 0
8 *547:B1 *712:A 0.000112749
9 *709:A *712:A 0
10 *711:A *712:A 0
*RES
1 *711:Y *187:8 41.5862 
2 *187:8 *546:A_N 40 
3 *187:8 *712:A 43.1106 
*END

*D_NET *188 0.000742877
*CONN
*I *713:A I *D sg13cmos5l_inv_1
*I *712:Y O *D sg13cmos5l_inv_1
*CAP
1 *713:A 0.000267333
2 *712:Y 0.000267333
3 *713:A *715:A 0.000208212
4 *713:A *718:A 0
5 *713:A *197:8 0
*RES
1 *712:Y *713:A 43.09 
*END

*D_NET *189 0.000431432
*CONN
*I *714:A I *D sg13cmos5l_inv_1
*I *713:Y O *D sg13cmos5l_inv_1
*CAP
1 *714:A 0
2 *713:Y 0.000215716
3 *189:8 0.000215716
4 *189:8 *545:A2 0
5 *189:8 *716:A 0
6 *189:8 *194:8 0
7 *189:8 *205:10 0
8 *186:8 *189:8 0
*RES
1 *713:Y *189:8 42.3278 
2 *189:8 *714:A 40 
*END

*D_NET *190 0.000720118
*CONN
*I *715:A I *D sg13cmos5l_inv_1
*I *714:Y O *D sg13cmos5l_inv_1
*CAP
1 *715:A 0.000255953
2 *714:Y 0.000255953
3 *715:A *720:A 0
4 *715:A *195:6 0
5 *715:A *195:27 0
6 *715:A *197:8 0
7 *547:B1 *715:A 0
8 *713:A *715:A 0.000208212
*RES
1 *714:Y *715:A 42.9458 
*END

*D_NET *191 0.00257866
*CONN
*I *545:A2 I *D sg13cmos5l_o21ai_1
*I *716:A I *D sg13cmos5l_inv_1
*I *715:Y O *D sg13cmos5l_inv_1
*CAP
1 *545:A2 0.000896419
2 *716:A 0.000224474
3 *715:Y 0
4 *191:6 0.00112089
5 *545:A2 *194:8 0
6 *545:A2 *195:27 0
7 *545:A2 *197:12 0
8 *716:A *718:A 0
9 *716:A *192:10 1.54556e-05
10 *716:A *194:8 0
11 *716:A *197:8 0
12 *716:A *197:12 0
13 *544:A_N *545:A2 0
14 *545:B1 *545:A2 0
15 *550:A1 *545:A2 0
16 *588:A *545:A2 8.01982e-05
17 *58:10 *545:A2 0
18 *59:10 *545:A2 0.000113064
19 *61:10 *545:A2 0.00012816
20 *189:8 *545:A2 0
21 *189:8 *716:A 0
*RES
1 *715:Y *191:6 40 
2 *191:6 *716:A 42.0909 
3 *191:6 *545:A2 48.7241 
*END

*D_NET *192 0.000872105
*CONN
*I *717:A I *D sg13cmos5l_inv_1
*I *716:Y O *D sg13cmos5l_inv_1
*CAP
1 *717:A 5.525e-05
2 *716:Y 0.000349368
3 *192:10 0.000404618
4 *192:10 *718:A 0
5 *192:10 *197:8 0
6 *192:10 *204:8 4.74145e-05
7 *192:10 *204:18 0
8 *716:A *192:10 1.54556e-05
*RES
1 *716:Y *192:10 42.7707 
2 *192:10 *717:A 40.5356 
*END

*D_NET *193 0.000564985
*CONN
*I *718:A I *D sg13cmos5l_inv_1
*I *717:Y O *D sg13cmos5l_inv_1
*CAP
1 *718:A 0.000282492
2 *717:Y 0.000282492
3 *713:A *718:A 0
4 *716:A *718:A 0
5 *192:10 *718:A 0
*RES
1 *717:Y *718:A 42.1133 
*END

*D_NET *194 0.000311493
*CONN
*I *719:A I *D sg13cmos5l_inv_1
*I *718:Y O *D sg13cmos5l_inv_1
*CAP
1 *719:A 0
2 *718:Y 0.000155747
3 *194:8 0.000155747
4 *545:A2 *194:8 0
5 *716:A *194:8 0
6 *189:8 *194:8 0
*RES
1 *718:Y *194:8 41.5862 
2 *194:8 *719:A 40 
*END

*D_NET *195 0.00220318
*CONN
*I *549:A2 I *D sg13cmos5l_o21ai_1
*I *720:A I *D sg13cmos5l_inv_1
*I *719:Y O *D sg13cmos5l_inv_1
*CAP
1 *549:A2 0
2 *720:A 3.0096e-05
3 *719:Y 5.11484e-05
4 *195:27 0.000956314
5 *195:6 0.00103756
6 *195:27 *545:A1 0
7 *195:27 *549:A1 0
8 *195:27 *197:12 0
9 *195:27 *205:10 0
10 *545:A2 *195:27 0
11 *549:B1 *195:27 8.03256e-05
12 *588:A *195:27 0
13 *715:A *720:A 0
14 *715:A *195:6 0
15 *715:A *195:27 0
16 *58:10 *195:27 4.77421e-05
17 *63:10 *195:27 0
*RES
1 *719:Y *195:6 20.5974 
2 *195:6 *720:A 20.3193 
3 *195:6 *195:27 49.6923 
4 *195:27 *549:A2 20 
*END

*D_NET *196 0.000535968
*CONN
*I *721:A I *D sg13cmos5l_inv_1
*I *710:Y O *D sg13cmos5l_inv_1
*CAP
1 *721:A 0
2 *710:Y 9.69233e-05
3 *196:8 9.69233e-05
4 *37:14 *196:8 0
5 *68:8 *196:8 0.000342122
*RES
1 *710:Y *196:8 41.5862 
2 *196:8 *721:A 40 
*END

*D_NET *197 0.0109956
*CONN
*I *722:RESET_B I *D sg13cmos5l_dfrbp_1
*I *570:A I *D sg13cmos5l_inv_1
*I *724:RESET_B I *D sg13cmos5l_dfrbp_1
*I *723:RESET_B I *D sg13cmos5l_dfrbp_1
*I *725:X O *D sg13cmos5l_buf_1
*CAP
1 *722:RESET_B 0.000337005
2 *570:A 0
3 *724:RESET_B 0
4 *723:RESET_B 0.000177906
5 *725:X 0.00133022
6 *197:34 0.000628399
7 *197:16 0.000298785
8 *197:12 0.00140679
9 *197:8 0.00232474
10 *722:RESET_B *573:B 0
11 *723:RESET_B *203:14 0
12 *197:8 *205:10 4.78556e-05
13 *197:8 *206:8 0.000112486
14 *197:8 *208:12 8.03692e-05
15 *197:12 *203:22 0
16 *197:12 *204:18 0.0025862
17 *197:34 *203:22 0
18 *545:A2 *197:12 0
19 *573:A *722:RESET_B 1.54008e-05
20 *573:A *197:34 0
21 *577:A2 *722:RESET_B 0
22 *577:A2 *723:RESET_B 0.00027343
23 *577:A2 *197:16 0.00017674
24 *577:A2 *197:34 0
25 *577:B1 *197:34 0
26 *647:A *197:8 0
27 *704:A *197:8 0
28 *706:A *197:8 0
29 *708:A *197:8 0
30 *709:A *197:8 0
31 *711:A *197:8 0
32 *713:A *197:8 0
33 *715:A *197:8 0
34 *716:A *197:8 0
35 *716:A *197:12 0
36 *729:A *197:8 0.000176817
37 *730:A *197:8 0.00024217
38 *731:A *197:8 0.000307084
39 *46:10 *197:34 7.97151e-05
40 *50:8 *197:12 0
41 *50:8 *197:34 0
42 *61:10 *197:12 0.000393514
43 *63:10 *197:12 0
44 *192:10 *197:8 0
45 *195:27 *197:12 0
*RES
1 *725:X *197:8 34.5127 
2 *197:8 *197:12 33.4518 
3 *197:12 *197:16 21.1845 
4 *197:16 *723:RESET_B 21.8334 
5 *197:16 *724:RESET_B 20 
6 *197:12 *197:34 22.7707 
7 *197:34 *570:A 20 
8 *197:34 *722:RESET_B 23.0282 
*END

*D_NET *198 0.00745251
*CONN
*I *562:S I *D sg13cmos5l_mux2_1
*I *543:A1 I *D sg13cmos5l_o21ai_1
*I *544:B I *D sg13cmos5l_nand2b_1
*I *549:A1 I *D sg13cmos5l_o21ai_1
*I *545:A1 I *D sg13cmos5l_o21ai_1
*I *542:B I *D sg13cmos5l_nand2b_1
*I *547:A1 I *D sg13cmos5l_o21ai_1
*I *546:B I *D sg13cmos5l_nand2b_1
*I *579:X O *D sg13cmos5l_buf_1
*CAP
1 *562:S 0.000695843
2 *543:A1 6.30402e-05
3 *544:B 0
4 *549:A1 0.000172504
5 *545:A1 0.000158043
6 *542:B 0.000276304
7 *547:A1 4.27252e-05
8 *546:B 0.000146613
9 *579:X 0
10 *198:76 0.000920002
11 *198:51 0.000330547
12 *198:49 0.000259607
13 *198:47 0.000675928
14 *198:21 0.00031903
15 *198:8 0.000390705
16 *198:6 0.000499294
17 *545:A1 *199:14 0
18 *546:B *205:10 0
19 *546:B *206:12 0.00023464
20 *549:A1 *199:14 0
21 *562:S *564:S 0
22 *562:S *566:S0 0
23 *562:S *199:40 0
24 *562:S *206:29 0
25 *198:8 *205:10 0
26 *198:8 *206:12 0.000659397
27 *198:47 *550:S0 0.00012816
28 *198:47 *206:12 0.000712758
29 *198:76 *206:29 0
30 *543:A2 *543:A1 1.54556e-05
31 *543:A2 *198:76 0
32 *544:A_N *198:49 8.02927e-05
33 *547:B1 *542:B 0
34 *547:B1 *547:A1 8.01938e-05
35 *547:A2 *542:B 0.000159443
36 *547:A2 *547:A1 8.01938e-05
37 *550:A0 *543:A1 0
38 *550:A0 *198:49 8.00842e-05
39 *550:A0 *198:76 3.21143e-05
40 *550:A1 *198:49 0
41 *550:A3 *198:49 0
42 *562:A0 *562:S 1.54008e-05
43 *562:A1 *562:S 0
44 *566:A0 *562:S 0
45 *649:A *542:B 0
46 *658:A *562:S 0
47 *698:A *198:76 0
48 *700:A *543:A1 0
49 *700:A *562:S 0
50 *701:A *543:A1 0
51 *701:A *562:S 0
52 *701:A *198:76 0
53 *703:A *542:B 4.77425e-05
54 *706:A *542:B 0
55 *708:A *542:B 0
56 *708:A *546:B 0
57 *24:8 *198:8 0
58 *24:8 *198:47 0
59 *42:10 *562:S 0
60 *121:10 *562:S 0
61 *134:8 *562:S 0.000176449
62 *195:27 *545:A1 0
63 *195:27 *549:A1 0
*RES
1 *579:X *198:6 40 
2 *198:6 *198:8 3.0694 
3 *198:8 *546:B 41.6274 
4 *198:8 *198:21 20 
5 *198:21 *547:A1 20.5356 
6 *198:21 *542:B 23.4196 
7 *198:6 *198:47 23.3166 
8 *198:47 *198:49 2.6986 
9 *198:49 *198:51 20 
10 *198:51 *545:A1 41.5862 
11 *198:51 *549:A1 41.8334 
12 *198:49 *544:B 20 
13 *198:47 *198:76 1.0627 
14 *198:76 *543:A1 20.6695 
15 *198:76 *562:S 26.3943 
*END

*D_NET *199 0.0101044
*CONN
*I *565:S I *D sg13cmos5l_mux2_1
*I *564:S I *D sg13cmos5l_mux2_1
*I *563:S I *D sg13cmos5l_mux2_1
*I *579:A I *D sg13cmos5l_buf_1
*I *548:B I *D sg13cmos5l_nand2b_1
*I *580:X O *D sg13cmos5l_buf_1
*CAP
1 *565:S 2.83267e-05
2 *564:S 0.000748071
3 *563:S 0.000649782
4 *579:A 0
5 *548:B 0.000179221
6 *580:X 0
7 *199:42 0.00139785
8 *199:40 0.000738081
9 *199:14 0.00112929
10 *199:6 0.0011472
11 *199:4 0.000906889
12 *548:B *204:18 0
13 *563:S *207:14 0
14 *564:S *207:14 0.000557445
15 *199:6 *205:16 0.00024116
16 *199:14 *205:10 0
17 *199:14 *205:16 4.78359e-05
18 *199:14 *205:20 0
19 *199:14 *206:29 0
20 *199:40 *580:A 8.02379e-05
21 *199:40 *205:16 3.7631e-05
22 *545:A1 *199:14 0
23 *549:A1 *199:14 0
24 *562:S *564:S 0
25 *562:S *199:40 0
26 *566:A0 *564:S 0
27 *566:A2 *564:S 0
28 *590:A *548:B 0
29 *641:A *564:S 0
30 *658:A *199:40 0.00020902
31 *700:A *199:40 0.00017718
32 *19:10 *199:40 0
33 *24:8 *199:14 0
34 *25:8 *199:14 0
35 *27:8 *199:14 0
36 *45:8 *548:B 0
37 *65:8 *199:14 0
38 *125:20 *563:S 0
39 *125:20 *564:S 0
40 *128:8 *563:S 7.52149e-05
41 *131:10 *563:S 0.000447269
42 *133:8 *563:S 0.00060761
43 *133:8 *564:S 5.30319e-05
44 *134:16 *564:S 0.000501045
45 *177:10 *199:40 0
46 *178:10 *199:40 0.000144994
*RES
1 *580:X *199:4 20 
2 *199:4 *199:6 1.6171 
3 *199:6 *199:14 49.3215 
4 *199:14 *548:B 21.8334 
5 *199:6 *579:A 20 
6 *199:4 *199:40 47.5911 
7 *199:40 *199:42 20 
8 *199:42 *563:S 46.8495 
9 *199:42 *564:S 48.5181 
10 *199:40 *565:S 20.3193 
*END

*D_NET *200 0.00913177
*CONN
*I *538:S I *D sg13cmos5l_mux2_1
*I *536:S I *D sg13cmos5l_mux2_1
*I *555:A1 I *D sg13cmos5l_o21ai_1
*I *554:B I *D sg13cmos5l_nand2b_1
*I *556:B I *D sg13cmos5l_nand2b_1
*I *552:B I *D sg13cmos5l_nand2b_1
*I *558:B I *D sg13cmos5l_nand2b_1
*I *537:S I *D sg13cmos5l_mux2_1
*I *581:X O *D sg13cmos5l_buf_1
*CAP
1 *538:S 0.000169417
2 *536:S 5.09117e-05
3 *555:A1 3.66728e-05
4 *554:B 2.8594e-05
5 *556:B 0.000419196
6 *552:B 3.61427e-05
7 *558:B 0.000276616
8 *537:S 0.000329043
9 *581:X 0
10 *200:94 0.000821735
11 *200:63 0.000832292
12 *200:50 0.000612348
13 *200:46 0.00108547
14 *200:23 0.00133301
15 *200:17 0.000800705
16 *200:4 0.000329043
17 *558:B *204:68 0
18 *200:23 *201:21 0.000235228
19 *200:46 *539:S0 0
20 *536:A0 *536:S 1.54008e-05
21 *537:A0 *537:S 8.00842e-05
22 *538:A0 *200:94 0
23 *539:A0 *200:46 0
24 *539:A2 *537:S 0
25 *539:A2 *200:23 0.000209615
26 *539:A2 *200:46 1.54556e-05
27 *552:A_N *552:B 1.5412e-05
28 *556:A_N *556:B 0
29 *557:A2 *200:63 0
30 *559:B1 *558:B 8.02924e-05
31 *559:B1 *200:46 0
32 *560:A1 *200:46 0
33 *560:A3 *200:46 0
34 *608:A *537:S 0
35 *609:A *200:94 0
36 *624:A *538:S 0
37 *680:A *556:B 4.77702e-05
38 *12:8 *200:23 0.000341534
39 *12:8 *200:94 7.52158e-05
40 *13:12 *538:S 0
41 *13:12 *200:94 0
42 *15:10 *538:S 0
43 *15:10 *200:94 0
44 *29:10 *552:B 0
45 *29:10 *200:50 0
46 *31:8 *200:50 0
47 *31:8 *200:63 0
48 *32:10 *200:46 0
49 *34:10 *200:50 0
50 *37:8 *200:46 0
51 *82:8 *200:94 0
52 *83:10 *537:S 0.00022518
53 *96:12 *536:S 0
54 *96:12 *538:S 0
55 *96:18 *200:94 0
56 *143:14 *200:50 7.52158e-05
57 *151:8 *200:63 0.000554163
58 *153:10 *556:B 0
59 *153:10 *200:63 0
60 *154:8 *200:63 0
61 *157:10 *556:B 0
*RES
1 *581:X *200:4 20 
2 *200:4 *537:S 23.8316 
3 *200:4 *200:17 20 
4 *200:17 *200:23 22.987 
5 *200:23 *558:B 23.3166 
6 *200:23 *200:46 9.0125 
7 *200:46 *200:50 22.0806 
8 *200:50 *552:B 40.3193 
9 *200:50 *200:63 24.7998 
10 *200:63 *556:B 24.5835 
11 *200:63 *554:B 20.3193 
12 *200:46 *555:A1 20.3193 
13 *200:17 *200:94 26.7774 
14 *200:94 *536:S 20.5356 
15 *200:94 *538:S 21.8334 
*END

*D_NET *201 0.00442369
*CONN
*I *557:A1 I *D sg13cmos5l_o21ai_1
*I *559:A1 I *D sg13cmos5l_o21ai_1
*I *553:A1 I *D sg13cmos5l_o21ai_1
*I *581:A I *D sg13cmos5l_buf_1
*I *535:S I *D sg13cmos5l_mux2_1
*I *582:X O *D sg13cmos5l_buf_1
*CAP
1 *557:A1 0.000171167
2 *559:A1 0
3 *553:A1 0
4 *581:A 0
5 *535:S 5.70804e-05
6 *582:X 0.000382118
7 *201:52 0.000554928
8 *201:41 0.000373308
9 *201:33 0.00101151
10 *201:21 0.000322618
11 *201:6 0.000507378
12 *557:A1 *539:S0 0
13 *557:A1 *206:37 0
14 *201:33 *582:A 0
15 *201:33 *204:68 0
16 *201:41 *204:68 7.53209e-05
17 *201:41 *206:37 0
18 *201:52 *204:68 0.000144787
19 *201:52 *206:37 0
20 *537:A0 *201:21 0
21 *537:A1 *201:21 0
22 *553:A2 *201:41 1.54556e-05
23 *559:B1 *201:52 0
24 *602:A *535:S 0
25 *695:A *201:33 4.78195e-05
26 *699:A *201:41 0
27 *12:8 *201:21 0
28 *16:8 *201:21 0
29 *37:14 *201:41 0.000395896
30 *37:14 *201:52 0
31 *70:12 *201:21 0.000129078
32 *160:12 *557:A1 0
33 *200:23 *201:21 0.000235228
*RES
1 *582:X *201:6 21.4008 
2 *201:6 *535:S 20.6695 
3 *201:6 *201:21 44.0582 
4 *201:21 *581:A 20 
5 *582:X *201:33 22.4823 
6 *201:33 *201:41 44.7483 
7 *201:41 *553:A1 20 
8 *201:33 *201:52 24.2539 
9 *201:52 *559:A1 40 
10 *201:52 *557:A1 41.5862 
*END

*D_NET *202 0.00599419
*CONN
*I *574:S I *D sg13cmos5l_mux2_1
*I *573:B I *D sg13cmos5l_nor4_1
*I *576:B I *D sg13cmos5l_nand3b_1
*I *726:X O *D sg13cmos5l_buf_1
*CAP
1 *574:S 0.00070127
2 *573:B 0.000640874
3 *576:B 0
4 *726:X 0.000687437
5 *202:20 0.0013438
6 *202:12 0.00150913
7 *202:8 0.000792373
8 *573:A *573:B 1.54008e-05
9 *574:A0 *574:S 0
10 *576:C *573:B 0.000240587
11 *576:C *202:20 1.54008e-05
12 *588:A *574:S 4.79124e-05
13 *722:RESET_B *573:B 0
14 *722:CLK *573:B 0
15 *61:14 *574:S 0
*RES
1 *726:X *202:8 48.2606 
2 *202:8 *202:12 20.9682 
3 *202:12 *202:20 46.3242 
4 *202:20 *576:B 20 
5 *202:20 *573:B 26.283 
6 *202:12 *574:S 26.3878 
*END

*D_NET *203 0.00781841
*CONN
*I *576:A_N I *D sg13cmos5l_nand3b_1
*I *575:A I *D sg13cmos5l_nand2_1
*I *573:C I *D sg13cmos5l_nor4_1
*I *727:X O *D sg13cmos5l_buf_1
*CAP
1 *576:A_N 0.000460112
2 *575:A 0.000194861
3 *573:C 0
4 *727:X 6.58423e-05
5 *203:22 0.000478822
6 *203:14 0.00105831
7 *203:10 0.00273772
8 *203:8 0.00195883
9 *575:A *204:18 0
10 *203:22 *204:18 0.000128663
11 *569:B_N *203:22 0
12 *571:A *203:22 0
13 *573:A *203:22 0
14 *573:D *203:22 4.78192e-05
15 *574:A1 *575:A 0
16 *574:A1 *203:14 0
17 *575:B *575:A 0
18 *577:A2 *576:A_N 7.94957e-05
19 *577:A2 *203:14 0
20 *723:RESET_B *203:14 0
21 *723:CLK *576:A_N 0
22 *723:CLK *203:10 0
23 *724:D *203:22 0.000607939
24 *724:CLK *203:14 0
25 *45:16 *203:22 0
26 *55:8 *203:10 0
27 *197:12 *203:22 0
28 *197:34 *203:22 0
*RES
1 *727:X *203:8 40.5356 
2 *203:8 *203:10 11.4742 
3 *203:10 *203:14 23.5638 
4 *203:14 *203:22 45.3354 
5 *203:22 *573:C 20 
6 *203:14 *575:A 21.6171 
7 *203:10 *576:A_N 43.3681 
*END

*D_NET *204 0.0119151
*CONN
*I *560:S0 I *D sg13cmos5l_mux4_1
*I *539:S1 I *D sg13cmos5l_mux4_1
*I *566:S1 I *D sg13cmos5l_mux4_1
*I *550:S1 I *D sg13cmos5l_mux4_1
*I *728:X O *D sg13cmos5l_buf_1
*CAP
1 *560:S0 0
2 *539:S1 0
3 *566:S1 2.69045e-05
4 *550:S1 0
5 *728:X 3.16366e-05
6 *204:68 0.000781315
7 *204:54 0.00163844
8 *204:37 0.00100226
9 *204:33 0.000814554
10 *204:18 0.00221318
11 *204:8 0.0015485
12 *566:S1 *208:18 4.23522e-05
13 *204:33 *561:A 0
14 *204:33 *561:B_N 4.79124e-05
15 *204:33 *206:29 0
16 *204:33 *206:37 0
17 *204:33 *207:14 0.000160826
18 *204:33 *207:18 0.00017718
19 *204:33 *208:18 0
20 *204:37 *208:18 0
21 *204:54 *206:37 0
22 *204:68 *582:A 0
23 *548:B *204:18 0
24 *549:B1 *204:18 0
25 *550:A3 *204:18 0
26 *550:A3 *204:33 0
27 *553:B1 *204:54 0
28 *553:B1 *204:68 0
29 *558:B *204:68 0
30 *559:B1 *204:68 0
31 *562:A0 *204:54 0
32 *566:A2 *204:33 0
33 *575:A *204:18 0
34 *577:A2 *204:18 0
35 *590:A *204:18 0
36 *724:D *204:18 0
37 *29:10 *204:54 0
38 *30:8 *204:54 0
39 *37:14 *204:68 0
40 *45:8 *204:18 0
41 *45:8 *204:33 0
42 *56:8 *204:18 0
43 *63:10 *204:18 0
44 *103:8 *204:54 0
45 *134:16 *204:37 0
46 *134:16 *204:54 0
47 *137:8 *204:54 0.000447684
48 *192:10 *204:8 4.74145e-05
49 *192:10 *204:18 0
50 *197:12 *204:18 0.0025862
51 *201:33 *204:68 0
52 *201:41 *204:68 7.53209e-05
53 *201:52 *204:68 0.000144787
54 *203:22 *204:18 0.000128663
*RES
1 *728:X *204:8 40.3193 
2 *204:8 *204:18 37.7424 
3 *204:18 *550:S1 20 
4 *204:18 *204:33 47.3023 
5 *204:33 *204:37 21.0918 
6 *204:37 *566:S1 40.2832 
7 *204:37 *204:54 30.1043 
8 *204:54 *204:68 47.8821 
9 *204:68 *539:S1 20 
10 *204:54 *560:S0 20 
*END

*D_NET *205 0.00852649
*CONN
*I *580:A I *D sg13cmos5l_buf_1
*I *582:A I *D sg13cmos5l_buf_1
*I *729:X O *D sg13cmos5l_buf_1
*CAP
1 *580:A 9.09476e-05
2 *582:A 0.000169653
3 *729:X 0.000484381
4 *205:20 0.00151192
5 *205:16 0.00176296
6 *205:10 0.000814124
7 *205:20 *206:12 0
8 *205:20 *206:29 0
9 *205:20 *208:49 0
10 *543:A2 *205:20 0.000235228
11 *546:B *205:10 0
12 *711:A *205:10 4.74248e-05
13 *712:A *205:10 0
14 *16:8 *205:20 0
15 *19:10 *205:20 0
16 *24:8 *205:10 0
17 *27:8 *205:20 0
18 *37:14 *205:20 0
19 *173:8 *205:20 0.00261351
20 *186:8 *205:10 0.000341621
21 *187:8 *205:10 0
22 *189:8 *205:10 0
23 *195:27 *205:10 0
24 *197:8 *205:10 4.78556e-05
25 *198:8 *205:10 0
26 *199:6 *205:16 0.00024116
27 *199:14 *205:10 0
28 *199:14 *205:16 4.78359e-05
29 *199:14 *205:20 0
30 *199:40 *580:A 8.02379e-05
31 *199:40 *205:16 3.7631e-05
32 *201:33 *582:A 0
33 *204:68 *582:A 0
*RES
1 *729:X *205:10 45.8607 
2 *205:10 *205:16 23.0488 
3 *205:16 *205:20 37.9014 
4 *205:20 *582:A 41.6171 
5 *205:16 *580:A 20.7519 
*END

*D_NET *206 0.0119885
*CONN
*I *566:S0 I *D sg13cmos5l_mux4_1
*I *560:S1 I *D sg13cmos5l_mux4_1
*I *539:S0 I *D sg13cmos5l_mux4_1
*I *550:S0 I *D sg13cmos5l_mux4_1
*I *730:X O *D sg13cmos5l_buf_1
*CAP
1 *566:S0 0.000111552
2 *560:S1 6.0597e-05
3 *539:S0 0.000991279
4 *550:S0 7.06322e-05
5 *730:X 7.35371e-05
6 *206:37 0.00253079
7 *206:29 0.00215995
8 *206:12 0.0013943
9 *206:8 0.000827715
10 *206:37 *207:14 0.000720797
11 *542:A_N *206:12 0
12 *546:B *206:12 0.00023464
13 *550:A0 *550:S0 4.77425e-05
14 *557:B1 *539:S0 0
15 *557:A1 *539:S0 0
16 *557:A1 *206:37 0
17 *557:A2 *539:S0 0.000181192
18 *562:S *566:S0 0
19 *562:S *206:29 0
20 *566:A0 *566:S0 1.54008e-05
21 *692:A *539:S0 0
22 *698:A *206:29 0
23 *703:A *206:12 0
24 *708:A *206:8 0
25 *19:10 *206:12 0
26 *24:8 *550:S0 0.00018128
27 *24:8 *206:29 0.000160341
28 *29:10 *206:37 0
29 *30:8 *206:37 0
30 *32:10 *206:37 0
31 *34:10 *539:S0 0.000111876
32 *34:10 *206:37 0
33 *37:8 *539:S0 0
34 *68:8 *206:37 0
35 *134:16 *206:37 0.000502047
36 *137:8 *206:37 0
37 *160:12 *539:S0 0
38 *178:10 *206:12 0
39 *182:8 *206:12 0
40 *187:8 *206:12 0
41 *197:8 *206:8 0.000112486
42 *198:8 *206:12 0.000659397
43 *198:47 *550:S0 0.00012816
44 *198:47 *206:12 0.000712758
45 *198:76 *206:29 0
46 *199:14 *206:29 0
47 *200:46 *539:S0 0
48 *201:41 *206:37 0
49 *201:52 *206:37 0
50 *204:33 *206:29 0
51 *204:33 *206:37 0
52 *204:54 *206:37 0
53 *205:20 *206:12 0
54 *205:20 *206:29 0
*RES
1 *730:X *206:8 40.7519 
2 *206:8 *206:12 9.785 
3 *206:12 *550:S0 41.1639 
4 *206:12 *206:29 26.2315 
5 *206:29 *206:37 37.7984 
6 *206:37 *539:S0 47.828 
7 *206:37 *560:S1 40.5485 
8 *206:29 *566:S0 20.9682 
*END

*D_NET *207 0.00791818
*CONN
*I *567:A I *D sg13cmos5l_nor3_1
*I *551:A I *D sg13cmos5l_nor2b_1
*I *540:A I *D sg13cmos5l_nand2_1
*I *561:B_N I *D sg13cmos5l_nor2b_1
*I *731:X O *D sg13cmos5l_buf_1
*CAP
1 *567:A 0
2 *551:A 0
3 *540:A 0.000240897
4 *561:B_N 0.000125961
5 *731:X 2.49087e-05
6 *207:35 0.000440069
7 *207:18 0.000509224
8 *207:14 0.00147197
9 *207:8 0.00131279
10 *540:A *208:49 0
11 *561:B_N *561:A 0.00012816
12 *207:14 *208:18 0
13 *207:14 *208:22 0
14 *207:18 *208:22 0
15 *207:35 *561:A 0.000128248
16 *207:35 *208:39 0.000372885
17 *541:A *540:A 0
18 *541:B *540:A 1.54556e-05
19 *563:S *207:14 0
20 *564:S *207:14 0.000557445
21 *568:C1 *207:18 0.000242055
22 *568:A1 *540:A 0
23 *568:A2 *540:A 0
24 *38:8 *561:B_N 0.000181695
25 *38:8 *207:35 0.000106151
26 *123:8 *207:14 0
27 *128:8 *207:14 0.000290234
28 *133:8 *207:14 0.000663315
29 *134:16 *207:14 0
30 *173:8 *561:B_N 0
31 *173:8 *207:35 0
32 *177:10 *207:14 0
33 *204:33 *561:B_N 4.79124e-05
34 *204:33 *207:14 0.000160826
35 *204:33 *207:18 0.00017718
36 *206:37 *207:14 0.000720797
*RES
1 *731:X *207:8 40.3193 
2 *207:8 *207:14 35.1307 
3 *207:14 *207:18 22.0497 
4 *207:18 *561:B_N 41.6583 
5 *207:18 *207:35 22.6471 
6 *207:35 *540:A 22.1836 
7 *207:35 *551:A 20 
8 *207:14 *567:A 20 
*END

*D_NET *208 0.00763797
*CONN
*I *567:B I *D sg13cmos5l_nor3_1
*I *551:B_N I *D sg13cmos5l_nor2b_1
*I *540:B I *D sg13cmos5l_nand2_1
*I *561:A I *D sg13cmos5l_nor2b_1
*I *732:X O *D sg13cmos5l_buf_1
*CAP
1 *567:B 0
2 *551:B_N 0
3 *540:B 0
4 *561:A 0.000136929
5 *732:X 0.000791212
6 *208:49 0.000377716
7 *208:39 0.000657286
8 *208:22 0.000596238
9 *208:18 0.00103424
10 *208:12 0.00164571
11 *540:A *208:49 0
12 *561:B_N *561:A 0.00012816
13 *562:A0 *208:18 0
14 *566:A2 *208:18 0
15 *566:S1 *208:18 4.23522e-05
16 *567:C *208:18 0.000209779
17 *567:C *208:22 1.54556e-05
18 *568:C1 *208:22 0.000209714
19 *568:A1 *208:49 4.77347e-05
20 *568:A2 *208:39 0
21 *647:A *208:12 0
22 *37:14 *208:22 0
23 *37:14 *208:39 0
24 *40:8 *208:18 0
25 *42:10 *208:18 0
26 *45:8 *208:49 0
27 *112:25 *208:12 0
28 *112:25 *208:18 0
29 *113:8 *208:12 0
30 *116:8 *208:12 0
31 *117:8 *208:18 0.000288173
32 *120:8 *208:18 0.000875761
33 *121:10 *208:12 0
34 *173:8 *208:39 0
35 *197:8 *208:12 8.03692e-05
36 *204:33 *561:A 0
37 *204:33 *208:18 0
38 *204:37 *208:18 0
39 *205:20 *208:49 0
40 *207:14 *208:18 0
41 *207:14 *208:22 0
42 *207:18 *208:22 0
43 *207:35 *561:A 0.000128248
44 *207:35 *208:39 0.000372885
*RES
1 *732:X *208:12 48.3739 
2 *208:12 *208:18 30.8047 
3 *208:18 *208:22 21.8334 
4 *208:22 *561:A 41.6274 
5 *208:22 *208:39 23.1106 
6 *208:39 *208:49 43.5226 
7 *208:49 *540:B 20 
8 *208:39 *551:B_N 20 
9 *208:18 *567:B 20 
*END

*D_NET *209 0.0071284
*CONN
*I *733:A I *D sg13cmos5l_buf_1
*I *578:X O *D sg13cmos5l_a21o_1
*CAP
1 *733:A 0.000386788
2 *578:X 0
3 *209:12 0.00285913
4 *209:6 0.00247234
5 osc *733:A 0
6 *537:A0 *209:12 0.00122845
7 *537:A1 *209:12 0
8 *569:A *209:12 0
9 *571:A *209:12 0
10 *609:A *209:12 0
11 *18:40 *209:12 0
12 *45:16 *209:12 0
13 *74:8 *209:12 0.000181695
14 *81:8 *209:12 0
15 *89:8 *209:12 0
16 *96:18 *209:12 0
*RES
1 *578:X *209:6 40 
2 *209:6 *209:12 30.1893 
3 *209:12 *733:A 44.2127 
*END
