*SPEF "ieee 1481-1999"
*DESIGN "a_ro"
*DATE "22:06:35 Thursday October 01, 2026"
*VENDOR "The OpenROAD Project"
*PROGRAM "OpenROAD"
*VERSION "dcf36133a369abc8f3c5e5738cd4d82e4903c0e0"
*DESIGN_FLOW "NAME_SCOPE LOCAL" "PIN_CAP NONE"
*DIVIDER /
*DELIMITER :
*BUS_DELIMITER []
*T_UNIT 1 NS
*C_UNIT 1 PF
*R_UNIT 1 OHM
*L_UNIT 1 HENRY

*NAME_MAP
*3 enable
*4 invsel[0]
*5 invsel[1]
*6 invsel[2]
*7 invsel[3]
*8 invsel[4]
*9 invsel[5]
*10 osc
*11 osc_tap[0]
*12 osc_tap[1]
*13 osc_tap[2]
*14 osc_tap[3]
*15 osc_tap[4]
*16 osc_tap[5]
*17 osc_tap[6]
*18 osc_tap[7]
*19 _00_
*20 _01_
*21 _02_
*22 _03_
*23 _04_
*24 _05_
*25 _06_
*26 _07_
*27 _08_
*28 _09_
*29 _10_
*30 _11_
*31 _12_
*32 _13_
*33 _14_
*34 _15_
*35 _16_
*36 _17_
*37 _18_
*38 _19_
*39 _20_
*40 _21_
*41 _22_
*42 _23_
*43 _24_
*44 _25_
*45 _26_
*46 _27_
*47 _28_
*48 _29_
*49 _30_
*50 _31_
*51 _32_
*52 _33_
*53 _34_
*54 _35_
*55 _36_
*56 _37_
*57 inv_wire\[0\]
*58 inv_wire\[1000\]
*59 inv_wire\[1001\]
*60 inv_wire\[1002\]
*61 inv_wire\[1003\]
*62 inv_wire\[1004\]
*63 inv_wire\[1005\]
*64 inv_wire\[1006\]
*65 inv_wire\[1007\]
*66 inv_wire\[1008\]
*67 inv_wire\[1009\]
*68 inv_wire\[100\]
*69 inv_wire\[1010\]
*70 inv_wire\[1011\]
*71 inv_wire\[101\]
*72 inv_wire\[102\]
*73 inv_wire\[103\]
*74 inv_wire\[104\]
*75 inv_wire\[105\]
*76 inv_wire\[106\]
*77 inv_wire\[107\]
*78 inv_wire\[108\]
*79 inv_wire\[109\]
*80 inv_wire\[10\]
*81 inv_wire\[110\]
*82 inv_wire\[111\]
*83 inv_wire\[112\]
*84 inv_wire\[113\]
*85 inv_wire\[114\]
*86 inv_wire\[115\]
*87 inv_wire\[116\]
*88 inv_wire\[117\]
*89 inv_wire\[118\]
*90 inv_wire\[119\]
*91 inv_wire\[11\]
*92 inv_wire\[120\]
*93 inv_wire\[121\]
*94 inv_wire\[122\]
*95 inv_wire\[123\]
*96 inv_wire\[124\]
*97 inv_wire\[125\]
*98 inv_wire\[126\]
*99 inv_wire\[127\]
*100 inv_wire\[128\]
*101 inv_wire\[129\]
*102 inv_wire\[12\]
*103 inv_wire\[130\]
*104 inv_wire\[131\]
*105 inv_wire\[132\]
*106 inv_wire\[133\]
*107 inv_wire\[134\]
*108 inv_wire\[135\]
*109 inv_wire\[136\]
*110 inv_wire\[137\]
*111 inv_wire\[138\]
*112 inv_wire\[139\]
*113 inv_wire\[13\]
*114 inv_wire\[140\]
*115 inv_wire\[141\]
*116 inv_wire\[142\]
*117 inv_wire\[143\]
*118 inv_wire\[144\]
*119 inv_wire\[145\]
*120 inv_wire\[146\]
*121 inv_wire\[147\]
*122 inv_wire\[148\]
*123 inv_wire\[149\]
*124 inv_wire\[14\]
*125 inv_wire\[150\]
*126 inv_wire\[151\]
*127 inv_wire\[152\]
*128 inv_wire\[153\]
*129 inv_wire\[154\]
*130 inv_wire\[155\]
*131 inv_wire\[156\]
*132 inv_wire\[157\]
*133 inv_wire\[158\]
*134 inv_wire\[159\]
*135 inv_wire\[15\]
*136 inv_wire\[160\]
*137 inv_wire\[161\]
*138 inv_wire\[162\]
*139 inv_wire\[163\]
*140 inv_wire\[164\]
*141 inv_wire\[165\]
*142 inv_wire\[166\]
*143 inv_wire\[167\]
*144 inv_wire\[168\]
*145 inv_wire\[169\]
*146 inv_wire\[16\]
*147 inv_wire\[170\]
*148 inv_wire\[171\]
*149 inv_wire\[172\]
*150 inv_wire\[173\]
*151 inv_wire\[174\]
*152 inv_wire\[175\]
*153 inv_wire\[176\]
*154 inv_wire\[177\]
*155 inv_wire\[178\]
*156 inv_wire\[179\]
*157 inv_wire\[17\]
*158 inv_wire\[180\]
*159 inv_wire\[181\]
*160 inv_wire\[182\]
*161 inv_wire\[183\]
*162 inv_wire\[184\]
*163 inv_wire\[185\]
*164 inv_wire\[186\]
*165 inv_wire\[187\]
*166 inv_wire\[188\]
*167 inv_wire\[189\]
*168 inv_wire\[18\]
*169 inv_wire\[190\]
*170 inv_wire\[191\]
*171 inv_wire\[192\]
*172 inv_wire\[193\]
*173 inv_wire\[194\]
*174 inv_wire\[195\]
*175 inv_wire\[196\]
*176 inv_wire\[197\]
*177 inv_wire\[198\]
*178 inv_wire\[199\]
*179 inv_wire\[19\]
*180 inv_wire\[1\]
*181 inv_wire\[200\]
*182 inv_wire\[201\]
*183 inv_wire\[202\]
*184 inv_wire\[203\]
*185 inv_wire\[204\]
*186 inv_wire\[205\]
*187 inv_wire\[206\]
*188 inv_wire\[207\]
*189 inv_wire\[208\]
*190 inv_wire\[209\]
*191 inv_wire\[20\]
*192 inv_wire\[210\]
*193 inv_wire\[211\]
*194 inv_wire\[212\]
*195 inv_wire\[213\]
*196 inv_wire\[214\]
*197 inv_wire\[215\]
*198 inv_wire\[216\]
*199 inv_wire\[217\]
*200 inv_wire\[218\]
*201 inv_wire\[219\]
*202 inv_wire\[21\]
*203 inv_wire\[220\]
*204 inv_wire\[221\]
*205 inv_wire\[222\]
*206 inv_wire\[223\]
*207 inv_wire\[224\]
*208 inv_wire\[225\]
*209 inv_wire\[226\]
*210 inv_wire\[227\]
*211 inv_wire\[228\]
*212 inv_wire\[229\]
*213 inv_wire\[22\]
*214 inv_wire\[230\]
*215 inv_wire\[231\]
*216 inv_wire\[232\]
*217 inv_wire\[233\]
*218 inv_wire\[234\]
*219 inv_wire\[235\]
*220 inv_wire\[236\]
*221 inv_wire\[237\]
*222 inv_wire\[238\]
*223 inv_wire\[239\]
*224 inv_wire\[23\]
*225 inv_wire\[240\]
*226 inv_wire\[241\]
*227 inv_wire\[242\]
*228 inv_wire\[243\]
*229 inv_wire\[244\]
*230 inv_wire\[245\]
*231 inv_wire\[246\]
*232 inv_wire\[247\]
*233 inv_wire\[248\]
*234 inv_wire\[249\]
*235 inv_wire\[24\]
*236 inv_wire\[250\]
*237 inv_wire\[251\]
*238 inv_wire\[252\]
*239 inv_wire\[253\]
*240 inv_wire\[254\]
*241 inv_wire\[255\]
*242 inv_wire\[256\]
*243 inv_wire\[257\]
*244 inv_wire\[258\]
*245 inv_wire\[259\]
*246 inv_wire\[25\]
*247 inv_wire\[260\]
*248 inv_wire\[261\]
*249 inv_wire\[262\]
*250 inv_wire\[263\]
*251 inv_wire\[264\]
*252 inv_wire\[265\]
*253 inv_wire\[266\]
*254 inv_wire\[267\]
*255 inv_wire\[268\]
*256 inv_wire\[269\]
*257 inv_wire\[26\]
*258 inv_wire\[270\]
*259 inv_wire\[271\]
*260 inv_wire\[272\]
*261 inv_wire\[273\]
*262 inv_wire\[274\]
*263 inv_wire\[275\]
*264 inv_wire\[276\]
*265 inv_wire\[277\]
*266 inv_wire\[278\]
*267 inv_wire\[279\]
*268 inv_wire\[27\]
*269 inv_wire\[280\]
*270 inv_wire\[281\]
*271 inv_wire\[282\]
*272 inv_wire\[283\]
*273 inv_wire\[284\]
*274 inv_wire\[285\]
*275 inv_wire\[286\]
*276 inv_wire\[287\]
*277 inv_wire\[288\]
*278 inv_wire\[289\]
*279 inv_wire\[28\]
*280 inv_wire\[290\]
*281 inv_wire\[291\]
*282 inv_wire\[292\]
*283 inv_wire\[293\]
*284 inv_wire\[294\]
*285 inv_wire\[295\]
*286 inv_wire\[296\]
*287 inv_wire\[297\]
*288 inv_wire\[298\]
*289 inv_wire\[299\]
*290 inv_wire\[29\]
*291 inv_wire\[300\]
*292 inv_wire\[301\]
*293 inv_wire\[302\]
*294 inv_wire\[303\]
*295 inv_wire\[304\]
*296 inv_wire\[305\]
*297 inv_wire\[306\]
*298 inv_wire\[307\]
*299 inv_wire\[308\]
*300 inv_wire\[309\]
*301 inv_wire\[30\]
*302 inv_wire\[310\]
*303 inv_wire\[311\]
*304 inv_wire\[312\]
*305 inv_wire\[313\]
*306 inv_wire\[314\]
*307 inv_wire\[315\]
*308 inv_wire\[316\]
*309 inv_wire\[317\]
*310 inv_wire\[318\]
*311 inv_wire\[319\]
*312 inv_wire\[31\]
*313 inv_wire\[320\]
*314 inv_wire\[321\]
*315 inv_wire\[322\]
*316 inv_wire\[323\]
*317 inv_wire\[324\]
*318 inv_wire\[325\]
*319 inv_wire\[326\]
*320 inv_wire\[327\]
*321 inv_wire\[328\]
*322 inv_wire\[329\]
*323 inv_wire\[32\]
*324 inv_wire\[330\]
*325 inv_wire\[331\]
*326 inv_wire\[332\]
*327 inv_wire\[333\]
*328 inv_wire\[334\]
*329 inv_wire\[335\]
*330 inv_wire\[336\]
*331 inv_wire\[337\]
*332 inv_wire\[338\]
*333 inv_wire\[339\]
*334 inv_wire\[33\]
*335 inv_wire\[340\]
*336 inv_wire\[341\]
*337 inv_wire\[342\]
*338 inv_wire\[343\]
*339 inv_wire\[344\]
*340 inv_wire\[345\]
*341 inv_wire\[346\]
*342 inv_wire\[347\]
*343 inv_wire\[348\]
*344 inv_wire\[349\]
*345 inv_wire\[34\]
*346 inv_wire\[350\]
*347 inv_wire\[351\]
*348 inv_wire\[352\]
*349 inv_wire\[353\]
*350 inv_wire\[354\]
*351 inv_wire\[355\]
*352 inv_wire\[356\]
*353 inv_wire\[357\]
*354 inv_wire\[358\]
*355 inv_wire\[359\]
*356 inv_wire\[35\]
*357 inv_wire\[360\]
*358 inv_wire\[361\]
*359 inv_wire\[362\]
*360 inv_wire\[363\]
*361 inv_wire\[364\]
*362 inv_wire\[365\]
*363 inv_wire\[366\]
*364 inv_wire\[367\]
*365 inv_wire\[368\]
*366 inv_wire\[369\]
*367 inv_wire\[36\]
*368 inv_wire\[370\]
*369 inv_wire\[371\]
*370 inv_wire\[372\]
*371 inv_wire\[373\]
*372 inv_wire\[374\]
*373 inv_wire\[375\]
*374 inv_wire\[376\]
*375 inv_wire\[377\]
*376 inv_wire\[378\]
*377 inv_wire\[379\]
*378 inv_wire\[37\]
*379 inv_wire\[380\]
*380 inv_wire\[381\]
*381 inv_wire\[382\]
*382 inv_wire\[383\]
*383 inv_wire\[384\]
*384 inv_wire\[385\]
*385 inv_wire\[386\]
*386 inv_wire\[387\]
*387 inv_wire\[388\]
*388 inv_wire\[389\]
*389 inv_wire\[38\]
*390 inv_wire\[390\]
*391 inv_wire\[391\]
*392 inv_wire\[392\]
*393 inv_wire\[393\]
*394 inv_wire\[394\]
*395 inv_wire\[395\]
*396 inv_wire\[396\]
*397 inv_wire\[397\]
*398 inv_wire\[398\]
*399 inv_wire\[399\]
*400 inv_wire\[39\]
*401 inv_wire\[3\]
*402 inv_wire\[400\]
*403 inv_wire\[401\]
*404 inv_wire\[402\]
*405 inv_wire\[403\]
*406 inv_wire\[404\]
*407 inv_wire\[405\]
*408 inv_wire\[406\]
*409 inv_wire\[407\]
*410 inv_wire\[408\]
*411 inv_wire\[409\]
*412 inv_wire\[40\]
*413 inv_wire\[410\]
*414 inv_wire\[411\]
*415 inv_wire\[412\]
*416 inv_wire\[413\]
*417 inv_wire\[414\]
*418 inv_wire\[415\]
*419 inv_wire\[416\]
*420 inv_wire\[417\]
*421 inv_wire\[418\]
*422 inv_wire\[419\]
*423 inv_wire\[41\]
*424 inv_wire\[420\]
*425 inv_wire\[421\]
*426 inv_wire\[422\]
*427 inv_wire\[423\]
*428 inv_wire\[424\]
*429 inv_wire\[425\]
*430 inv_wire\[426\]
*431 inv_wire\[427\]
*432 inv_wire\[428\]
*433 inv_wire\[429\]
*434 inv_wire\[42\]
*435 inv_wire\[430\]
*436 inv_wire\[431\]
*437 inv_wire\[432\]
*438 inv_wire\[433\]
*439 inv_wire\[434\]
*440 inv_wire\[435\]
*441 inv_wire\[436\]
*442 inv_wire\[437\]
*443 inv_wire\[438\]
*444 inv_wire\[439\]
*445 inv_wire\[43\]
*446 inv_wire\[440\]
*447 inv_wire\[441\]
*448 inv_wire\[442\]
*449 inv_wire\[443\]
*450 inv_wire\[444\]
*451 inv_wire\[445\]
*452 inv_wire\[446\]
*453 inv_wire\[447\]
*454 inv_wire\[448\]
*455 inv_wire\[449\]
*456 inv_wire\[44\]
*457 inv_wire\[450\]
*458 inv_wire\[451\]
*459 inv_wire\[452\]
*460 inv_wire\[453\]
*461 inv_wire\[454\]
*462 inv_wire\[455\]
*463 inv_wire\[456\]
*464 inv_wire\[457\]
*465 inv_wire\[458\]
*466 inv_wire\[459\]
*467 inv_wire\[45\]
*468 inv_wire\[460\]
*469 inv_wire\[461\]
*470 inv_wire\[462\]
*471 inv_wire\[463\]
*472 inv_wire\[464\]
*473 inv_wire\[465\]
*474 inv_wire\[466\]
*475 inv_wire\[467\]
*476 inv_wire\[468\]
*477 inv_wire\[469\]
*478 inv_wire\[46\]
*479 inv_wire\[470\]
*480 inv_wire\[471\]
*481 inv_wire\[472\]
*482 inv_wire\[473\]
*483 inv_wire\[474\]
*484 inv_wire\[475\]
*485 inv_wire\[476\]
*486 inv_wire\[477\]
*487 inv_wire\[478\]
*488 inv_wire\[479\]
*489 inv_wire\[47\]
*490 inv_wire\[480\]
*491 inv_wire\[481\]
*492 inv_wire\[482\]
*493 inv_wire\[483\]
*494 inv_wire\[484\]
*495 inv_wire\[485\]
*496 inv_wire\[486\]
*497 inv_wire\[487\]
*498 inv_wire\[488\]
*499 inv_wire\[489\]
*500 inv_wire\[48\]
*501 inv_wire\[490\]
*502 inv_wire\[491\]
*503 inv_wire\[492\]
*504 inv_wire\[493\]
*505 inv_wire\[494\]
*506 inv_wire\[495\]
*507 inv_wire\[496\]
*508 inv_wire\[497\]
*509 inv_wire\[498\]
*510 inv_wire\[499\]
*511 inv_wire\[49\]
*512 inv_wire\[4\]
*513 inv_wire\[500\]
*514 inv_wire\[501\]
*515 inv_wire\[502\]
*516 inv_wire\[503\]
*517 inv_wire\[504\]
*518 inv_wire\[505\]
*519 inv_wire\[506\]
*520 inv_wire\[507\]
*521 inv_wire\[508\]
*522 inv_wire\[509\]
*523 inv_wire\[50\]
*524 inv_wire\[510\]
*525 inv_wire\[511\]
*526 inv_wire\[512\]
*527 inv_wire\[513\]
*528 inv_wire\[514\]
*529 inv_wire\[515\]
*530 inv_wire\[516\]
*531 inv_wire\[517\]
*532 inv_wire\[518\]
*533 inv_wire\[519\]
*534 inv_wire\[51\]
*535 inv_wire\[520\]
*536 inv_wire\[521\]
*537 inv_wire\[522\]
*538 inv_wire\[523\]
*539 inv_wire\[524\]
*540 inv_wire\[525\]
*541 inv_wire\[526\]
*542 inv_wire\[527\]
*543 inv_wire\[528\]
*544 inv_wire\[529\]
*545 inv_wire\[52\]
*546 inv_wire\[530\]
*547 inv_wire\[531\]
*548 inv_wire\[532\]
*549 inv_wire\[533\]
*550 inv_wire\[534\]
*551 inv_wire\[535\]
*552 inv_wire\[536\]
*553 inv_wire\[537\]
*554 inv_wire\[538\]
*555 inv_wire\[539\]
*556 inv_wire\[53\]
*557 inv_wire\[540\]
*558 inv_wire\[541\]
*559 inv_wire\[542\]
*560 inv_wire\[543\]
*561 inv_wire\[544\]
*562 inv_wire\[545\]
*563 inv_wire\[546\]
*564 inv_wire\[547\]
*565 inv_wire\[548\]
*566 inv_wire\[549\]
*567 inv_wire\[54\]
*568 inv_wire\[550\]
*569 inv_wire\[551\]
*570 inv_wire\[552\]
*571 inv_wire\[553\]
*572 inv_wire\[554\]
*573 inv_wire\[555\]
*574 inv_wire\[556\]
*575 inv_wire\[557\]
*576 inv_wire\[558\]
*577 inv_wire\[559\]
*578 inv_wire\[55\]
*579 inv_wire\[560\]
*580 inv_wire\[561\]
*581 inv_wire\[562\]
*582 inv_wire\[563\]
*583 inv_wire\[564\]
*584 inv_wire\[565\]
*585 inv_wire\[566\]
*586 inv_wire\[567\]
*587 inv_wire\[568\]
*588 inv_wire\[569\]
*589 inv_wire\[56\]
*590 inv_wire\[570\]
*591 inv_wire\[571\]
*592 inv_wire\[572\]
*593 inv_wire\[573\]
*594 inv_wire\[574\]
*595 inv_wire\[575\]
*596 inv_wire\[576\]
*597 inv_wire\[577\]
*598 inv_wire\[578\]
*599 inv_wire\[579\]
*600 inv_wire\[57\]
*601 inv_wire\[580\]
*602 inv_wire\[581\]
*603 inv_wire\[582\]
*604 inv_wire\[583\]
*605 inv_wire\[584\]
*606 inv_wire\[585\]
*607 inv_wire\[586\]
*608 inv_wire\[587\]
*609 inv_wire\[588\]
*610 inv_wire\[589\]
*611 inv_wire\[58\]
*612 inv_wire\[590\]
*613 inv_wire\[591\]
*614 inv_wire\[592\]
*615 inv_wire\[593\]
*616 inv_wire\[594\]
*617 inv_wire\[595\]
*618 inv_wire\[596\]
*619 inv_wire\[597\]
*620 inv_wire\[598\]
*621 inv_wire\[599\]
*622 inv_wire\[59\]
*623 inv_wire\[5\]
*624 inv_wire\[600\]
*625 inv_wire\[601\]
*626 inv_wire\[602\]
*627 inv_wire\[603\]
*628 inv_wire\[604\]
*629 inv_wire\[605\]
*630 inv_wire\[606\]
*631 inv_wire\[607\]
*632 inv_wire\[608\]
*633 inv_wire\[609\]
*634 inv_wire\[60\]
*635 inv_wire\[610\]
*636 inv_wire\[611\]
*637 inv_wire\[612\]
*638 inv_wire\[613\]
*639 inv_wire\[614\]
*640 inv_wire\[615\]
*641 inv_wire\[616\]
*642 inv_wire\[617\]
*643 inv_wire\[618\]
*644 inv_wire\[619\]
*645 inv_wire\[61\]
*646 inv_wire\[620\]
*647 inv_wire\[621\]
*648 inv_wire\[622\]
*649 inv_wire\[623\]
*650 inv_wire\[624\]
*651 inv_wire\[625\]
*652 inv_wire\[626\]
*653 inv_wire\[627\]
*654 inv_wire\[628\]
*655 inv_wire\[629\]
*656 inv_wire\[62\]
*657 inv_wire\[630\]
*658 inv_wire\[631\]
*659 inv_wire\[632\]
*660 inv_wire\[633\]
*661 inv_wire\[634\]
*662 inv_wire\[635\]
*663 inv_wire\[636\]
*664 inv_wire\[637\]
*665 inv_wire\[638\]
*666 inv_wire\[639\]
*667 inv_wire\[63\]
*668 inv_wire\[640\]
*669 inv_wire\[641\]
*670 inv_wire\[642\]
*671 inv_wire\[643\]
*672 inv_wire\[644\]
*673 inv_wire\[645\]
*674 inv_wire\[646\]
*675 inv_wire\[647\]
*676 inv_wire\[648\]
*677 inv_wire\[649\]
*678 inv_wire\[64\]
*679 inv_wire\[650\]
*680 inv_wire\[651\]
*681 inv_wire\[652\]
*682 inv_wire\[653\]
*683 inv_wire\[654\]
*684 inv_wire\[655\]
*685 inv_wire\[656\]
*686 inv_wire\[657\]
*687 inv_wire\[658\]
*688 inv_wire\[659\]
*689 inv_wire\[65\]
*690 inv_wire\[660\]
*691 inv_wire\[661\]
*692 inv_wire\[662\]
*693 inv_wire\[663\]
*694 inv_wire\[664\]
*695 inv_wire\[665\]
*696 inv_wire\[666\]
*697 inv_wire\[667\]
*698 inv_wire\[668\]
*699 inv_wire\[669\]
*700 inv_wire\[66\]
*701 inv_wire\[670\]
*702 inv_wire\[671\]
*703 inv_wire\[672\]
*704 inv_wire\[673\]
*705 inv_wire\[674\]
*706 inv_wire\[675\]
*707 inv_wire\[676\]
*708 inv_wire\[677\]
*709 inv_wire\[678\]
*710 inv_wire\[679\]
*711 inv_wire\[67\]
*712 inv_wire\[680\]
*713 inv_wire\[681\]
*714 inv_wire\[682\]
*715 inv_wire\[683\]
*716 inv_wire\[684\]
*717 inv_wire\[685\]
*718 inv_wire\[686\]
*719 inv_wire\[687\]
*720 inv_wire\[688\]
*721 inv_wire\[689\]
*722 inv_wire\[68\]
*723 inv_wire\[690\]
*724 inv_wire\[691\]
*725 inv_wire\[692\]
*726 inv_wire\[693\]
*727 inv_wire\[694\]
*728 inv_wire\[695\]
*729 inv_wire\[696\]
*730 inv_wire\[697\]
*731 inv_wire\[698\]
*732 inv_wire\[699\]
*733 inv_wire\[69\]
*734 inv_wire\[6\]
*735 inv_wire\[700\]
*736 inv_wire\[701\]
*737 inv_wire\[702\]
*738 inv_wire\[703\]
*739 inv_wire\[704\]
*740 inv_wire\[705\]
*741 inv_wire\[706\]
*742 inv_wire\[707\]
*743 inv_wire\[708\]
*744 inv_wire\[709\]
*745 inv_wire\[70\]
*746 inv_wire\[710\]
*747 inv_wire\[711\]
*748 inv_wire\[712\]
*749 inv_wire\[713\]
*750 inv_wire\[714\]
*751 inv_wire\[715\]
*752 inv_wire\[716\]
*753 inv_wire\[717\]
*754 inv_wire\[718\]
*755 inv_wire\[719\]
*756 inv_wire\[71\]
*757 inv_wire\[720\]
*758 inv_wire\[721\]
*759 inv_wire\[722\]
*760 inv_wire\[723\]
*761 inv_wire\[724\]
*762 inv_wire\[725\]
*763 inv_wire\[726\]
*764 inv_wire\[727\]
*765 inv_wire\[728\]
*766 inv_wire\[729\]
*767 inv_wire\[72\]
*768 inv_wire\[730\]
*769 inv_wire\[731\]
*770 inv_wire\[732\]
*771 inv_wire\[733\]
*772 inv_wire\[734\]
*773 inv_wire\[735\]
*774 inv_wire\[736\]
*775 inv_wire\[737\]
*776 inv_wire\[738\]
*777 inv_wire\[739\]
*778 inv_wire\[73\]
*779 inv_wire\[740\]
*780 inv_wire\[741\]
*781 inv_wire\[742\]
*782 inv_wire\[743\]
*783 inv_wire\[744\]
*784 inv_wire\[745\]
*785 inv_wire\[746\]
*786 inv_wire\[747\]
*787 inv_wire\[748\]
*788 inv_wire\[749\]
*789 inv_wire\[74\]
*790 inv_wire\[750\]
*791 inv_wire\[751\]
*792 inv_wire\[752\]
*793 inv_wire\[753\]
*794 inv_wire\[754\]
*795 inv_wire\[755\]
*796 inv_wire\[756\]
*797 inv_wire\[757\]
*798 inv_wire\[758\]
*799 inv_wire\[759\]
*800 inv_wire\[75\]
*801 inv_wire\[760\]
*802 inv_wire\[761\]
*803 inv_wire\[762\]
*804 inv_wire\[763\]
*805 inv_wire\[764\]
*806 inv_wire\[765\]
*807 inv_wire\[766\]
*808 inv_wire\[767\]
*809 inv_wire\[768\]
*810 inv_wire\[769\]
*811 inv_wire\[76\]
*812 inv_wire\[770\]
*813 inv_wire\[771\]
*814 inv_wire\[772\]
*815 inv_wire\[773\]
*816 inv_wire\[774\]
*817 inv_wire\[775\]
*818 inv_wire\[776\]
*819 inv_wire\[777\]
*820 inv_wire\[778\]
*821 inv_wire\[779\]
*822 inv_wire\[77\]
*823 inv_wire\[780\]
*824 inv_wire\[781\]
*825 inv_wire\[782\]
*826 inv_wire\[783\]
*827 inv_wire\[784\]
*828 inv_wire\[785\]
*829 inv_wire\[786\]
*830 inv_wire\[787\]
*831 inv_wire\[788\]
*832 inv_wire\[789\]
*833 inv_wire\[78\]
*834 inv_wire\[790\]
*835 inv_wire\[791\]
*836 inv_wire\[792\]
*837 inv_wire\[793\]
*838 inv_wire\[794\]
*839 inv_wire\[795\]
*840 inv_wire\[796\]
*841 inv_wire\[797\]
*842 inv_wire\[798\]
*843 inv_wire\[799\]
*844 inv_wire\[79\]
*845 inv_wire\[7\]
*846 inv_wire\[800\]
*847 inv_wire\[801\]
*848 inv_wire\[802\]
*849 inv_wire\[803\]
*850 inv_wire\[804\]
*851 inv_wire\[805\]
*852 inv_wire\[806\]
*853 inv_wire\[807\]
*854 inv_wire\[808\]
*855 inv_wire\[809\]
*856 inv_wire\[80\]
*857 inv_wire\[810\]
*858 inv_wire\[811\]
*859 inv_wire\[812\]
*860 inv_wire\[813\]
*861 inv_wire\[814\]
*862 inv_wire\[815\]
*863 inv_wire\[816\]
*864 inv_wire\[817\]
*865 inv_wire\[818\]
*866 inv_wire\[819\]
*867 inv_wire\[81\]
*868 inv_wire\[820\]
*869 inv_wire\[821\]
*870 inv_wire\[822\]
*871 inv_wire\[823\]
*872 inv_wire\[824\]
*873 inv_wire\[825\]
*874 inv_wire\[826\]
*875 inv_wire\[827\]
*876 inv_wire\[828\]
*877 inv_wire\[829\]
*878 inv_wire\[82\]
*879 inv_wire\[830\]
*880 inv_wire\[831\]
*881 inv_wire\[832\]
*882 inv_wire\[833\]
*883 inv_wire\[834\]
*884 inv_wire\[835\]
*885 inv_wire\[836\]
*886 inv_wire\[837\]
*887 inv_wire\[838\]
*888 inv_wire\[839\]
*889 inv_wire\[83\]
*890 inv_wire\[840\]
*891 inv_wire\[841\]
*892 inv_wire\[842\]
*893 inv_wire\[843\]
*894 inv_wire\[844\]
*895 inv_wire\[845\]
*896 inv_wire\[846\]
*897 inv_wire\[847\]
*898 inv_wire\[848\]
*899 inv_wire\[849\]
*900 inv_wire\[84\]
*901 inv_wire\[850\]
*902 inv_wire\[851\]
*903 inv_wire\[852\]
*904 inv_wire\[853\]
*905 inv_wire\[854\]
*906 inv_wire\[855\]
*907 inv_wire\[856\]
*908 inv_wire\[857\]
*909 inv_wire\[858\]
*910 inv_wire\[859\]
*911 inv_wire\[85\]
*912 inv_wire\[860\]
*913 inv_wire\[861\]
*914 inv_wire\[862\]
*915 inv_wire\[863\]
*916 inv_wire\[864\]
*917 inv_wire\[865\]
*918 inv_wire\[866\]
*919 inv_wire\[867\]
*920 inv_wire\[868\]
*921 inv_wire\[869\]
*922 inv_wire\[86\]
*923 inv_wire\[870\]
*924 inv_wire\[871\]
*925 inv_wire\[872\]
*926 inv_wire\[873\]
*927 inv_wire\[874\]
*928 inv_wire\[875\]
*929 inv_wire\[876\]
*930 inv_wire\[877\]
*931 inv_wire\[878\]
*932 inv_wire\[879\]
*933 inv_wire\[87\]
*934 inv_wire\[880\]
*935 inv_wire\[881\]
*936 inv_wire\[882\]
*937 inv_wire\[883\]
*938 inv_wire\[884\]
*939 inv_wire\[885\]
*940 inv_wire\[886\]
*941 inv_wire\[887\]
*942 inv_wire\[888\]
*943 inv_wire\[889\]
*944 inv_wire\[88\]
*945 inv_wire\[890\]
*946 inv_wire\[891\]
*947 inv_wire\[892\]
*948 inv_wire\[893\]
*949 inv_wire\[894\]
*950 inv_wire\[895\]
*951 inv_wire\[896\]
*952 inv_wire\[897\]
*953 inv_wire\[898\]
*954 inv_wire\[899\]
*955 inv_wire\[89\]
*956 inv_wire\[8\]
*957 inv_wire\[900\]
*958 inv_wire\[901\]
*959 inv_wire\[902\]
*960 inv_wire\[903\]
*961 inv_wire\[904\]
*962 inv_wire\[905\]
*963 inv_wire\[906\]
*964 inv_wire\[907\]
*965 inv_wire\[908\]
*966 inv_wire\[909\]
*967 inv_wire\[90\]
*968 inv_wire\[910\]
*969 inv_wire\[911\]
*970 inv_wire\[912\]
*971 inv_wire\[913\]
*972 inv_wire\[914\]
*973 inv_wire\[915\]
*974 inv_wire\[916\]
*975 inv_wire\[917\]
*976 inv_wire\[918\]
*977 inv_wire\[919\]
*978 inv_wire\[91\]
*979 inv_wire\[920\]
*980 inv_wire\[921\]
*981 inv_wire\[922\]
*982 inv_wire\[923\]
*983 inv_wire\[924\]
*984 inv_wire\[925\]
*985 inv_wire\[926\]
*986 inv_wire\[927\]
*987 inv_wire\[928\]
*988 inv_wire\[929\]
*989 inv_wire\[92\]
*990 inv_wire\[930\]
*991 inv_wire\[931\]
*992 inv_wire\[932\]
*993 inv_wire\[933\]
*994 inv_wire\[934\]
*995 inv_wire\[935\]
*996 inv_wire\[936\]
*997 inv_wire\[937\]
*998 inv_wire\[938\]
*999 inv_wire\[939\]
*1000 inv_wire\[93\]
*1001 inv_wire\[940\]
*1002 inv_wire\[941\]
*1003 inv_wire\[942\]
*1004 inv_wire\[943\]
*1005 inv_wire\[944\]
*1006 inv_wire\[945\]
*1007 inv_wire\[946\]
*1008 inv_wire\[947\]
*1009 inv_wire\[948\]
*1010 inv_wire\[949\]
*1011 inv_wire\[94\]
*1012 inv_wire\[950\]
*1013 inv_wire\[951\]
*1014 inv_wire\[952\]
*1015 inv_wire\[953\]
*1016 inv_wire\[954\]
*1017 inv_wire\[955\]
*1018 inv_wire\[956\]
*1019 inv_wire\[957\]
*1020 inv_wire\[958\]
*1021 inv_wire\[959\]
*1022 inv_wire\[95\]
*1023 inv_wire\[960\]
*1024 inv_wire\[961\]
*1025 inv_wire\[962\]
*1026 inv_wire\[963\]
*1027 inv_wire\[964\]
*1028 inv_wire\[965\]
*1029 inv_wire\[966\]
*1030 inv_wire\[967\]
*1031 inv_wire\[968\]
*1032 inv_wire\[969\]
*1033 inv_wire\[96\]
*1034 inv_wire\[970\]
*1035 inv_wire\[971\]
*1036 inv_wire\[972\]
*1037 inv_wire\[973\]
*1038 inv_wire\[974\]
*1039 inv_wire\[975\]
*1040 inv_wire\[976\]
*1041 inv_wire\[977\]
*1042 inv_wire\[978\]
*1043 inv_wire\[979\]
*1044 inv_wire\[97\]
*1045 inv_wire\[980\]
*1046 inv_wire\[981\]
*1047 inv_wire\[982\]
*1048 inv_wire\[983\]
*1049 inv_wire\[984\]
*1050 inv_wire\[985\]
*1051 inv_wire\[986\]
*1052 inv_wire\[987\]
*1053 inv_wire\[988\]
*1054 inv_wire\[989\]
*1055 inv_wire\[98\]
*1056 inv_wire\[990\]
*1057 inv_wire\[991\]
*1058 inv_wire\[992\]
*1059 inv_wire\[993\]
*1060 inv_wire\[994\]
*1061 inv_wire\[995\]
*1062 inv_wire\[996\]
*1063 inv_wire\[997\]
*1064 inv_wire\[998\]
*1065 inv_wire\[999\]
*1066 inv_wire\[99\]
*1067 inv_wire\[9\]
*1068 net1
*1069 net10
*1070 net11
*1071 net12
*1072 net13
*1073 net14
*1074 net15
*1075 net16
*1076 net17
*1077 net18
*1078 net19
*1079 net2
*1080 net20
*1081 net21
*1082 net22
*1083 net3
*1084 net4
*1085 net5
*1086 net6
*1087 net7
*1088 net8
*1089 net9
*1090 FILLER_0_0
*1091 FILLER_0_105
*1092 FILLER_0_121
*1093 FILLER_0_125
*1094 FILLER_0_130
*1095 FILLER_0_132
*1096 FILLER_0_169
*1097 FILLER_0_185
*1098 FILLER_0_19
*1099 FILLER_0_26
*1100 FILLER_0_30
*1101 FILLER_0_52
*1102 FILLER_0_68
*1103 FILLER_10_0
*1104 FILLER_10_106
*1105 FILLER_10_110
*1106 FILLER_10_121
*1107 FILLER_10_125
*1108 FILLER_10_130
*1109 FILLER_10_132
*1110 FILLER_10_181
*1111 FILLER_10_19
*1112 FILLER_10_26
*1113 FILLER_10_48
*1114 FILLER_10_86
*1115 FILLER_10_91
*1116 FILLER_10_99
*1117 FILLER_11_0
*1118 FILLER_11_105
*1119 FILLER_11_122
*1120 FILLER_11_126
*1121 FILLER_11_130
*1122 FILLER_11_132
*1123 FILLER_11_163
*1124 FILLER_11_165
*1125 FILLER_11_172
*1126 FILLER_11_176
*1127 FILLER_11_19
*1128 FILLER_11_190
*1129 FILLER_11_26
*1130 FILLER_11_28
*1131 FILLER_11_44
*1132 FILLER_11_54
*1133 FILLER_11_68
*1134 FILLER_11_75
*1135 FILLER_11_85
*1136 FILLER_11_87
*1137 FILLER_11_93
*1138 FILLER_11_95
*1139 FILLER_12_113
*1140 FILLER_12_121
*1141 FILLER_12_128
*1142 FILLER_12_132
*1143 FILLER_12_166
*1144 FILLER_12_174
*1145 FILLER_12_181
*1146 FILLER_12_19
*1147 FILLER_12_26
*1148 FILLER_12_30
*1149 FILLER_12_34
*1150 FILLER_12_41
*1151 FILLER_12_51
*1152 FILLER_12_61
*1153 FILLER_12_68
*1154 FILLER_12_81
*1155 FILLER_12_91
*1156 FILLER_13_0
*1157 FILLER_13_105
*1158 FILLER_13_121
*1159 FILLER_13_125
*1160 FILLER_13_130
*1161 FILLER_13_132
*1162 FILLER_13_14
*1163 FILLER_13_154
*1164 FILLER_13_161
*1165 FILLER_13_171
*1166 FILLER_13_178
*1167 FILLER_13_19
*1168 FILLER_13_191
*1169 FILLER_13_21
*1170 FILLER_13_25
*1171 FILLER_13_29
*1172 FILLER_13_40
*1173 FILLER_13_77
*1174 FILLER_13_86
*1175 FILLER_13_91
*1176 FILLER_13_98
*1177 FILLER_14_101
*1178 FILLER_14_105
*1179 FILLER_14_121
*1180 FILLER_14_125
*1181 FILLER_14_130
*1182 FILLER_14_132
*1183 FILLER_14_136
*1184 FILLER_14_173
*1185 FILLER_14_184
*1186 FILLER_14_19
*1187 FILLER_14_191
*1188 FILLER_14_21
*1189 FILLER_14_25
*1190 FILLER_14_41
*1191 FILLER_14_54
*1192 FILLER_14_67
*1193 FILLER_14_74
*1194 FILLER_14_76
*1195 FILLER_14_87
*1196 FILLER_14_9
*1197 FILLER_15_109
*1198 FILLER_15_113
*1199 FILLER_15_121
*1200 FILLER_15_125
*1201 FILLER_15_130
*1202 FILLER_15_132
*1203 FILLER_15_154
*1204 FILLER_15_164
*1205 FILLER_15_18
*1206 FILLER_15_180
*1207 FILLER_15_190
*1208 FILLER_15_22
*1209 FILLER_15_26
*1210 FILLER_15_28
*1211 FILLER_15_59
*1212 FILLER_15_75
*1213 FILLER_15_77
*1214 FILLER_16_102
*1215 FILLER_16_121
*1216 FILLER_16_125
*1217 FILLER_16_130
*1218 FILLER_16_132
*1219 FILLER_16_136
*1220 FILLER_16_143
*1221 FILLER_16_15
*1222 FILLER_16_150
*1223 FILLER_16_163
*1224 FILLER_16_170
*1225 FILLER_16_178
*1226 FILLER_16_19
*1227 FILLER_16_190
*1228 FILLER_16_21
*1229 FILLER_16_25
*1230 FILLER_16_32
*1231 FILLER_16_36
*1232 FILLER_16_4
*1233 FILLER_16_48
*1234 FILLER_16_58
*1235 FILLER_16_81
*1236 FILLER_16_88
*1237 FILLER_16_98
*1238 FILLER_17_0
*1239 FILLER_17_104
*1240 FILLER_17_108
*1241 FILLER_17_122
*1242 FILLER_17_126
*1243 FILLER_17_130
*1244 FILLER_17_132
*1245 FILLER_17_19
*1246 FILLER_17_190
*1247 FILLER_17_26
*1248 FILLER_17_28
*1249 FILLER_17_44
*1250 FILLER_17_54
*1251 FILLER_17_61
*1252 FILLER_17_8
*1253 FILLER_17_93
*1254 FILLER_17_97
*1255 FILLER_18_105
*1256 FILLER_18_116
*1257 FILLER_18_123
*1258 FILLER_18_130
*1259 FILLER_18_132
*1260 FILLER_18_163
*1261 FILLER_18_174
*1262 FILLER_18_19
*1263 FILLER_18_26
*1264 FILLER_18_6
*1265 FILLER_19_0
*1266 FILLER_19_103
*1267 FILLER_19_122
*1268 FILLER_19_126
*1269 FILLER_19_130
*1270 FILLER_19_132
*1271 FILLER_19_14
*1272 FILLER_19_157
*1273 FILLER_19_161
*1274 FILLER_19_171
*1275 FILLER_19_19
*1276 FILLER_19_191
*1277 FILLER_19_26
*1278 FILLER_19_30
*1279 FILLER_19_43
*1280 FILLER_19_60
*1281 FILLER_19_67
*1282 FILLER_19_71
*1283 FILLER_19_78
*1284 FILLER_19_82
*1285 FILLER_19_89
*1286 FILLER_19_96
*1287 FILLER_1_103
*1288 FILLER_1_111
*1289 FILLER_1_121
*1290 FILLER_1_125
*1291 FILLER_1_130
*1292 FILLER_1_132
*1293 FILLER_1_160
*1294 FILLER_1_168
*1295 FILLER_1_176
*1296 FILLER_1_18
*1297 FILLER_1_180
*1298 FILLER_1_22
*1299 FILLER_1_26
*1300 FILLER_1_28
*1301 FILLER_1_44
*1302 FILLER_1_55
*1303 FILLER_1_63
*1304 FILLER_1_7
*1305 FILLER_1_73
*1306 FILLER_1_92
*1307 FILLER_20_118
*1308 FILLER_20_12
*1309 FILLER_20_123
*1310 FILLER_20_130
*1311 FILLER_20_132
*1312 FILLER_20_172
*1313 FILLER_20_179
*1314 FILLER_20_19
*1315 FILLER_20_190
*1316 FILLER_20_26
*1317 FILLER_20_28
*1318 FILLER_20_4
*1319 FILLER_20_56
*1320 FILLER_20_63
*1321 FILLER_21_0
*1322 FILLER_21_101
*1323 FILLER_21_111
*1324 FILLER_21_122
*1325 FILLER_21_126
*1326 FILLER_21_130
*1327 FILLER_21_132
*1328 FILLER_21_181
*1329 FILLER_21_186
*1330 FILLER_21_19
*1331 FILLER_21_26
*1332 FILLER_21_36
*1333 FILLER_21_50
*1334 FILLER_21_66
*1335 FILLER_21_77
*1336 FILLER_21_87
*1337 FILLER_21_91
*1338 FILLER_22_0
*1339 FILLER_22_104
*1340 FILLER_22_111
*1341 FILLER_22_118
*1342 FILLER_22_123
*1343 FILLER_22_130
*1344 FILLER_22_132
*1345 FILLER_22_139
*1346 FILLER_22_167
*1347 FILLER_22_178
*1348 FILLER_22_19
*1349 FILLER_22_26
*1350 FILLER_22_30
*1351 FILLER_22_43
*1352 FILLER_22_62
*1353 FILLER_22_78
*1354 FILLER_22_82
*1355 FILLER_22_90
*1356 FILLER_22_97
*1357 FILLER_23_100
*1358 FILLER_23_102
*1359 FILLER_23_121
*1360 FILLER_23_125
*1361 FILLER_23_130
*1362 FILLER_23_132
*1363 FILLER_23_178
*1364 FILLER_23_19
*1365 FILLER_23_190
*1366 FILLER_23_26
*1367 FILLER_23_28
*1368 FILLER_23_47
*1369 FILLER_23_88
*1370 FILLER_23_90
*1371 FILLER_2_0
*1372 FILLER_2_103
*1373 FILLER_2_11
*1374 FILLER_2_122
*1375 FILLER_2_126
*1376 FILLER_2_130
*1377 FILLER_2_132
*1378 FILLER_2_148
*1379 FILLER_2_15
*1380 FILLER_2_174
*1381 FILLER_2_19
*1382 FILLER_2_191
*1383 FILLER_2_26
*1384 FILLER_2_28
*1385 FILLER_2_41
*1386 FILLER_2_51
*1387 FILLER_2_64
*1388 FILLER_2_7
*1389 FILLER_2_99
*1390 FILLER_3_101
*1391 FILLER_3_108
*1392 FILLER_3_110
*1393 FILLER_3_123
*1394 FILLER_3_130
*1395 FILLER_3_134
*1396 FILLER_3_156
*1397 FILLER_3_172
*1398 FILLER_3_182
*1399 FILLER_3_19
*1400 FILLER_3_190
*1401 FILLER_3_26
*1402 FILLER_3_28
*1403 FILLER_3_53
*1404 FILLER_3_9
*1405 FILLER_4_0
*1406 FILLER_4_111
*1407 FILLER_4_115
*1408 FILLER_4_123
*1409 FILLER_4_130
*1410 FILLER_4_132
*1411 FILLER_4_170
*1412 FILLER_4_186
*1413 FILLER_4_19
*1414 FILLER_4_21
*1415 FILLER_4_26
*1416 FILLER_4_30
*1417 FILLER_4_69
*1418 FILLER_4_7
*1419 FILLER_4_76
*1420 FILLER_4_83
*1421 FILLER_4_87
*1422 FILLER_4_94
*1423 FILLER_5_104
*1424 FILLER_5_111
*1425 FILLER_5_118
*1426 FILLER_5_123
*1427 FILLER_5_130
*1428 FILLER_5_149
*1429 FILLER_5_156
*1430 FILLER_5_181
*1431 FILLER_5_19
*1432 FILLER_5_191
*1433 FILLER_5_21
*1434 FILLER_5_25
*1435 FILLER_5_32
*1436 FILLER_5_48
*1437 FILLER_5_58
*1438 FILLER_5_80
*1439 FILLER_5_84
*1440 FILLER_5_88
*1441 FILLER_6_0
*1442 FILLER_6_101
*1443 FILLER_6_123
*1444 FILLER_6_130
*1445 FILLER_6_132
*1446 FILLER_6_154
*1447 FILLER_6_167
*1448 FILLER_6_171
*1449 FILLER_6_181
*1450 FILLER_6_19
*1451 FILLER_6_190
*1452 FILLER_6_26
*1453 FILLER_6_30
*1454 FILLER_6_76
*1455 FILLER_6_83
*1456 FILLER_6_94
*1457 FILLER_7_0
*1458 FILLER_7_105
*1459 FILLER_7_121
*1460 FILLER_7_125
*1461 FILLER_7_130
*1462 FILLER_7_132
*1463 FILLER_7_178
*1464 FILLER_7_183
*1465 FILLER_7_19
*1466 FILLER_7_190
*1467 FILLER_7_26
*1468 FILLER_7_28
*1469 FILLER_7_44
*1470 FILLER_7_52
*1471 FILLER_7_59
*1472 FILLER_7_66
*1473 FILLER_7_76
*1474 FILLER_7_8
*1475 FILLER_8_103
*1476 FILLER_8_116
*1477 FILLER_8_121
*1478 FILLER_8_125
*1479 FILLER_8_130
*1480 FILLER_8_132
*1481 FILLER_8_14
*1482 FILLER_8_157
*1483 FILLER_8_164
*1484 FILLER_8_168
*1485 FILLER_8_178
*1486 FILLER_8_18
*1487 FILLER_8_190
*1488 FILLER_8_25
*1489 FILLER_8_4
*1490 FILLER_8_50
*1491 FILLER_8_58
*1492 FILLER_8_62
*1493 FILLER_8_75
*1494 FILLER_9_0
*1495 FILLER_9_102
*1496 FILLER_9_106
*1497 FILLER_9_122
*1498 FILLER_9_126
*1499 FILLER_9_130
*1500 FILLER_9_132
*1501 FILLER_9_148
*1502 FILLER_9_171
*1503 FILLER_9_18
*1504 FILLER_9_184
*1505 FILLER_9_25
*1506 FILLER_9_62
*1507 FILLER_9_8
*1508 FILLER_9_81
*1509 FILLER_9_91
*1510 _38_
*1511 _39_
*1512 _40_
*1513 _41_
*1514 _42_
*1515 _43_
*1516 _44_
*1517 _45_
*1518 _46_
*1519 _47_
*1520 _48_
*1521 _49_
*1522 _50_
*1523 _51_
*1524 _52_
*1525 _53_
*1526 _54_
*1527 _55_
*1528 _56_
*1529 _57_
*1530 _58_
*1531 _59_
*1532 _60_
*1533 _61_
*1534 _62_
*1535 _63_
*1536 _64_
*1537 _65_
*1538 _66_
*1539 _67_
*1540 _68_
*1541 _69_
*1542 _70_
*1543 _71_
*1544 _72_
*1545 _73_
*1546 _74_
*1547 _75_
*1548 _76_
*1549 fanout17
*1550 fanout18
*1551 fanout19
*1552 fanout20
*1553 fanout21
*1554 fanout22
*1555 g_out_tap\[0\]\.i_tap_buf
*1556 g_out_tap\[1\]\.i_tap_buf
*1557 g_out_tap\[2\]\.i_tap_buf
*1558 g_out_tap\[3\]\.i_tap_buf
*1559 g_out_tap\[4\]\.i_tap_buf
*1560 g_out_tap\[5\]\.i_tap_buf
*1561 g_out_tap\[6\]\.i_tap_buf
*1562 g_out_tap\[7\]\.i_tap_buf
*1563 genblk3\[0\]\.i_inv
*1564 genblk3\[1000\]\.i_inv
*1565 genblk3\[1001\]\.i_inv
*1566 genblk3\[1002\]\.i_inv
*1567 genblk3\[1003\]\.i_inv
*1568 genblk3\[1004\]\.i_inv
*1569 genblk3\[1005\]\.i_inv
*1570 genblk3\[1006\]\.i_inv
*1571 genblk3\[1007\]\.i_inv
*1572 genblk3\[1008\]\.i_inv
*1573 genblk3\[1009\]\.i_inv
*1574 genblk3\[100\]\.i_inv
*1575 genblk3\[1010\]\.i_inv
*1576 genblk3\[101\]\.i_inv
*1577 genblk3\[102\]\.i_inv
*1578 genblk3\[103\]\.i_inv
*1579 genblk3\[104\]\.i_inv
*1580 genblk3\[105\]\.i_inv
*1581 genblk3\[106\]\.i_inv
*1582 genblk3\[107\]\.i_inv
*1583 genblk3\[108\]\.i_inv
*1584 genblk3\[109\]\.i_inv
*1585 genblk3\[10\]\.i_inv
*1586 genblk3\[110\]\.i_inv
*1587 genblk3\[111\]\.i_inv
*1588 genblk3\[112\]\.i_inv
*1589 genblk3\[113\]\.i_inv
*1590 genblk3\[114\]\.i_inv
*1591 genblk3\[115\]\.i_inv
*1592 genblk3\[116\]\.i_inv
*1593 genblk3\[117\]\.i_inv
*1594 genblk3\[118\]\.i_inv
*1595 genblk3\[119\]\.i_inv
*1596 genblk3\[11\]\.i_inv
*1597 genblk3\[120\]\.i_inv
*1598 genblk3\[121\]\.i_inv
*1599 genblk3\[122\]\.i_inv
*1600 genblk3\[123\]\.i_inv
*1601 genblk3\[124\]\.i_inv
*1602 genblk3\[125\]\.i_inv
*1603 genblk3\[126\]\.i_inv
*1604 genblk3\[127\]\.i_inv
*1605 genblk3\[128\]\.i_inv
*1606 genblk3\[129\]\.i_inv
*1607 genblk3\[12\]\.i_inv
*1608 genblk3\[130\]\.i_inv
*1609 genblk3\[131\]\.i_inv
*1610 genblk3\[132\]\.i_inv
*1611 genblk3\[133\]\.i_inv
*1612 genblk3\[134\]\.i_inv
*1613 genblk3\[135\]\.i_inv
*1614 genblk3\[136\]\.i_inv
*1615 genblk3\[137\]\.i_inv
*1616 genblk3\[138\]\.i_inv
*1617 genblk3\[139\]\.i_inv
*1618 genblk3\[13\]\.i_inv
*1619 genblk3\[140\]\.i_inv
*1620 genblk3\[141\]\.i_inv
*1621 genblk3\[142\]\.i_inv
*1622 genblk3\[143\]\.i_inv
*1623 genblk3\[144\]\.i_inv
*1624 genblk3\[145\]\.i_inv
*1625 genblk3\[146\]\.i_inv
*1626 genblk3\[147\]\.i_inv
*1627 genblk3\[148\]\.i_inv
*1628 genblk3\[149\]\.i_inv
*1629 genblk3\[14\]\.i_inv
*1630 genblk3\[150\]\.i_inv
*1631 genblk3\[151\]\.i_inv
*1632 genblk3\[152\]\.i_inv
*1633 genblk3\[153\]\.i_inv
*1634 genblk3\[154\]\.i_inv
*1635 genblk3\[155\]\.i_inv
*1636 genblk3\[156\]\.i_inv
*1637 genblk3\[157\]\.i_inv
*1638 genblk3\[158\]\.i_inv
*1639 genblk3\[159\]\.i_inv
*1640 genblk3\[15\]\.i_inv
*1641 genblk3\[160\]\.i_inv
*1642 genblk3\[161\]\.i_inv
*1643 genblk3\[162\]\.i_inv
*1644 genblk3\[163\]\.i_inv
*1645 genblk3\[164\]\.i_inv
*1646 genblk3\[165\]\.i_inv
*1647 genblk3\[166\]\.i_inv
*1648 genblk3\[167\]\.i_inv
*1649 genblk3\[168\]\.i_inv
*1650 genblk3\[169\]\.i_inv
*1651 genblk3\[16\]\.i_inv
*1652 genblk3\[170\]\.i_inv
*1653 genblk3\[171\]\.i_inv
*1654 genblk3\[172\]\.i_inv
*1655 genblk3\[173\]\.i_inv
*1656 genblk3\[174\]\.i_inv
*1657 genblk3\[175\]\.i_inv
*1658 genblk3\[176\]\.i_inv
*1659 genblk3\[177\]\.i_inv
*1660 genblk3\[178\]\.i_inv
*1661 genblk3\[179\]\.i_inv
*1662 genblk3\[17\]\.i_inv
*1663 genblk3\[180\]\.i_inv
*1664 genblk3\[181\]\.i_inv
*1665 genblk3\[182\]\.i_inv
*1666 genblk3\[183\]\.i_inv
*1667 genblk3\[184\]\.i_inv
*1668 genblk3\[185\]\.i_inv
*1669 genblk3\[186\]\.i_inv
*1670 genblk3\[187\]\.i_inv
*1671 genblk3\[188\]\.i_inv
*1672 genblk3\[189\]\.i_inv
*1673 genblk3\[18\]\.i_inv
*1674 genblk3\[190\]\.i_inv
*1675 genblk3\[191\]\.i_inv
*1676 genblk3\[192\]\.i_inv
*1677 genblk3\[193\]\.i_inv
*1678 genblk3\[194\]\.i_inv
*1679 genblk3\[195\]\.i_inv
*1680 genblk3\[196\]\.i_inv
*1681 genblk3\[197\]\.i_inv
*1682 genblk3\[198\]\.i_inv
*1683 genblk3\[199\]\.i_inv
*1684 genblk3\[19\]\.i_inv
*1685 genblk3\[1\]\.i_inv
*1686 genblk3\[200\]\.i_inv
*1687 genblk3\[201\]\.i_inv
*1688 genblk3\[202\]\.i_inv
*1689 genblk3\[203\]\.i_inv
*1690 genblk3\[204\]\.i_inv
*1691 genblk3\[205\]\.i_inv
*1692 genblk3\[206\]\.i_inv
*1693 genblk3\[207\]\.i_inv
*1694 genblk3\[208\]\.i_inv
*1695 genblk3\[209\]\.i_inv
*1696 genblk3\[20\]\.i_inv
*1697 genblk3\[210\]\.i_inv
*1698 genblk3\[211\]\.i_inv
*1699 genblk3\[212\]\.i_inv
*1700 genblk3\[213\]\.i_inv
*1701 genblk3\[214\]\.i_inv
*1702 genblk3\[215\]\.i_inv
*1703 genblk3\[216\]\.i_inv
*1704 genblk3\[217\]\.i_inv
*1705 genblk3\[218\]\.i_inv
*1706 genblk3\[219\]\.i_inv
*1707 genblk3\[21\]\.i_inv
*1708 genblk3\[220\]\.i_inv
*1709 genblk3\[221\]\.i_inv
*1710 genblk3\[222\]\.i_inv
*1711 genblk3\[223\]\.i_inv
*1712 genblk3\[224\]\.i_inv
*1713 genblk3\[225\]\.i_inv
*1714 genblk3\[226\]\.i_inv
*1715 genblk3\[227\]\.i_inv
*1716 genblk3\[228\]\.i_inv
*1717 genblk3\[229\]\.i_inv
*1718 genblk3\[22\]\.i_inv
*1719 genblk3\[230\]\.i_inv
*1720 genblk3\[231\]\.i_inv
*1721 genblk3\[232\]\.i_inv
*1722 genblk3\[233\]\.i_inv
*1723 genblk3\[234\]\.i_inv
*1724 genblk3\[235\]\.i_inv
*1725 genblk3\[236\]\.i_inv
*1726 genblk3\[237\]\.i_inv
*1727 genblk3\[238\]\.i_inv
*1728 genblk3\[239\]\.i_inv
*1729 genblk3\[23\]\.i_inv
*1730 genblk3\[240\]\.i_inv
*1731 genblk3\[241\]\.i_inv
*1732 genblk3\[242\]\.i_inv
*1733 genblk3\[243\]\.i_inv
*1734 genblk3\[244\]\.i_inv
*1735 genblk3\[245\]\.i_inv
*1736 genblk3\[246\]\.i_inv
*1737 genblk3\[247\]\.i_inv
*1738 genblk3\[248\]\.i_inv
*1739 genblk3\[249\]\.i_inv
*1740 genblk3\[24\]\.i_inv
*1741 genblk3\[250\]\.i_inv
*1742 genblk3\[251\]\.i_inv
*1743 genblk3\[252\]\.i_inv
*1744 genblk3\[253\]\.i_inv
*1745 genblk3\[254\]\.i_inv
*1746 genblk3\[255\]\.i_inv
*1747 genblk3\[256\]\.i_inv
*1748 genblk3\[257\]\.i_inv
*1749 genblk3\[258\]\.i_inv
*1750 genblk3\[259\]\.i_inv
*1751 genblk3\[25\]\.i_inv
*1752 genblk3\[260\]\.i_inv
*1753 genblk3\[261\]\.i_inv
*1754 genblk3\[262\]\.i_inv
*1755 genblk3\[263\]\.i_inv
*1756 genblk3\[264\]\.i_inv
*1757 genblk3\[265\]\.i_inv
*1758 genblk3\[266\]\.i_inv
*1759 genblk3\[267\]\.i_inv
*1760 genblk3\[268\]\.i_inv
*1761 genblk3\[269\]\.i_inv
*1762 genblk3\[26\]\.i_inv
*1763 genblk3\[270\]\.i_inv
*1764 genblk3\[271\]\.i_inv
*1765 genblk3\[272\]\.i_inv
*1766 genblk3\[273\]\.i_inv
*1767 genblk3\[274\]\.i_inv
*1768 genblk3\[275\]\.i_inv
*1769 genblk3\[276\]\.i_inv
*1770 genblk3\[277\]\.i_inv
*1771 genblk3\[278\]\.i_inv
*1772 genblk3\[279\]\.i_inv
*1773 genblk3\[27\]\.i_inv
*1774 genblk3\[280\]\.i_inv
*1775 genblk3\[281\]\.i_inv
*1776 genblk3\[282\]\.i_inv
*1777 genblk3\[283\]\.i_inv
*1778 genblk3\[284\]\.i_inv
*1779 genblk3\[285\]\.i_inv
*1780 genblk3\[286\]\.i_inv
*1781 genblk3\[287\]\.i_inv
*1782 genblk3\[288\]\.i_inv
*1783 genblk3\[289\]\.i_inv
*1784 genblk3\[28\]\.i_inv
*1785 genblk3\[290\]\.i_inv
*1786 genblk3\[291\]\.i_inv
*1787 genblk3\[292\]\.i_inv
*1788 genblk3\[293\]\.i_inv
*1789 genblk3\[294\]\.i_inv
*1790 genblk3\[295\]\.i_inv
*1791 genblk3\[296\]\.i_inv
*1792 genblk3\[297\]\.i_inv
*1793 genblk3\[298\]\.i_inv
*1794 genblk3\[299\]\.i_inv
*1795 genblk3\[29\]\.i_inv
*1796 genblk3\[2\]\.i_inv
*1797 genblk3\[300\]\.i_inv
*1798 genblk3\[301\]\.i_inv
*1799 genblk3\[302\]\.i_inv
*1800 genblk3\[303\]\.i_inv
*1801 genblk3\[304\]\.i_inv
*1802 genblk3\[305\]\.i_inv
*1803 genblk3\[306\]\.i_inv
*1804 genblk3\[307\]\.i_inv
*1805 genblk3\[308\]\.i_inv
*1806 genblk3\[309\]\.i_inv
*1807 genblk3\[30\]\.i_inv
*1808 genblk3\[310\]\.i_inv
*1809 genblk3\[311\]\.i_inv
*1810 genblk3\[312\]\.i_inv
*1811 genblk3\[313\]\.i_inv
*1812 genblk3\[314\]\.i_inv
*1813 genblk3\[315\]\.i_inv
*1814 genblk3\[316\]\.i_inv
*1815 genblk3\[317\]\.i_inv
*1816 genblk3\[318\]\.i_inv
*1817 genblk3\[319\]\.i_inv
*1818 genblk3\[31\]\.i_inv
*1819 genblk3\[320\]\.i_inv
*1820 genblk3\[321\]\.i_inv
*1821 genblk3\[322\]\.i_inv
*1822 genblk3\[323\]\.i_inv
*1823 genblk3\[324\]\.i_inv
*1824 genblk3\[325\]\.i_inv
*1825 genblk3\[326\]\.i_inv
*1826 genblk3\[327\]\.i_inv
*1827 genblk3\[328\]\.i_inv
*1828 genblk3\[329\]\.i_inv
*1829 genblk3\[32\]\.i_inv
*1830 genblk3\[330\]\.i_inv
*1831 genblk3\[331\]\.i_inv
*1832 genblk3\[332\]\.i_inv
*1833 genblk3\[333\]\.i_inv
*1834 genblk3\[334\]\.i_inv
*1835 genblk3\[335\]\.i_inv
*1836 genblk3\[336\]\.i_inv
*1837 genblk3\[337\]\.i_inv
*1838 genblk3\[338\]\.i_inv
*1839 genblk3\[339\]\.i_inv
*1840 genblk3\[33\]\.i_inv
*1841 genblk3\[340\]\.i_inv
*1842 genblk3\[341\]\.i_inv
*1843 genblk3\[342\]\.i_inv
*1844 genblk3\[343\]\.i_inv
*1845 genblk3\[344\]\.i_inv
*1846 genblk3\[345\]\.i_inv
*1847 genblk3\[346\]\.i_inv
*1848 genblk3\[347\]\.i_inv
*1849 genblk3\[348\]\.i_inv
*1850 genblk3\[349\]\.i_inv
*1851 genblk3\[34\]\.i_inv
*1852 genblk3\[350\]\.i_inv
*1853 genblk3\[351\]\.i_inv
*1854 genblk3\[352\]\.i_inv
*1855 genblk3\[353\]\.i_inv
*1856 genblk3\[354\]\.i_inv
*1857 genblk3\[355\]\.i_inv
*1858 genblk3\[356\]\.i_inv
*1859 genblk3\[357\]\.i_inv
*1860 genblk3\[358\]\.i_inv
*1861 genblk3\[359\]\.i_inv
*1862 genblk3\[35\]\.i_inv
*1863 genblk3\[360\]\.i_inv
*1864 genblk3\[361\]\.i_inv
*1865 genblk3\[362\]\.i_inv
*1866 genblk3\[363\]\.i_inv
*1867 genblk3\[364\]\.i_inv
*1868 genblk3\[365\]\.i_inv
*1869 genblk3\[366\]\.i_inv
*1870 genblk3\[367\]\.i_inv
*1871 genblk3\[368\]\.i_inv
*1872 genblk3\[369\]\.i_inv
*1873 genblk3\[36\]\.i_inv
*1874 genblk3\[370\]\.i_inv
*1875 genblk3\[371\]\.i_inv
*1876 genblk3\[372\]\.i_inv
*1877 genblk3\[373\]\.i_inv
*1878 genblk3\[374\]\.i_inv
*1879 genblk3\[375\]\.i_inv
*1880 genblk3\[376\]\.i_inv
*1881 genblk3\[377\]\.i_inv
*1882 genblk3\[378\]\.i_inv
*1883 genblk3\[379\]\.i_inv
*1884 genblk3\[37\]\.i_inv
*1885 genblk3\[380\]\.i_inv
*1886 genblk3\[381\]\.i_inv
*1887 genblk3\[382\]\.i_inv
*1888 genblk3\[383\]\.i_inv
*1889 genblk3\[384\]\.i_inv
*1890 genblk3\[385\]\.i_inv
*1891 genblk3\[386\]\.i_inv
*1892 genblk3\[387\]\.i_inv
*1893 genblk3\[388\]\.i_inv
*1894 genblk3\[389\]\.i_inv
*1895 genblk3\[38\]\.i_inv
*1896 genblk3\[390\]\.i_inv
*1897 genblk3\[391\]\.i_inv
*1898 genblk3\[392\]\.i_inv
*1899 genblk3\[393\]\.i_inv
*1900 genblk3\[394\]\.i_inv
*1901 genblk3\[395\]\.i_inv
*1902 genblk3\[396\]\.i_inv
*1903 genblk3\[397\]\.i_inv
*1904 genblk3\[398\]\.i_inv
*1905 genblk3\[399\]\.i_inv
*1906 genblk3\[39\]\.i_inv
*1907 genblk3\[3\]\.i_inv
*1908 genblk3\[400\]\.i_inv
*1909 genblk3\[401\]\.i_inv
*1910 genblk3\[402\]\.i_inv
*1911 genblk3\[403\]\.i_inv
*1912 genblk3\[404\]\.i_inv
*1913 genblk3\[405\]\.i_inv
*1914 genblk3\[406\]\.i_inv
*1915 genblk3\[407\]\.i_inv
*1916 genblk3\[408\]\.i_inv
*1917 genblk3\[409\]\.i_inv
*1918 genblk3\[40\]\.i_inv
*1919 genblk3\[410\]\.i_inv
*1920 genblk3\[411\]\.i_inv
*1921 genblk3\[412\]\.i_inv
*1922 genblk3\[413\]\.i_inv
*1923 genblk3\[414\]\.i_inv
*1924 genblk3\[415\]\.i_inv
*1925 genblk3\[416\]\.i_inv
*1926 genblk3\[417\]\.i_inv
*1927 genblk3\[418\]\.i_inv
*1928 genblk3\[419\]\.i_inv
*1929 genblk3\[41\]\.i_inv
*1930 genblk3\[420\]\.i_inv
*1931 genblk3\[421\]\.i_inv
*1932 genblk3\[422\]\.i_inv
*1933 genblk3\[423\]\.i_inv
*1934 genblk3\[424\]\.i_inv
*1935 genblk3\[425\]\.i_inv
*1936 genblk3\[426\]\.i_inv
*1937 genblk3\[427\]\.i_inv
*1938 genblk3\[428\]\.i_inv
*1939 genblk3\[429\]\.i_inv
*1940 genblk3\[42\]\.i_inv
*1941 genblk3\[430\]\.i_inv
*1942 genblk3\[431\]\.i_inv
*1943 genblk3\[432\]\.i_inv
*1944 genblk3\[433\]\.i_inv
*1945 genblk3\[434\]\.i_inv
*1946 genblk3\[435\]\.i_inv
*1947 genblk3\[436\]\.i_inv
*1948 genblk3\[437\]\.i_inv
*1949 genblk3\[438\]\.i_inv
*1950 genblk3\[439\]\.i_inv
*1951 genblk3\[43\]\.i_inv
*1952 genblk3\[440\]\.i_inv
*1953 genblk3\[441\]\.i_inv
*1954 genblk3\[442\]\.i_inv
*1955 genblk3\[443\]\.i_inv
*1956 genblk3\[444\]\.i_inv
*1957 genblk3\[445\]\.i_inv
*1958 genblk3\[446\]\.i_inv
*1959 genblk3\[447\]\.i_inv
*1960 genblk3\[448\]\.i_inv
*1961 genblk3\[449\]\.i_inv
*1962 genblk3\[44\]\.i_inv
*1963 genblk3\[450\]\.i_inv
*1964 genblk3\[451\]\.i_inv
*1965 genblk3\[452\]\.i_inv
*1966 genblk3\[453\]\.i_inv
*1967 genblk3\[454\]\.i_inv
*1968 genblk3\[455\]\.i_inv
*1969 genblk3\[456\]\.i_inv
*1970 genblk3\[457\]\.i_inv
*1971 genblk3\[458\]\.i_inv
*1972 genblk3\[459\]\.i_inv
*1973 genblk3\[45\]\.i_inv
*1974 genblk3\[460\]\.i_inv
*1975 genblk3\[461\]\.i_inv
*1976 genblk3\[462\]\.i_inv
*1977 genblk3\[463\]\.i_inv
*1978 genblk3\[464\]\.i_inv
*1979 genblk3\[465\]\.i_inv
*1980 genblk3\[466\]\.i_inv
*1981 genblk3\[467\]\.i_inv
*1982 genblk3\[468\]\.i_inv
*1983 genblk3\[469\]\.i_inv
*1984 genblk3\[46\]\.i_inv
*1985 genblk3\[470\]\.i_inv
*1986 genblk3\[471\]\.i_inv
*1987 genblk3\[472\]\.i_inv
*1988 genblk3\[473\]\.i_inv
*1989 genblk3\[474\]\.i_inv
*1990 genblk3\[475\]\.i_inv
*1991 genblk3\[476\]\.i_inv
*1992 genblk3\[477\]\.i_inv
*1993 genblk3\[478\]\.i_inv
*1994 genblk3\[479\]\.i_inv
*1995 genblk3\[47\]\.i_inv
*1996 genblk3\[480\]\.i_inv
*1997 genblk3\[481\]\.i_inv
*1998 genblk3\[482\]\.i_inv
*1999 genblk3\[483\]\.i_inv
*2000 genblk3\[484\]\.i_inv
*2001 genblk3\[485\]\.i_inv
*2002 genblk3\[486\]\.i_inv
*2003 genblk3\[487\]\.i_inv
*2004 genblk3\[488\]\.i_inv
*2005 genblk3\[489\]\.i_inv
*2006 genblk3\[48\]\.i_inv
*2007 genblk3\[490\]\.i_inv
*2008 genblk3\[491\]\.i_inv
*2009 genblk3\[492\]\.i_inv
*2010 genblk3\[493\]\.i_inv
*2011 genblk3\[494\]\.i_inv
*2012 genblk3\[495\]\.i_inv
*2013 genblk3\[496\]\.i_inv
*2014 genblk3\[497\]\.i_inv
*2015 genblk3\[498\]\.i_inv
*2016 genblk3\[499\]\.i_inv
*2017 genblk3\[49\]\.i_inv
*2018 genblk3\[4\]\.i_inv
*2019 genblk3\[500\]\.i_inv
*2020 genblk3\[501\]\.i_inv
*2021 genblk3\[502\]\.i_inv
*2022 genblk3\[503\]\.i_inv
*2023 genblk3\[504\]\.i_inv
*2024 genblk3\[505\]\.i_inv
*2025 genblk3\[506\]\.i_inv
*2026 genblk3\[507\]\.i_inv
*2027 genblk3\[508\]\.i_inv
*2028 genblk3\[509\]\.i_inv
*2029 genblk3\[50\]\.i_inv
*2030 genblk3\[510\]\.i_inv
*2031 genblk3\[511\]\.i_inv
*2032 genblk3\[512\]\.i_inv
*2033 genblk3\[513\]\.i_inv
*2034 genblk3\[514\]\.i_inv
*2035 genblk3\[515\]\.i_inv
*2036 genblk3\[516\]\.i_inv
*2037 genblk3\[517\]\.i_inv
*2038 genblk3\[518\]\.i_inv
*2039 genblk3\[519\]\.i_inv
*2040 genblk3\[51\]\.i_inv
*2041 genblk3\[520\]\.i_inv
*2042 genblk3\[521\]\.i_inv
*2043 genblk3\[522\]\.i_inv
*2044 genblk3\[523\]\.i_inv
*2045 genblk3\[524\]\.i_inv
*2046 genblk3\[525\]\.i_inv
*2047 genblk3\[526\]\.i_inv
*2048 genblk3\[527\]\.i_inv
*2049 genblk3\[528\]\.i_inv
*2050 genblk3\[529\]\.i_inv
*2051 genblk3\[52\]\.i_inv
*2052 genblk3\[530\]\.i_inv
*2053 genblk3\[531\]\.i_inv
*2054 genblk3\[532\]\.i_inv
*2055 genblk3\[533\]\.i_inv
*2056 genblk3\[534\]\.i_inv
*2057 genblk3\[535\]\.i_inv
*2058 genblk3\[536\]\.i_inv
*2059 genblk3\[537\]\.i_inv
*2060 genblk3\[538\]\.i_inv
*2061 genblk3\[539\]\.i_inv
*2062 genblk3\[53\]\.i_inv
*2063 genblk3\[540\]\.i_inv
*2064 genblk3\[541\]\.i_inv
*2065 genblk3\[542\]\.i_inv
*2066 genblk3\[543\]\.i_inv
*2067 genblk3\[544\]\.i_inv
*2068 genblk3\[545\]\.i_inv
*2069 genblk3\[546\]\.i_inv
*2070 genblk3\[547\]\.i_inv
*2071 genblk3\[548\]\.i_inv
*2072 genblk3\[549\]\.i_inv
*2073 genblk3\[54\]\.i_inv
*2074 genblk3\[550\]\.i_inv
*2075 genblk3\[551\]\.i_inv
*2076 genblk3\[552\]\.i_inv
*2077 genblk3\[553\]\.i_inv
*2078 genblk3\[554\]\.i_inv
*2079 genblk3\[555\]\.i_inv
*2080 genblk3\[556\]\.i_inv
*2081 genblk3\[557\]\.i_inv
*2082 genblk3\[558\]\.i_inv
*2083 genblk3\[559\]\.i_inv
*2084 genblk3\[55\]\.i_inv
*2085 genblk3\[560\]\.i_inv
*2086 genblk3\[561\]\.i_inv
*2087 genblk3\[562\]\.i_inv
*2088 genblk3\[563\]\.i_inv
*2089 genblk3\[564\]\.i_inv
*2090 genblk3\[565\]\.i_inv
*2091 genblk3\[566\]\.i_inv
*2092 genblk3\[567\]\.i_inv
*2093 genblk3\[568\]\.i_inv
*2094 genblk3\[569\]\.i_inv
*2095 genblk3\[56\]\.i_inv
*2096 genblk3\[570\]\.i_inv
*2097 genblk3\[571\]\.i_inv
*2098 genblk3\[572\]\.i_inv
*2099 genblk3\[573\]\.i_inv
*2100 genblk3\[574\]\.i_inv
*2101 genblk3\[575\]\.i_inv
*2102 genblk3\[576\]\.i_inv
*2103 genblk3\[577\]\.i_inv
*2104 genblk3\[578\]\.i_inv
*2105 genblk3\[579\]\.i_inv
*2106 genblk3\[57\]\.i_inv
*2107 genblk3\[580\]\.i_inv
*2108 genblk3\[581\]\.i_inv
*2109 genblk3\[582\]\.i_inv
*2110 genblk3\[583\]\.i_inv
*2111 genblk3\[584\]\.i_inv
*2112 genblk3\[585\]\.i_inv
*2113 genblk3\[586\]\.i_inv
*2114 genblk3\[587\]\.i_inv
*2115 genblk3\[588\]\.i_inv
*2116 genblk3\[589\]\.i_inv
*2117 genblk3\[58\]\.i_inv
*2118 genblk3\[590\]\.i_inv
*2119 genblk3\[591\]\.i_inv
*2120 genblk3\[592\]\.i_inv
*2121 genblk3\[593\]\.i_inv
*2122 genblk3\[594\]\.i_inv
*2123 genblk3\[595\]\.i_inv
*2124 genblk3\[596\]\.i_inv
*2125 genblk3\[597\]\.i_inv
*2126 genblk3\[598\]\.i_inv
*2127 genblk3\[599\]\.i_inv
*2128 genblk3\[59\]\.i_inv
*2129 genblk3\[5\]\.i_inv
*2130 genblk3\[600\]\.i_inv
*2131 genblk3\[601\]\.i_inv
*2132 genblk3\[602\]\.i_inv
*2133 genblk3\[603\]\.i_inv
*2134 genblk3\[604\]\.i_inv
*2135 genblk3\[605\]\.i_inv
*2136 genblk3\[606\]\.i_inv
*2137 genblk3\[607\]\.i_inv
*2138 genblk3\[608\]\.i_inv
*2139 genblk3\[609\]\.i_inv
*2140 genblk3\[60\]\.i_inv
*2141 genblk3\[610\]\.i_inv
*2142 genblk3\[611\]\.i_inv
*2143 genblk3\[612\]\.i_inv
*2144 genblk3\[613\]\.i_inv
*2145 genblk3\[614\]\.i_inv
*2146 genblk3\[615\]\.i_inv
*2147 genblk3\[616\]\.i_inv
*2148 genblk3\[617\]\.i_inv
*2149 genblk3\[618\]\.i_inv
*2150 genblk3\[619\]\.i_inv
*2151 genblk3\[61\]\.i_inv
*2152 genblk3\[620\]\.i_inv
*2153 genblk3\[621\]\.i_inv
*2154 genblk3\[622\]\.i_inv
*2155 genblk3\[623\]\.i_inv
*2156 genblk3\[624\]\.i_inv
*2157 genblk3\[625\]\.i_inv
*2158 genblk3\[626\]\.i_inv
*2159 genblk3\[627\]\.i_inv
*2160 genblk3\[628\]\.i_inv
*2161 genblk3\[629\]\.i_inv
*2162 genblk3\[62\]\.i_inv
*2163 genblk3\[630\]\.i_inv
*2164 genblk3\[631\]\.i_inv
*2165 genblk3\[632\]\.i_inv
*2166 genblk3\[633\]\.i_inv
*2167 genblk3\[634\]\.i_inv
*2168 genblk3\[635\]\.i_inv
*2169 genblk3\[636\]\.i_inv
*2170 genblk3\[637\]\.i_inv
*2171 genblk3\[638\]\.i_inv
*2172 genblk3\[639\]\.i_inv
*2173 genblk3\[63\]\.i_inv
*2174 genblk3\[640\]\.i_inv
*2175 genblk3\[641\]\.i_inv
*2176 genblk3\[642\]\.i_inv
*2177 genblk3\[643\]\.i_inv
*2178 genblk3\[644\]\.i_inv
*2179 genblk3\[645\]\.i_inv
*2180 genblk3\[646\]\.i_inv
*2181 genblk3\[647\]\.i_inv
*2182 genblk3\[648\]\.i_inv
*2183 genblk3\[649\]\.i_inv
*2184 genblk3\[64\]\.i_inv
*2185 genblk3\[650\]\.i_inv
*2186 genblk3\[651\]\.i_inv
*2187 genblk3\[652\]\.i_inv
*2188 genblk3\[653\]\.i_inv
*2189 genblk3\[654\]\.i_inv
*2190 genblk3\[655\]\.i_inv
*2191 genblk3\[656\]\.i_inv
*2192 genblk3\[657\]\.i_inv
*2193 genblk3\[658\]\.i_inv
*2194 genblk3\[659\]\.i_inv
*2195 genblk3\[65\]\.i_inv
*2196 genblk3\[660\]\.i_inv
*2197 genblk3\[661\]\.i_inv
*2198 genblk3\[662\]\.i_inv
*2199 genblk3\[663\]\.i_inv
*2200 genblk3\[664\]\.i_inv
*2201 genblk3\[665\]\.i_inv
*2202 genblk3\[666\]\.i_inv
*2203 genblk3\[667\]\.i_inv
*2204 genblk3\[668\]\.i_inv
*2205 genblk3\[669\]\.i_inv
*2206 genblk3\[66\]\.i_inv
*2207 genblk3\[670\]\.i_inv
*2208 genblk3\[671\]\.i_inv
*2209 genblk3\[672\]\.i_inv
*2210 genblk3\[673\]\.i_inv
*2211 genblk3\[674\]\.i_inv
*2212 genblk3\[675\]\.i_inv
*2213 genblk3\[676\]\.i_inv
*2214 genblk3\[677\]\.i_inv
*2215 genblk3\[678\]\.i_inv
*2216 genblk3\[679\]\.i_inv
*2217 genblk3\[67\]\.i_inv
*2218 genblk3\[680\]\.i_inv
*2219 genblk3\[681\]\.i_inv
*2220 genblk3\[682\]\.i_inv
*2221 genblk3\[683\]\.i_inv
*2222 genblk3\[684\]\.i_inv
*2223 genblk3\[685\]\.i_inv
*2224 genblk3\[686\]\.i_inv
*2225 genblk3\[687\]\.i_inv
*2226 genblk3\[688\]\.i_inv
*2227 genblk3\[689\]\.i_inv
*2228 genblk3\[68\]\.i_inv
*2229 genblk3\[690\]\.i_inv
*2230 genblk3\[691\]\.i_inv
*2231 genblk3\[692\]\.i_inv
*2232 genblk3\[693\]\.i_inv
*2233 genblk3\[694\]\.i_inv
*2234 genblk3\[695\]\.i_inv
*2235 genblk3\[696\]\.i_inv
*2236 genblk3\[697\]\.i_inv
*2237 genblk3\[698\]\.i_inv
*2238 genblk3\[699\]\.i_inv
*2239 genblk3\[69\]\.i_inv
*2240 genblk3\[6\]\.i_inv
*2241 genblk3\[700\]\.i_inv
*2242 genblk3\[701\]\.i_inv
*2243 genblk3\[702\]\.i_inv
*2244 genblk3\[703\]\.i_inv
*2245 genblk3\[704\]\.i_inv
*2246 genblk3\[705\]\.i_inv
*2247 genblk3\[706\]\.i_inv
*2248 genblk3\[707\]\.i_inv
*2249 genblk3\[708\]\.i_inv
*2250 genblk3\[709\]\.i_inv
*2251 genblk3\[70\]\.i_inv
*2252 genblk3\[710\]\.i_inv
*2253 genblk3\[711\]\.i_inv
*2254 genblk3\[712\]\.i_inv
*2255 genblk3\[713\]\.i_inv
*2256 genblk3\[714\]\.i_inv
*2257 genblk3\[715\]\.i_inv
*2258 genblk3\[716\]\.i_inv
*2259 genblk3\[717\]\.i_inv
*2260 genblk3\[718\]\.i_inv
*2261 genblk3\[719\]\.i_inv
*2262 genblk3\[71\]\.i_inv
*2263 genblk3\[720\]\.i_inv
*2264 genblk3\[721\]\.i_inv
*2265 genblk3\[722\]\.i_inv
*2266 genblk3\[723\]\.i_inv
*2267 genblk3\[724\]\.i_inv
*2268 genblk3\[725\]\.i_inv
*2269 genblk3\[726\]\.i_inv
*2270 genblk3\[727\]\.i_inv
*2271 genblk3\[728\]\.i_inv
*2272 genblk3\[729\]\.i_inv
*2273 genblk3\[72\]\.i_inv
*2274 genblk3\[730\]\.i_inv
*2275 genblk3\[731\]\.i_inv
*2276 genblk3\[732\]\.i_inv
*2277 genblk3\[733\]\.i_inv
*2278 genblk3\[734\]\.i_inv
*2279 genblk3\[735\]\.i_inv
*2280 genblk3\[736\]\.i_inv
*2281 genblk3\[737\]\.i_inv
*2282 genblk3\[738\]\.i_inv
*2283 genblk3\[739\]\.i_inv
*2284 genblk3\[73\]\.i_inv
*2285 genblk3\[740\]\.i_inv
*2286 genblk3\[741\]\.i_inv
*2287 genblk3\[742\]\.i_inv
*2288 genblk3\[743\]\.i_inv
*2289 genblk3\[744\]\.i_inv
*2290 genblk3\[745\]\.i_inv
*2291 genblk3\[746\]\.i_inv
*2292 genblk3\[747\]\.i_inv
*2293 genblk3\[748\]\.i_inv
*2294 genblk3\[749\]\.i_inv
*2295 genblk3\[74\]\.i_inv
*2296 genblk3\[750\]\.i_inv
*2297 genblk3\[751\]\.i_inv
*2298 genblk3\[752\]\.i_inv
*2299 genblk3\[753\]\.i_inv
*2300 genblk3\[754\]\.i_inv
*2301 genblk3\[755\]\.i_inv
*2302 genblk3\[756\]\.i_inv
*2303 genblk3\[757\]\.i_inv
*2304 genblk3\[758\]\.i_inv
*2305 genblk3\[759\]\.i_inv
*2306 genblk3\[75\]\.i_inv
*2307 genblk3\[760\]\.i_inv
*2308 genblk3\[761\]\.i_inv
*2309 genblk3\[762\]\.i_inv
*2310 genblk3\[763\]\.i_inv
*2311 genblk3\[764\]\.i_inv
*2312 genblk3\[765\]\.i_inv
*2313 genblk3\[766\]\.i_inv
*2314 genblk3\[767\]\.i_inv
*2315 genblk3\[768\]\.i_inv
*2316 genblk3\[769\]\.i_inv
*2317 genblk3\[76\]\.i_inv
*2318 genblk3\[770\]\.i_inv
*2319 genblk3\[771\]\.i_inv
*2320 genblk3\[772\]\.i_inv
*2321 genblk3\[773\]\.i_inv
*2322 genblk3\[774\]\.i_inv
*2323 genblk3\[775\]\.i_inv
*2324 genblk3\[776\]\.i_inv
*2325 genblk3\[777\]\.i_inv
*2326 genblk3\[778\]\.i_inv
*2327 genblk3\[779\]\.i_inv
*2328 genblk3\[77\]\.i_inv
*2329 genblk3\[780\]\.i_inv
*2330 genblk3\[781\]\.i_inv
*2331 genblk3\[782\]\.i_inv
*2332 genblk3\[783\]\.i_inv
*2333 genblk3\[784\]\.i_inv
*2334 genblk3\[785\]\.i_inv
*2335 genblk3\[786\]\.i_inv
*2336 genblk3\[787\]\.i_inv
*2337 genblk3\[788\]\.i_inv
*2338 genblk3\[789\]\.i_inv
*2339 genblk3\[78\]\.i_inv
*2340 genblk3\[790\]\.i_inv
*2341 genblk3\[791\]\.i_inv
*2342 genblk3\[792\]\.i_inv
*2343 genblk3\[793\]\.i_inv
*2344 genblk3\[794\]\.i_inv
*2345 genblk3\[795\]\.i_inv
*2346 genblk3\[796\]\.i_inv
*2347 genblk3\[797\]\.i_inv
*2348 genblk3\[798\]\.i_inv
*2349 genblk3\[799\]\.i_inv
*2350 genblk3\[79\]\.i_inv
*2351 genblk3\[7\]\.i_inv
*2352 genblk3\[800\]\.i_inv
*2353 genblk3\[801\]\.i_inv
*2354 genblk3\[802\]\.i_inv
*2355 genblk3\[803\]\.i_inv
*2356 genblk3\[804\]\.i_inv
*2357 genblk3\[805\]\.i_inv
*2358 genblk3\[806\]\.i_inv
*2359 genblk3\[807\]\.i_inv
*2360 genblk3\[808\]\.i_inv
*2361 genblk3\[809\]\.i_inv
*2362 genblk3\[80\]\.i_inv
*2363 genblk3\[810\]\.i_inv
*2364 genblk3\[811\]\.i_inv
*2365 genblk3\[812\]\.i_inv
*2366 genblk3\[813\]\.i_inv
*2367 genblk3\[814\]\.i_inv
*2368 genblk3\[815\]\.i_inv
*2369 genblk3\[816\]\.i_inv
*2370 genblk3\[817\]\.i_inv
*2371 genblk3\[818\]\.i_inv
*2372 genblk3\[819\]\.i_inv
*2373 genblk3\[81\]\.i_inv
*2374 genblk3\[820\]\.i_inv
*2375 genblk3\[821\]\.i_inv
*2376 genblk3\[822\]\.i_inv
*2377 genblk3\[823\]\.i_inv
*2378 genblk3\[824\]\.i_inv
*2379 genblk3\[825\]\.i_inv
*2380 genblk3\[826\]\.i_inv
*2381 genblk3\[827\]\.i_inv
*2382 genblk3\[828\]\.i_inv
*2383 genblk3\[829\]\.i_inv
*2384 genblk3\[82\]\.i_inv
*2385 genblk3\[830\]\.i_inv
*2386 genblk3\[831\]\.i_inv
*2387 genblk3\[832\]\.i_inv
*2388 genblk3\[833\]\.i_inv
*2389 genblk3\[834\]\.i_inv
*2390 genblk3\[835\]\.i_inv
*2391 genblk3\[836\]\.i_inv
*2392 genblk3\[837\]\.i_inv
*2393 genblk3\[838\]\.i_inv
*2394 genblk3\[839\]\.i_inv
*2395 genblk3\[83\]\.i_inv
*2396 genblk3\[840\]\.i_inv
*2397 genblk3\[841\]\.i_inv
*2398 genblk3\[842\]\.i_inv
*2399 genblk3\[843\]\.i_inv
*2400 genblk3\[844\]\.i_inv
*2401 genblk3\[845\]\.i_inv
*2402 genblk3\[846\]\.i_inv
*2403 genblk3\[847\]\.i_inv
*2404 genblk3\[848\]\.i_inv
*2405 genblk3\[849\]\.i_inv
*2406 genblk3\[84\]\.i_inv
*2407 genblk3\[850\]\.i_inv
*2408 genblk3\[851\]\.i_inv
*2409 genblk3\[852\]\.i_inv
*2410 genblk3\[853\]\.i_inv
*2411 genblk3\[854\]\.i_inv
*2412 genblk3\[855\]\.i_inv
*2413 genblk3\[856\]\.i_inv
*2414 genblk3\[857\]\.i_inv
*2415 genblk3\[858\]\.i_inv
*2416 genblk3\[859\]\.i_inv
*2417 genblk3\[85\]\.i_inv
*2418 genblk3\[860\]\.i_inv
*2419 genblk3\[861\]\.i_inv
*2420 genblk3\[862\]\.i_inv
*2421 genblk3\[863\]\.i_inv
*2422 genblk3\[864\]\.i_inv
*2423 genblk3\[865\]\.i_inv
*2424 genblk3\[866\]\.i_inv
*2425 genblk3\[867\]\.i_inv
*2426 genblk3\[868\]\.i_inv
*2427 genblk3\[869\]\.i_inv
*2428 genblk3\[86\]\.i_inv
*2429 genblk3\[870\]\.i_inv
*2430 genblk3\[871\]\.i_inv
*2431 genblk3\[872\]\.i_inv
*2432 genblk3\[873\]\.i_inv
*2433 genblk3\[874\]\.i_inv
*2434 genblk3\[875\]\.i_inv
*2435 genblk3\[876\]\.i_inv
*2436 genblk3\[877\]\.i_inv
*2437 genblk3\[878\]\.i_inv
*2438 genblk3\[879\]\.i_inv
*2439 genblk3\[87\]\.i_inv
*2440 genblk3\[880\]\.i_inv
*2441 genblk3\[881\]\.i_inv
*2442 genblk3\[882\]\.i_inv
*2443 genblk3\[883\]\.i_inv
*2444 genblk3\[884\]\.i_inv
*2445 genblk3\[885\]\.i_inv
*2446 genblk3\[886\]\.i_inv
*2447 genblk3\[887\]\.i_inv
*2448 genblk3\[888\]\.i_inv
*2449 genblk3\[889\]\.i_inv
*2450 genblk3\[88\]\.i_inv
*2451 genblk3\[890\]\.i_inv
*2452 genblk3\[891\]\.i_inv
*2453 genblk3\[892\]\.i_inv
*2454 genblk3\[893\]\.i_inv
*2455 genblk3\[894\]\.i_inv
*2456 genblk3\[895\]\.i_inv
*2457 genblk3\[896\]\.i_inv
*2458 genblk3\[897\]\.i_inv
*2459 genblk3\[898\]\.i_inv
*2460 genblk3\[899\]\.i_inv
*2461 genblk3\[89\]\.i_inv
*2462 genblk3\[8\]\.i_inv
*2463 genblk3\[900\]\.i_inv
*2464 genblk3\[901\]\.i_inv
*2465 genblk3\[902\]\.i_inv
*2466 genblk3\[903\]\.i_inv
*2467 genblk3\[904\]\.i_inv
*2468 genblk3\[905\]\.i_inv
*2469 genblk3\[906\]\.i_inv
*2470 genblk3\[907\]\.i_inv
*2471 genblk3\[908\]\.i_inv
*2472 genblk3\[909\]\.i_inv
*2473 genblk3\[90\]\.i_inv
*2474 genblk3\[910\]\.i_inv
*2475 genblk3\[911\]\.i_inv
*2476 genblk3\[912\]\.i_inv
*2477 genblk3\[913\]\.i_inv
*2478 genblk3\[914\]\.i_inv
*2479 genblk3\[915\]\.i_inv
*2480 genblk3\[916\]\.i_inv
*2481 genblk3\[917\]\.i_inv
*2482 genblk3\[918\]\.i_inv
*2483 genblk3\[919\]\.i_inv
*2484 genblk3\[91\]\.i_inv
*2485 genblk3\[920\]\.i_inv
*2486 genblk3\[921\]\.i_inv
*2487 genblk3\[922\]\.i_inv
*2488 genblk3\[923\]\.i_inv
*2489 genblk3\[924\]\.i_inv
*2490 genblk3\[925\]\.i_inv
*2491 genblk3\[926\]\.i_inv
*2492 genblk3\[927\]\.i_inv
*2493 genblk3\[928\]\.i_inv
*2494 genblk3\[929\]\.i_inv
*2495 genblk3\[92\]\.i_inv
*2496 genblk3\[930\]\.i_inv
*2497 genblk3\[931\]\.i_inv
*2498 genblk3\[932\]\.i_inv
*2499 genblk3\[933\]\.i_inv
*2500 genblk3\[934\]\.i_inv
*2501 genblk3\[935\]\.i_inv
*2502 genblk3\[936\]\.i_inv
*2503 genblk3\[937\]\.i_inv
*2504 genblk3\[938\]\.i_inv
*2505 genblk3\[939\]\.i_inv
*2506 genblk3\[93\]\.i_inv
*2507 genblk3\[940\]\.i_inv
*2508 genblk3\[941\]\.i_inv
*2509 genblk3\[942\]\.i_inv
*2510 genblk3\[943\]\.i_inv
*2511 genblk3\[944\]\.i_inv
*2512 genblk3\[945\]\.i_inv
*2513 genblk3\[946\]\.i_inv
*2514 genblk3\[947\]\.i_inv
*2515 genblk3\[948\]\.i_inv
*2516 genblk3\[949\]\.i_inv
*2517 genblk3\[94\]\.i_inv
*2518 genblk3\[950\]\.i_inv
*2519 genblk3\[951\]\.i_inv
*2520 genblk3\[952\]\.i_inv
*2521 genblk3\[953\]\.i_inv
*2522 genblk3\[954\]\.i_inv
*2523 genblk3\[955\]\.i_inv
*2524 genblk3\[956\]\.i_inv
*2525 genblk3\[957\]\.i_inv
*2526 genblk3\[958\]\.i_inv
*2527 genblk3\[959\]\.i_inv
*2528 genblk3\[95\]\.i_inv
*2529 genblk3\[960\]\.i_inv
*2530 genblk3\[961\]\.i_inv
*2531 genblk3\[962\]\.i_inv
*2532 genblk3\[963\]\.i_inv
*2533 genblk3\[964\]\.i_inv
*2534 genblk3\[965\]\.i_inv
*2535 genblk3\[966\]\.i_inv
*2536 genblk3\[967\]\.i_inv
*2537 genblk3\[968\]\.i_inv
*2538 genblk3\[969\]\.i_inv
*2539 genblk3\[96\]\.i_inv
*2540 genblk3\[970\]\.i_inv
*2541 genblk3\[971\]\.i_inv
*2542 genblk3\[972\]\.i_inv
*2543 genblk3\[973\]\.i_inv
*2544 genblk3\[974\]\.i_inv
*2545 genblk3\[975\]\.i_inv
*2546 genblk3\[976\]\.i_inv
*2547 genblk3\[977\]\.i_inv
*2548 genblk3\[978\]\.i_inv
*2549 genblk3\[979\]\.i_inv
*2550 genblk3\[97\]\.i_inv
*2551 genblk3\[980\]\.i_inv
*2552 genblk3\[981\]\.i_inv
*2553 genblk3\[982\]\.i_inv
*2554 genblk3\[983\]\.i_inv
*2555 genblk3\[984\]\.i_inv
*2556 genblk3\[985\]\.i_inv
*2557 genblk3\[986\]\.i_inv
*2558 genblk3\[987\]\.i_inv
*2559 genblk3\[988\]\.i_inv
*2560 genblk3\[989\]\.i_inv
*2561 genblk3\[98\]\.i_inv
*2562 genblk3\[990\]\.i_inv
*2563 genblk3\[991\]\.i_inv
*2564 genblk3\[992\]\.i_inv
*2565 genblk3\[993\]\.i_inv
*2566 genblk3\[994\]\.i_inv
*2567 genblk3\[995\]\.i_inv
*2568 genblk3\[996\]\.i_inv
*2569 genblk3\[997\]\.i_inv
*2570 genblk3\[998\]\.i_inv
*2571 genblk3\[999\]\.i_inv
*2572 genblk3\[99\]\.i_inv
*2573 genblk3\[9\]\.i_inv
*2574 input1
*2575 input2
*2576 input3
*2577 input4
*2578 input5
*2579 input6
*2580 input7
*2581 output10
*2582 output11
*2583 output12
*2584 output13
*2585 output14
*2586 output15
*2587 output16
*2588 output8
*2589 output9

*PORTS
enable I
invsel[0] I
invsel[1] I
invsel[2] I
invsel[3] I
invsel[4] I
invsel[5] I
osc O
osc_tap[0] O
osc_tap[1] O
osc_tap[2] O
osc_tap[3] O
osc_tap[4] O
osc_tap[5] O
osc_tap[6] O
osc_tap[7] O

*D_NET *3 0.000398217
*CONN
*P enable I
*I *2574:A I *D sg13cmos5l_buf_1
*CAP
1 enable 0.000199108
2 *2574:A 0.000199108
*RES
1 enable *2574:A 42.4926 
*END

*D_NET *4 0.000799634
*CONN
*P invsel[0] I
*I *2575:A I *D sg13cmos5l_buf_1
*CAP
1 invsel[0] 0.000273427
2 *2575:A 0.000273427
3 *2575:A *259:10 0
4 *2575:A *264:8 7.52158e-05
5 *2575:A *264:12 0.000177564
*RES
1 invsel[0] *2575:A 43.3578 
*END

*D_NET *5 0.000882709
*CONN
*P invsel[1] I
*I *2576:A I *D sg13cmos5l_buf_1
*CAP
1 invsel[1] 0.000320066
2 *2576:A 0.000320066
3 *2576:A *1614:A 0
4 *2576:A *1620:A 0
5 *2576:A *264:12 0.000242577
*RES
1 invsel[1] *2576:A 43.7904 
*END

*D_NET *6 0.000411171
*CONN
*P invsel[2] I
*I *2577:A I *D sg13cmos5l_buf_1
*CAP
1 invsel[2] 0.000205586
2 *2577:A 0.000205586
3 *2577:A *264:20 0
*RES
1 invsel[2] *2577:A 42.4926 
*END

*D_NET *7 0.000475947
*CONN
*P invsel[3] I
*I *2578:A I *D sg13cmos5l_buf_1
*CAP
1 invsel[3] 0.000237973
2 *2578:A 0.000237973
3 *2578:A *1637:A 0
4 *2578:A *2558:A 0
*RES
1 invsel[3] *2578:A 42.9252 
*END

*D_NET *8 0.000570808
*CONN
*P invsel[4] I
*I *2579:A I *D sg13cmos5l_buf_1
*CAP
1 invsel[4] 0.000285404
2 *2579:A 0.000285404
3 *2579:A *2546:A 0
4 *2579:A *2554:A 0
5 *2579:A *1086:10 0
*RES
1 invsel[4] *2579:A 43.4608 
*END

*D_NET *9 0.000815806
*CONN
*P invsel[5] I
*I *2580:A I *D sg13cmos5l_buf_1
*CAP
1 invsel[5] 0.000319104
2 *2580:A 0.000319104
3 *2580:A *1068:16 0.000177598
*RES
1 invsel[5] *2580:A 43.7904 
*END

*D_NET *10 0.00074647
*CONN
*P osc O
*I *2588:X O *D sg13cmos5l_buf_1
*CAP
1 osc 0.000284582
2 *2588:X 0.000284582
3 osc *77:12 0.000177306
*RES
1 *2588:X osc 43.4608 
*END

*D_NET *11 0.000675238
*CONN
*P osc_tap[0] O
*I *2589:X O *D sg13cmos5l_buf_1
*CAP
1 osc_tap[0] 0.000337619
2 *2589:X 0.000337619
3 osc_tap[0] *2517:A 0
4 osc_tap[0] *2550:A 0
5 osc_tap[0] *2589:A 0
*RES
1 *2589:X osc_tap[0] 43.6771 
*END

*D_NET *12 0.000699683
*CONN
*P osc_tap[1] O
*I *2581:X O *D sg13cmos5l_buf_1
*CAP
1 osc_tap[1] 0.000349842
2 *2581:X 0.000349842
3 osc_tap[1] *2004:A 0
4 osc_tap[1] *2007:A 0
5 osc_tap[1] *2010:A 0
6 osc_tap[1] *207:25 0
7 osc_tap[1] *502:8 0
*RES
1 *2581:X osc_tap[1] 44.2951 
*END

*D_NET *13 0.00034499
*CONN
*P osc_tap[2] O
*I *2582:X O *D sg13cmos5l_buf_1
*CAP
1 osc_tap[2] 0.000172495
2 *2582:X 0.000172495
*RES
1 *2582:X osc_tap[2] 42.2763 
*END

*D_NET *14 0.00034499
*CONN
*P osc_tap[3] O
*I *2583:X O *D sg13cmos5l_buf_1
*CAP
1 osc_tap[3] 0.000172495
2 *2583:X 0.000172495
*RES
1 *2583:X osc_tap[3] 42.2763 
*END

*D_NET *15 0.00066146
*CONN
*P osc_tap[4] O
*I *2584:X O *D sg13cmos5l_buf_1
*CAP
1 osc_tap[4] 0.00033073
2 *2584:X 0.00033073
*RES
1 *2584:X osc_tap[4] 44.0788 
*END

*D_NET *16 0.000544922
*CONN
*P osc_tap[5] O
*I *2585:X O *D sg13cmos5l_buf_1
*CAP
1 osc_tap[5] 0.000232411
2 *2585:X 0.000232411
3 osc_tap[5] *2585:A 8.00998e-05
*RES
1 *2585:X osc_tap[5] 42.8119 
*END

*D_NET *17 0.000534714
*CONN
*P osc_tap[6] O
*I *2586:X O *D sg13cmos5l_buf_1
*CAP
1 osc_tap[6] 0.000267357
2 *2586:X 0.000267357
3 osc_tap[6] *2586:A 0
*RES
1 *2586:X osc_tap[6] 43.0282 
*END

*D_NET *18 0.000600385
*CONN
*P osc_tap[7] O
*I *2587:X O *D sg13cmos5l_buf_1
*CAP
1 osc_tap[7] 0.000300193
2 *2587:X 0.000300193
3 osc_tap[7] *953:25 0
*RES
1 *2587:X osc_tap[7] 43.7595 
*END

*D_NET *19 0.000401068
*CONN
*I *1539:A0 I *D sg13cmos5l_mux2_1
*I *1537:X O *D sg13cmos5l_mux4_1
*CAP
1 *1539:A0 0.000176608
2 *1537:X 0.000176608
3 *1539:A0 *1537:S1 0
4 *1539:A0 *1539:A1 4.78521e-05
5 *1539:A0 *1691:A 0
6 *1539:A0 *1692:A 0
7 *1539:A0 *1693:A 0
8 *1539:A0 *1944:A 0
*RES
1 *1537:X *1539:A0 42.1218 
*END

*D_NET *20 0.00249134
*CONN
*I *1539:A1 I *D sg13cmos5l_mux2_1
*I *1538:X O *D sg13cmos5l_mux4_1
*CAP
1 *1539:A1 0.000143588
2 *1538:X 0.000682922
3 *20:8 0.00082651
4 *1539:A1 *1537:S1 0
5 *1539:A1 *440:14 0
6 *20:8 *1538:S1 0
7 *20:8 *384:8 0
8 *20:8 *386:14 0.000341534
9 *20:8 *1078:73 0
10 *20:8 *1081:53 0.000448929
11 *20:8 *1081:161 0
12 *20:8 *1084:30 0
13 *1539:A0 *1539:A1 4.78521e-05
*RES
1 *1538:X *20:8 48.2606 
2 *20:8 *1539:A1 41.1845 
*END

*D_NET *21 0.00107386
*CONN
*I *1540:C I *D sg13cmos5l_nor3_1
*I *1539:X O *D sg13cmos5l_mux2_1
*CAP
1 *1540:C 0.000343304
2 *1539:X 0.000343304
3 *1540:C *1540:B 1.54008e-05
4 *1540:C *1550:A 0.000161883
5 *1540:C *1943:A 0
6 *1540:C *1944:A 0
7 *1540:C *440:6 0
8 *1540:C *1077:10 0
9 *1540:C *1084:30 0.000209966
*RES
1 *1539:X *1540:C 43.6977 
*END

*D_NET *22 0.000740374
*CONN
*I *1547:C I *D sg13cmos5l_nor4_1
*I *1540:Y O *D sg13cmos5l_nor3_1
*CAP
1 *1547:C 3.603e-05
2 *1540:Y 0.000219482
3 *22:8 0.000255512
4 *1547:C *1547:D 4.77425e-05
5 *22:8 *27:32 0
6 *22:8 *1085:25 0
7 *22:8 *1085:74 0.000181608
8 *22:8 *1086:48 0
*RES
1 *1540:Y *22:8 42.575 
2 *22:8 *1547:C 40.3193 
*END

*D_NET *23 0.000675751
*CONN
*I *1546:A1 I *D sg13cmos5l_o21ai_1
*I *1541:Y O *D sg13cmos5l_nand2_1
*CAP
1 *1546:A1 0.000209059
2 *1541:Y 0.000209059
3 *1546:A1 *1541:B 0
4 *1546:A1 *1546:A2 0.000257632
5 *1546:A1 *1076:32 0
*RES
1 *1541:Y *1546:A1 42.4617 
*END

*D_NET *24 0.00341801
*CONN
*I *1544:A0 I *D sg13cmos5l_mux2_1
*I *1542:X O *D sg13cmos5l_mux4_1
*CAP
1 *1544:A0 0
2 *1542:X 0
3 *24:12 0.00111678
4 *24:6 0.00111678
5 *24:12 *1510:A0 0
6 *24:12 *180:10 0
7 *24:12 *198:8 0
8 *24:12 *446:8 0.000342036
9 *24:12 *450:10 0
10 *24:12 *455:8 0
11 *24:12 *522:12 0
12 *24:12 *527:8 0.000340877
13 *24:12 *528:8 0.000501546
14 *24:12 *1078:73 0
15 *24:12 *1088:8 0
*RES
1 *1542:X *24:6 40 
2 *24:6 *24:12 33.7711 
3 *24:12 *1544:A0 20 
*END

*D_NET *25 0.00117179
*CONN
*I *1544:A1 I *D sg13cmos5l_mux2_1
*I *1543:X O *D sg13cmos5l_mux4_1
*CAP
1 *1544:A1 0.000449533
2 *1543:X 0.000449533
3 *1544:A1 *1546:A2 0
4 *1544:A1 *1702:A 0
5 *1544:A1 *1949:A 8.00842e-05
6 *1544:A1 *1950:A 0
7 *1544:A1 *1076:32 0.000192642
*RES
1 *1543:X *1544:A1 44.9646 
*END

*D_NET *26 0.00138245
*CONN
*I *1546:A2 I *D sg13cmos5l_o21ai_1
*I *1544:X O *D sg13cmos5l_mux2_1
*CAP
1 *1546:A2 0.00056241
2 *1544:X 0.00056241
3 *1546:A2 *1541:B 0
4 *1546:A2 *1547:D 0
5 *1546:A2 *1950:A 0
6 *1546:A2 *57:16 0
7 *1546:A2 *1076:6 0
8 *1546:A2 *1076:14 0
9 *1546:A2 *1076:32 0
10 *1544:A1 *1546:A2 0
11 *1546:A1 *1546:A2 0.000257632
*RES
1 *1544:X *1546:A2 45.9066 
*END

*D_NET *27 0.00927099
*CONN
*I *1546:B1 I *D sg13cmos5l_o21ai_1
*I *1545:Y O *D sg13cmos5l_nor2b_1
*CAP
1 *1546:B1 0
2 *1545:Y 0.000836931
3 *27:32 0.00169292
4 *27:26 0.00270351
5 *27:18 0.00184752
6 *27:18 *2532:A 7.55443e-05
7 *27:18 *2534:A 0
8 *27:18 *2535:A 0
9 *27:18 *2537:A 0
10 *27:18 *2538:A 0.000145053
11 *27:18 *2542:A 0
12 *27:18 *2543:A 0
13 *27:18 *2544:A 0.000144899
14 *27:18 *2546:A 0.000177306
15 *27:18 *1025:10 7.51285e-05
16 *27:18 *1086:10 0.00012816
17 *27:26 *1564:A 0
18 *27:26 *1637:A 0
19 *27:26 *1638:A 0
20 *27:26 *1641:A 0.000177399
21 *27:26 *2558:A 0
22 *27:26 *2562:A 0
23 *27:26 *2563:A 0
24 *27:26 *2565:A 0
25 *27:26 *2566:A 0
26 *27:26 *2567:A 0.000112766
27 *27:26 *2569:A 0
28 *27:26 *47:14 0.000434534
29 *27:26 *1043:6 0
30 *27:26 *1043:29 1.53882e-05
31 *27:26 *1058:12 0
32 *27:32 *1539:S 0
33 *27:32 *52:8 0
34 *27:32 *56:8 0.000235141
35 *27:32 *59:8 0
36 *27:32 *60:8 0
37 *27:32 *139:10 0
38 *27:32 *396:8 0
39 *27:32 *397:8 0.000340462
40 *27:32 *403:8 0.000128334
41 *27:32 *405:10 0
42 *27:32 *419:8 0
43 *27:32 *436:8 0
44 *27:32 *440:25 0
45 *27:32 *1077:10 0
46 *27:32 *1081:149 0
47 *27:32 *1084:36 0
48 *27:32 *1085:12 0
49 *22:8 *27:32 0
*RES
1 *1545:Y *27:18 48.6876 
2 *27:18 *27:26 30.3206 
3 *27:26 *27:32 40.6927 
4 *27:32 *1546:B1 40 
*END

*D_NET *28 0.000442675
*CONN
*I *1547:D I *D sg13cmos5l_nor4_1
*I *1546:Y O *D sg13cmos5l_o21ai_1
*CAP
1 *1547:D 0.000197466
2 *1546:Y 0.000197466
3 *1547:D *1547:B 0
4 *1547:D *57:16 0
5 *1547:D *1086:48 0
6 *1546:A2 *1547:D 0
7 *1547:C *1547:D 4.77425e-05
*RES
1 *1546:Y *1547:D 41.8334 
*END

*D_NET *29 0.00075448
*CONN
*I *1548:B1 I *D sg13cmos5l_a21o_1
*I *1547:Y O *D sg13cmos5l_nor4_1
*CAP
1 *1548:B1 0.000369512
2 *1547:Y 0.000369512
3 *1548:B1 *1515:A 0
4 *1548:B1 *1548:A1 1.54556e-05
5 *1548:B1 *57:16 0
6 *1548:B1 *1085:36 0
7 *1548:B1 *1086:48 0
*RES
1 *1547:Y *1548:B1 43.8007 
*END

*D_NET *30 0.00209463
*CONN
*I *1514:A0 I *D sg13cmos5l_mux4_1
*I *1510:X O *D sg13cmos5l_mux4_1
*CAP
1 *1514:A0 0.000343091
2 *1510:X 0.000302067
3 *30:16 0.000645158
4 *1514:A0 *2108:A 0
5 *1514:A0 *2110:A 1.54008e-05
6 *1514:A0 *2131:A 0
7 *1514:A0 *2132:A 0
8 *1514:A0 *2142:A 0.000209317
9 *1514:A0 *2144:A 0
10 *1514:A0 *1076:121 0
11 *1514:A0 *1082:89 0.000434829
12 *30:16 *1510:A2 0
13 *30:16 *2107:A 0
14 *30:16 *2109:A 0
15 *30:16 *2110:A 0
16 *30:16 *2111:A 0
17 *30:16 *1076:121 0.000144767
18 *30:16 *1082:79 0
19 *30:16 *1082:89 0
*RES
1 *1510:X *30:16 43.0179 
2 *30:16 *1514:A0 43.6921 
*END

*D_NET *31 0.00326226
*CONN
*I *1514:A1 I *D sg13cmos5l_mux4_1
*I *1511:X O *D sg13cmos5l_mux4_1
*CAP
1 *1514:A1 8.17382e-05
2 *1511:X 0.000891703
3 *31:20 0.000973442
4 *1514:A1 *1514:A2 0.000144094
5 *1514:A1 *1076:121 0.00014395
6 *31:20 *1513:S1 0
7 *31:20 *2153:A 0.0001121
8 *31:20 *2154:A 7.51291e-05
9 *31:20 *32:10 0.000112426
10 *31:20 *33:16 0.000466452
11 *31:20 *33:24 0.000181608
12 *31:20 *647:12 7.96143e-05
13 *31:20 *1076:121 0
14 *31:20 *1076:123 0
15 *31:20 *1076:148 0
*RES
1 *1511:X *31:20 49.3733 
2 *31:20 *1514:A1 40.9682 
*END

*D_NET *32 0.00109704
*CONN
*I *1514:A2 I *D sg13cmos5l_mux4_1
*I *1512:X O *D sg13cmos5l_mux4_1
*CAP
1 *1514:A2 0.000157004
2 *1512:X 0.000148759
3 *32:10 0.000305763
4 *1514:A2 *1512:A2 0
5 *1514:A2 *33:24 0
6 *1514:A2 *1076:121 0
7 *1514:A2 *1076:123 4.78028e-05
8 *32:10 *582:22 0.000181192
9 *1514:A1 *1514:A2 0.000144094
10 *31:20 *32:10 0.000112426
*RES
1 *1512:X *32:10 41.5965 
2 *32:10 *1514:A2 41.6171 
*END

*D_NET *33 0.00406501
*CONN
*I *1514:A3 I *D sg13cmos5l_mux4_1
*I *1513:X O *D sg13cmos5l_mux4_1
*CAP
1 *1514:A3 0
2 *1513:X 0.00114841
3 *33:24 0.000331884
4 *33:16 0.0014803
5 *33:16 *1513:S1 0
6 *33:16 *2134:A 0
7 *33:16 *2146:A 0
8 *33:16 *2147:A 0
9 *33:16 *2148:A 4.36621e-05
10 *33:16 *2149:A 0.000235952
11 *33:16 *2150:A 0.000176742
12 *33:16 *2411:A 0
13 *33:16 *2412:A 0
14 *33:16 *2416:A 0
15 *33:16 *2418:A 0
16 *33:16 *2421:A 0
17 *33:16 *2426:A 0
18 *33:16 *646:12 0
19 *33:16 *1076:148 0
20 *33:24 *1512:A2 0
21 *33:24 *1512:A3 0
22 *33:24 *34:8 0
23 *33:24 *582:22 0
24 *33:24 *1076:121 0
25 *33:24 *1082:97 0
26 *33:24 *1086:64 0
27 *1514:A2 *33:24 0
28 *31:20 *33:16 0.000466452
29 *31:20 *33:24 0.000181608
*RES
1 *1513:X *33:16 31.6135 
2 *33:16 *33:24 43.2704 
3 *33:24 *1514:A3 20 
*END

*D_NET *34 0.00473288
*CONN
*I *1515:B I *D sg13cmos5l_or2_1
*I *1514:X O *D sg13cmos5l_mux4_1
*CAP
1 *1515:B 0
2 *1514:X 7.17247e-05
3 *34:12 0.000724065
4 *34:8 0.000795789
5 *34:8 *1080:131 0.000112618
6 *34:8 *1082:97 0
7 *34:12 *1512:A2 0.000159424
8 *34:12 *2123:A 0.000341707
9 *34:12 *547:25 0
10 *34:12 *1086:64 0.00252755
11 *33:24 *34:8 0
*RES
1 *1514:X *34:8 40.7519 
2 *34:8 *34:12 31.7214 
3 *34:12 *1515:B 20 
*END

*D_NET *35 0.000262341
*CONN
*I *1548:A1 I *D sg13cmos5l_a21o_1
*I *1515:X O *D sg13cmos5l_or2_1
*CAP
1 *1548:A1 0.000123442
2 *1515:X 0.000123442
3 *1548:A1 *1515:A 0
4 *1548:A1 *2169:A 0
5 *1548:A1 *2170:A 0
6 *1548:A1 *57:16 0
7 *1548:A1 *1085:36 0
8 *1548:A1 *1086:34 0
9 *1548:A1 *1086:40 0
10 *1548:B1 *1548:A1 1.54556e-05
*RES
1 *1515:X *1548:A1 41.3802 
*END

*D_NET *36 0.00336487
*CONN
*I *1536:B I *D sg13cmos5l_nor3_1
*I *1544:S I *D sg13cmos5l_mux2_1
*I *1539:S I *D sg13cmos5l_mux2_1
*I *1517:B I *D sg13cmos5l_nor2_1
*I *1516:Y O *D sg13cmos5l_inv_1
*CAP
1 *1536:B 0
2 *1544:S 0.000348123
3 *1539:S 0.000345791
4 *1517:B 0.000195673
5 *1516:Y 0
6 *36:25 0.000921676
7 *36:21 0.000638184
8 *36:4 0.000606095
9 *1517:B *1520:A1 0
10 *1517:B *1550:A 0
11 *1517:B *1077:19 0
12 *1517:B *1077:34 0
13 *1517:B *1085:36 0
14 *1517:B *1086:40 0
15 *1539:S *55:30 0.000181192
16 *1539:S *440:25 0
17 *1539:S *1078:73 0
18 *1544:S *1541:B 0
19 *1544:S *1697:A 0
20 *1544:S *1701:A 0
21 *1544:S *1947:A 0
22 *1544:S *1948:A 0
23 *1544:S *443:12 0
24 *1544:S *1078:73 0
25 *1544:S *1084:30 0
26 *1544:S *1084:36 0
27 *36:21 *1540:B 0
28 *36:21 *1550:A 0.000112684
29 *36:21 *1077:19 0
30 *36:21 *1085:36 0
31 *36:21 *1085:50 1.54556e-05
32 *36:25 *1541:B 0
33 *36:25 *55:30 0
34 *27:32 *1539:S 0
*RES
1 *1516:Y *36:4 20 
2 *36:4 *1517:B 22.0909 
3 *36:4 *36:21 4.1509 
4 *36:21 *36:25 21.8334 
5 *36:25 *1539:S 43.605 
6 *36:25 *1544:S 43.5638 
7 *36:21 *1536:B 20 
*END

*D_NET *37 0.000499143
*CONN
*I *1520:A1 I *D sg13cmos5l_a21oi_1
*I *1517:Y O *D sg13cmos5l_nor2_1
*CAP
1 *1520:A1 0.000169426
2 *1517:Y 0.000169426
3 *1520:A1 *1520:A2 1.54556e-05
4 *1520:A1 *1077:34 0.000144836
5 *1520:A1 *1086:40 0
6 *1517:B *1520:A1 0
*RES
1 *1517:Y *1520:A1 41.751 
*END

*D_NET *38 0.00370367
*CONN
*I *1520:A2 I *D sg13cmos5l_a21oi_1
*I *1518:X O *D sg13cmos5l_mux4_1
*CAP
1 *1520:A2 0.000488046
2 *1518:X 0.000210394
3 *38:16 0.00143334
4 *38:8 0.00115569
5 *1520:A2 *1522:B 0.000272878
6 *1520:A2 *1077:34 0
7 *1520:A2 *1077:42 8.00842e-05
8 *1520:A2 *1080:60 0
9 *1520:A2 *1086:34 0
10 *1520:A2 *1086:40 0
11 *38:8 *803:8 0
12 *38:8 *954:24 0
13 *38:8 *1080:90 0
14 *38:16 *1521:A2 0
15 *38:16 *2203:A 0
16 *38:16 *2205:A 0
17 *38:16 *2212:A 0
18 *38:16 *2214:A 0
19 *38:16 *2218:A 4.77866e-05
20 *38:16 *2310:A 0
21 *1520:A1 *1520:A2 1.54556e-05
*RES
1 *1518:X *38:8 42.3278 
2 *38:8 *38:16 49.5996 
3 *38:16 *1520:A2 44.429 
*END

*D_NET *39 0.00125227
*CONN
*I *1520:B1 I *D sg13cmos5l_a21oi_1
*I *1540:B I *D sg13cmos5l_nor3_1
*I *1519:Y O *D sg13cmos5l_inv_1
*CAP
1 *1520:B1 0.000214925
2 *1540:B 0.000133664
3 *1519:Y 0.000377367
4 *39:10 0.000296107
5 *1520:B1 *1528:A2 0
6 *1520:B1 *1077:34 0.000134602
7 *1540:B *1077:19 0
8 *39:10 *1077:19 0
9 *39:10 *1085:12 8.02063e-05
10 *1540:C *1540:B 1.54008e-05
11 *36:21 *1540:B 0
*RES
1 *1519:Y *39:10 41.117 
2 *39:10 *1540:B 41.1845 
3 *1519:Y *1520:B1 42.1012 
*END

*D_NET *40 0.000337791
*CONN
*I *1528:A1 I *D sg13cmos5l_a21oi_1
*I *1520:Y O *D sg13cmos5l_a21oi_1
*CAP
1 *1528:A1 5.12821e-05
2 *1520:Y 7.7467e-05
3 *40:8 0.000128749
4 *1528:A1 *1528:A2 8.02924e-05
5 *1528:A1 *47:20 0
6 *40:8 *48:8 0
7 *40:8 *1077:42 0
*RES
1 *1520:Y *40:8 40.8446 
2 *40:8 *1528:A1 40.5356 
*END

*D_NET *41 0.000390535
*CONN
*I *1526:A1 I *D sg13cmos5l_a22oi_1
*I *1521:X O *D sg13cmos5l_mux4_1
*CAP
1 *1526:A1 0.000195267
2 *1521:X 0.000195267
3 *1526:A1 *1522:B 0
*RES
1 *1521:X *1526:A1 41.751 
*END

*D_NET *42 0.000289793
*CONN
*I *1526:A2 I *D sg13cmos5l_a22oi_1
*I *1522:Y O *D sg13cmos5l_nor2_1
*CAP
1 *1526:A2 0.000113325
2 *1522:Y 0.000113325
3 *1526:A2 *1526:B2 4.77425e-05
4 *1526:A2 *1077:34 1.54008e-05
*RES
1 *1522:Y *1526:A2 41.133 
*END

*D_NET *43 0.00226585
*CONN
*I *1525:A0 I *D sg13cmos5l_mux2_1
*I *1523:X O *D sg13cmos5l_mux4_1
*CAP
1 *1525:A0 0.000796476
2 *1523:X 9.52151e-05
3 *43:8 0.000891691
4 *1525:A0 *2257:A 0
5 *1525:A0 *2301:A 0.000209505
6 *1525:A0 *2518:A 0
7 *1525:A0 *2519:A 0
8 *1525:A0 *2520:A 0
9 *1525:A0 *2523:A 0.000144298
10 *1525:A0 *45:14 0
11 *1525:A0 *748:14 0
12 *1525:A0 *753:10 0
13 *1525:A0 *1017:10 0
14 *43:8 *1523:S1 0.000128663
15 *43:8 *753:10 0
*RES
1 *1523:X *43:8 41.0918 
2 *43:8 *1525:A0 48.3636 
*END

*D_NET *44 0.000683393
*CONN
*I *1525:A1 I *D sg13cmos5l_mux2_1
*I *1524:X O *D sg13cmos5l_mux4_1
*CAP
1 *1525:A1 0.000299623
2 *1524:X 0.000299623
3 *1525:A1 *2185:A 0
4 *1525:A1 *45:14 0
5 *1525:A1 *1080:45 0
6 *1525:A1 *1083:49 8.41464e-05
*RES
1 *1524:X *1525:A1 42.7398 
*END

*D_NET *45 0.00254013
*CONN
*I *1526:B1 I *D sg13cmos5l_a22oi_1
*I *1525:X O *D sg13cmos5l_mux2_1
*CAP
1 *1526:B1 0.000684838
2 *1525:X 0.000382429
3 *45:14 0.00106727
4 *1526:B1 *1528:A2 1.54008e-05
5 *1526:B1 *47:20 0
6 *1526:B1 *48:8 0
7 *1526:B1 *666:8 0.000342449
8 *45:14 *2185:A 0
9 *45:14 *2186:A 0
10 *45:14 *2187:A 4.77425e-05
11 *45:14 *2189:A 0
12 *45:14 *2191:A 0
13 *45:14 *2522:A 0
14 *45:14 *1083:49 0
15 *1525:A0 *45:14 0
16 *1525:A1 *45:14 0
*RES
1 *1525:X *45:14 43.7492 
2 *45:14 *1526:B1 47.8383 
*END

*D_NET *46 0.000545407
*CONN
*I *1528:A2 I *D sg13cmos5l_a21oi_1
*I *1526:Y O *D sg13cmos5l_a22oi_1
*CAP
1 *1528:A2 0.000168546
2 *1526:Y 0.000168546
3 *1528:A2 *1077:34 0.00011262
4 *1520:B1 *1528:A2 0
5 *1526:B1 *1528:A2 1.54008e-05
6 *1528:A1 *1528:A2 8.02924e-05
*RES
1 *1526:Y *1528:A2 41.8334 
*END

*D_NET *47 0.00732792
*CONN
*I *1528:B1 I *D sg13cmos5l_a21oi_1
*I *1527:Y O *D sg13cmos5l_nand2_1
*CAP
1 *1528:B1 0
2 *1527:Y 0.000224005
3 *47:20 0.00120651
4 *47:14 0.00269656
5 *47:8 0.00171406
6 *47:8 *739:8 0
7 *47:8 *740:8 0
8 *47:8 *741:8 0
9 *47:8 *760:18 0
10 *47:8 *1036:10 0
11 *47:8 *1087:14 0
12 *47:14 *2530:A 0.000108191
13 *47:14 *2535:A 0.000209374
14 *47:14 *2567:A 0
15 *47:14 *1036:10 0
16 *47:20 *1524:A2 0
17 *47:20 *70:8 0
18 *47:20 *415:8 0
19 *47:20 *674:8 0.000128247
20 *47:20 *1062:8 0.000606453
21 *47:20 *1081:86 0
22 *47:20 *1083:49 0
23 *1526:B1 *47:20 0
24 *1528:A1 *47:20 0
25 *27:26 *47:14 0.000434534
*RES
1 *1527:Y *47:8 42.0646 
2 *47:8 *47:14 49.1876 
3 *47:14 *47:20 35.0071 
4 *47:20 *1528:B1 20 
*END

*D_NET *48 0.000782236
*CONN
*I *1548:A2 I *D sg13cmos5l_a21o_1
*I *1528:Y O *D sg13cmos5l_a21oi_1
*CAP
1 *1548:A2 1.31322e-05
2 *1528:Y 0.000377986
3 *48:8 0.000391118
4 *48:8 *1077:42 0
5 *48:8 *1085:25 0
6 *48:8 *1086:48 0
7 *48:8 *1086:64 0
8 *1526:B1 *48:8 0
9 *40:8 *48:8 0
*RES
1 *1528:Y *48:8 44.0582 
2 *48:8 *1548:A2 40.1133 
*END

*D_NET *49 0.000502882
*CONN
*I *1531:A0 I *D sg13cmos5l_mux2_1
*I *1529:X O *D sg13cmos5l_mux4_1
*CAP
1 *1531:A0 0.000251441
2 *1529:X 0.000251441
3 *1531:A0 *1529:S1 0
4 *1531:A0 *1531:A1 0
5 *1531:A0 *1581:A 0
6 *1531:A0 *2384:A 0
*RES
1 *1529:X *1531:A0 42.4926 
*END

*D_NET *50 0.000254611
*CONN
*I *1531:A1 I *D sg13cmos5l_mux2_1
*I *1530:X O *D sg13cmos5l_mux4_1
*CAP
1 *1531:A1 0.000127306
2 *1530:X 0.000127306
3 *1531:A1 *1529:S1 0
4 *1531:A1 *1581:A 0
5 *1531:A0 *1531:A1 0
*RES
1 *1530:X *1531:A1 41.339 
*END

*D_NET *51 0.00796086
*CONN
*I *1532:C I *D sg13cmos5l_nor3_1
*I *1531:X O *D sg13cmos5l_mux2_1
*CAP
1 *1532:C 0
2 *1531:X 0.00054507
3 *51:32 0.000392
4 *51:24 0.00207704
5 *51:14 0.00223011
6 *51:14 *1531:S 0
7 *51:14 *1991:A 0
8 *51:14 *1992:A 0
9 *51:14 *1993:A 0
10 *51:14 *1997:A 0
11 *51:14 *1998:A 0
12 *51:14 *2417:A 0
13 *51:14 *482:10 0
14 *51:14 *900:12 0
15 *51:14 *1076:80 0
16 *51:24 *1708:A 0
17 *51:24 *1709:A 0
18 *51:24 *1712:A 0.000762846
19 *51:24 *1714:A 0
20 *51:24 *1954:A 0
21 *51:24 *1955:A 0.000263505
22 *51:24 *2038:A 0
23 *51:24 *2061:A 0
24 *51:24 *207:25 0.00107437
25 *51:24 *257:8 0
26 *51:24 *268:8 0
27 *51:24 *482:10 0
28 *51:24 *484:8 0
29 *51:24 *1088:14 0.000273786
30 *51:32 *538:8 0.000342122
31 *51:32 *551:8 0
32 *51:32 *557:8 0
33 *51:32 *1076:62 0
*RES
1 *1531:X *51:14 45.1671 
2 *51:14 *51:24 39.2301 
3 *51:24 *51:32 45.1191 
4 *51:32 *1532:C 20 
*END

*D_NET *52 0.000585962
*CONN
*I *1547:A I *D sg13cmos5l_nor4_1
*I *1532:Y O *D sg13cmos5l_nor3_1
*CAP
1 *1547:A 0
2 *1532:Y 0.000122629
3 *52:8 0.000122629
4 *52:8 *56:8 0
5 *52:8 *1084:36 0
6 *52:8 *1085:74 0.000340704
7 *27:32 *52:8 0
*RES
1 *1532:Y *52:8 41.8334 
2 *52:8 *1547:A 40 
*END

*D_NET *53 0.00449722
*CONN
*I *1535:A0 I *D sg13cmos5l_mux2_1
*I *1533:X O *D sg13cmos5l_mux4_1
*CAP
1 *1535:A0 0
2 *1533:X 0
3 *53:12 0.000763273
4 *53:6 0.000763273
5 *53:12 *1534:A1 0
6 *53:12 *1078:29 0.00188411
7 *53:12 *1081:25 0.00108656
*RES
1 *1533:X *53:6 40 
2 *53:6 *53:12 31.2991 
3 *53:12 *1535:A0 20 
*END

*D_NET *54 0.000239562
*CONN
*I *1535:A1 I *D sg13cmos5l_mux2_1
*I *1534:X O *D sg13cmos5l_mux4_1
*CAP
1 *1535:A1 0.000119781
2 *1534:X 0.000119781
3 *1535:A1 *1595:A 0
4 *1535:A1 *1597:A 0
5 *1535:A1 *55:20 0
*RES
1 *1534:X *1535:A1 41.339 
*END

*D_NET *55 0.00529693
*CONN
*I *1536:C I *D sg13cmos5l_nor3_1
*I *1535:X O *D sg13cmos5l_mux2_1
*CAP
1 *1536:C 0
2 *1535:X 0.00162025
3 *55:30 0.000301245
4 *55:20 0.0019215
5 *55:20 *1534:S1 1.73259e-05
6 *55:20 *1535:S 0
7 *55:20 *1543:A1 0.00011279
8 *55:20 *1543:A3 0
9 *55:20 *1594:A 0
10 *55:20 *1597:A 0.000176707
11 *55:20 *1693:A 0
12 *55:20 *1694:A 0
13 *55:20 *1731:A 0
14 *55:20 *1733:A 0
15 *55:20 *1734:A 6.34759e-05
16 *55:20 *1839:A 0
17 *55:20 *174:10 0
18 *55:20 *192:10 7.93426e-05
19 *55:20 *193:10 4.79124e-05
20 *55:20 *229:10 0.00011184
21 *55:20 *273:18 0
22 *55:20 *440:6 4.77425e-05
23 *55:20 *440:14 0.00027377
24 *55:20 *1076:32 0
25 *55:20 *1078:39 1.54446e-05
26 *55:20 *1081:161 0
27 *55:20 *1084:30 0
28 *55:30 *1550:A 4.77425e-05
29 *55:30 *1084:30 0.000278642
30 *1535:A1 *55:20 0
31 *1539:S *55:30 0.000181192
32 *36:25 *55:30 0
*RES
1 *1535:X *55:20 36.3667 
2 *55:20 *55:30 43.2445 
3 *55:30 *1536:C 20 
*END

*D_NET *56 0.000706257
*CONN
*I *1547:B I *D sg13cmos5l_nor4_1
*I *1536:Y O *D sg13cmos5l_nor3_1
*CAP
1 *1547:B 0.000164337
2 *1536:Y 7.12207e-05
3 *56:8 0.000235558
4 *1547:B *1085:50 0
5 *56:8 *1085:74 0
6 *1547:D *1547:B 0
7 *27:32 *56:8 0.000235141
8 *52:8 *56:8 0
*RES
1 *1536:Y *56:8 41.0918 
2 *56:8 *1547:B 41.4008 
*END

*D_NET *57 0.00248214
*CONN
*I *1563:A I *D sg13cmos5l_inv_1
*I *1548:X O *D sg13cmos5l_a21o_1
*CAP
1 *1563:A 0
2 *1548:X 0.00124107
3 *57:16 0.00124107
4 *57:16 *1704:A 0
5 *57:16 *1950:A 0
6 *57:16 *2035:A 0
7 *57:16 *2043:A 0
8 *57:16 *2045:A 0
9 *57:16 *2046:A 0
10 *57:16 *2047:A 0
11 *57:16 *2048:A 0
12 *57:16 *1076:6 0
13 *57:16 *1076:14 0
14 *57:16 *1086:48 0
15 *1546:A2 *57:16 0
16 *1547:D *57:16 0
17 *1548:A1 *57:16 0
18 *1548:B1 *57:16 0
*RES
1 *1548:X *57:16 32.5454 
2 *57:16 *1563:A 20 
*END

*D_NET *58 0.00175401
*CONN
*I *1564:A I *D sg13cmos5l_inv_1
*I *2571:Y O *D sg13cmos5l_inv_1
*CAP
1 *1564:A 0.000470125
2 *2571:Y 0.000193228
3 *58:10 0.000663353
4 *1564:A *2569:A 4.77425e-05
5 *58:10 *2571:A 0.000144833
6 *58:10 *1063:10 0.000234726
7 *27:26 *1564:A 0
*RES
1 *2571:Y *58:10 42.06 
2 *58:10 *1564:A 43.0488 
*END

*D_NET *59 0.000418376
*CONN
*I *1565:A I *D sg13cmos5l_inv_1
*I *1564:Y O *D sg13cmos5l_inv_1
*CAP
1 *1565:A 6.42442e-05
2 *1564:Y 0.000144944
3 *59:8 0.000209188
4 *59:8 *1085:12 0
5 *27:32 *59:8 0
*RES
1 *1564:Y *59:8 41.5862 
2 *59:8 *1565:A 40.6695 
*END

*D_NET *60 0.000350228
*CONN
*I *1566:A I *D sg13cmos5l_inv_1
*I *1565:Y O *D sg13cmos5l_inv_1
*CAP
1 *1566:A 0
2 *1565:Y 0.000175114
3 *60:8 0.000175114
4 *60:8 *1085:12 0
5 *27:32 *60:8 0
*RES
1 *1565:Y *60:8 41.8334 
2 *60:8 *1566:A 40 
*END

*D_NET *61 0.000309498
*CONN
*I *1567:A I *D sg13cmos5l_inv_1
*I *1566:Y O *D sg13cmos5l_inv_1
*CAP
1 *1567:A 0.000154749
2 *1566:Y 0.000154749
3 *1567:A *1568:A 0
4 *1567:A *1080:45 0
5 *1567:A *1082:33 0
*RES
1 *1566:Y *1567:A 41.6171 
*END

*D_NET *62 0.000234465
*CONN
*I *1568:A I *D sg13cmos5l_inv_1
*I *1567:Y O *D sg13cmos5l_inv_1
*CAP
1 *1568:A 0.000117232
2 *1567:Y 0.000117232
3 *1568:A *1570:A 0
4 *1568:A *1571:A 0
5 *1568:A *1572:A 0
6 *1568:A *1063:10 0
7 *1568:A *1080:45 0
8 *1568:A *1082:33 0
9 *1567:A *1568:A 0
*RES
1 *1567:Y *1568:A 41.1954 
*END

*D_NET *63 0.000112161
*CONN
*I *1569:A I *D sg13cmos5l_inv_1
*I *1568:Y O *D sg13cmos5l_inv_1
*CAP
1 *1569:A 5.60806e-05
2 *1568:Y 5.60806e-05
3 *1569:A *1570:A 0
4 *1569:A *1571:A 0
5 *1569:A *1572:A 0
*RES
1 *1568:Y *1569:A 40.5974 
*END

*D_NET *64 0.000386962
*CONN
*I *1570:A I *D sg13cmos5l_inv_1
*I *1569:Y O *D sg13cmos5l_inv_1
*CAP
1 *1570:A 0.000193481
2 *1569:Y 0.000193481
3 *1570:A *1572:A 0
4 *1570:A *1063:10 0
5 *1570:A *1080:45 0
6 *1570:A *1082:33 0
7 *1568:A *1570:A 0
8 *1569:A *1570:A 0
*RES
1 *1569:Y *1570:A 41.9982 
*END

*D_NET *65 0.00012505
*CONN
*I *1571:A I *D sg13cmos5l_inv_1
*I *1570:Y O *D sg13cmos5l_inv_1
*CAP
1 *1571:A 6.25251e-05
2 *1570:Y 6.25251e-05
3 *1571:A *1572:A 0
4 *1568:A *1571:A 0
5 *1569:A *1571:A 0
*RES
1 *1570:Y *1571:A 40.5974 
*END

*D_NET *66 0.000592813
*CONN
*I *1572:A I *D sg13cmos5l_inv_1
*I *1571:Y O *D sg13cmos5l_inv_1
*CAP
1 *1572:A 0.000178877
2 *1571:Y 0.000178877
3 *1572:A *1573:A 0.00023506
4 *1572:A *1080:45 0
5 *1572:A *1082:33 0
6 *1568:A *1572:A 0
7 *1569:A *1572:A 0
8 *1570:A *1572:A 0
9 *1571:A *1572:A 0
*RES
1 *1571:Y *1572:A 42.1218 
*END

*D_NET *67 0.00143328
*CONN
*I *1573:A I *D sg13cmos5l_inv_1
*I *1572:Y O *D sg13cmos5l_inv_1
*CAP
1 *1573:A 0.000438829
2 *1572:Y 0.000438829
3 *1573:A *1524:A0 0
4 *1573:A *69:10 0.000240383
5 *1573:A *1043:29 8.01776e-05
6 *1573:A *1080:45 0
7 *1573:A *1082:33 0
8 *1572:A *1573:A 0.00023506
*RES
1 *1572:Y *1573:A 44.6865 
*END

*D_NET *68 0.000454747
*CONN
*I *1574:A I *D sg13cmos5l_inv_1
*I *2572:Y O *D sg13cmos5l_inv_1
*CAP
1 *1574:A 0.000227374
2 *2572:Y 0.000227374
3 *1574:A *1590:A 0
4 *1574:A *2350:A 0
5 *1574:A *84:12 0
*RES
1 *2572:Y *1574:A 42.3175 
*END

*D_NET *69 0.00161771
*CONN
*I *1575:A I *D sg13cmos5l_inv_1
*I *1573:Y O *D sg13cmos5l_inv_1
*CAP
1 *1575:A 4.44159e-05
2 *1573:Y 0.000393475
3 *69:10 0.000437891
4 *69:10 *1524:A0 0
5 *69:10 *70:8 0.000501546
6 *1573:A *69:10 0.000240383
*RES
1 *1573:Y *69:10 43.9449 
2 *69:10 *1575:A 40.3193 
*END

*D_NET *70 0.00194216
*CONN
*I *1524:A3 I *D sg13cmos5l_mux4_1
*I *1575:Y O *D sg13cmos5l_inv_1
*CAP
1 *1524:A3 4.8732e-05
2 *1575:Y 0.000300937
3 *70:8 0.000349669
4 *1524:A3 *1080:45 8.0216e-05
5 *1524:A3 *1083:49 0
6 *70:8 *1043:29 0.000661056
7 *47:20 *70:8 0
8 *69:10 *70:8 0.000501546
*RES
1 *1575:Y *70:8 44.5526 
2 *70:8 *1524:A3 40.5356 
*END

*D_NET *71 0.00025764
*CONN
*I *1576:A I *D sg13cmos5l_inv_1
*I *1574:Y O *D sg13cmos5l_inv_1
*CAP
1 *1576:A 0.00012882
2 *1574:Y 0.00012882
3 *1576:A *1584:A 0
4 *1576:A *1586:A 0
5 *1576:A *2295:A 0
6 *1576:A *2306:A 0
7 *1576:A *2317:A 0
8 *1576:A *2539:A 0
*RES
1 *1574:Y *1576:A 41.4008 
*END

*D_NET *72 0.000387028
*CONN
*I *1577:A I *D sg13cmos5l_inv_1
*I *1576:Y O *D sg13cmos5l_inv_1
*CAP
1 *1577:A 0.000193514
2 *1576:Y 0.000193514
3 *1577:A *1583:A 0
4 *1577:A *1584:A 0
5 *1577:A *2295:A 0
*RES
1 *1576:Y *1577:A 41.9673 
*END

*D_NET *73 9.45957e-05
*CONN
*I *1578:A I *D sg13cmos5l_inv_1
*I *1577:Y O *D sg13cmos5l_inv_1
*CAP
1 *1578:A 4.72978e-05
2 *1577:Y 4.72978e-05
*RES
1 *1577:Y *1578:A 40.5974 
*END

*D_NET *74 0.00188903
*CONN
*I *1579:A I *D sg13cmos5l_inv_1
*I *1578:Y O *D sg13cmos5l_inv_1
*CAP
1 *1579:A 0.000462534
2 *1578:Y 0.000385628
3 *74:8 0.000848162
4 *1579:A *2151:A 0
5 *1579:A *2228:A 0
6 *1579:A *2239:A 0
7 *1579:A *2251:A 0.000177306
8 *1579:A *2295:A 0
9 *1579:A *2306:A 0
10 *1579:A *2317:A 0
11 *1579:A *2328:A 1.54008e-05
12 *1579:A *2339:A 0
13 *74:8 *77:12 0
14 *74:8 *778:8 0
*RES
1 *1578:Y *74:8 44.0582 
2 *74:8 *1579:A 44.9646 
*END

*D_NET *75 0.000383717
*CONN
*I *1580:A I *D sg13cmos5l_inv_1
*I *1579:Y O *D sg13cmos5l_inv_1
*CAP
1 *1580:A 0.000191859
2 *1579:Y 0.000191859
3 *1580:A *2228:A 0
4 *1580:A *2350:A 0
*RES
1 *1579:Y *1580:A 41.5977 
*END

*D_NET *76 0.00120899
*CONN
*I *1581:A I *D sg13cmos5l_inv_1
*I *1580:Y O *D sg13cmos5l_inv_1
*CAP
1 *1581:A 0.000604495
2 *1580:Y 0.000604495
3 *1581:A *1529:S1 0
4 *1581:A *1530:A1 0
5 *1581:A *2017:A 0
6 *1581:A *2051:A 0
7 *1581:A *2062:A 0
8 *1581:A *2162:A 0
9 *1581:A *2173:A 0
10 *1581:A *2184:A 0
11 *1581:A *2228:A 0
12 *1581:A *711:16 0
13 *1581:A *1076:80 0
14 *1531:A0 *1581:A 0
15 *1531:A1 *1581:A 0
*RES
1 *1580:Y *1581:A 46.0817 
*END

*D_NET *77 0.00265638
*CONN
*I *1582:A I *D sg13cmos5l_inv_1
*I *1581:Y O *D sg13cmos5l_inv_1
*CAP
1 *1582:A 0
2 *1581:Y 0
3 *77:12 0.00123954
4 *77:6 0.00123954
5 *77:12 *1583:A 0
6 *77:12 *1584:A 0
7 *77:12 *622:8 0
8 *77:12 *1088:20 0
9 osc *77:12 0.000177306
10 *74:8 *77:12 0
*RES
1 *1581:Y *77:6 40 
2 *77:6 *77:12 31.8553 
3 *77:12 *1582:A 20 
*END

*D_NET *78 0.000222534
*CONN
*I *1583:A I *D sg13cmos5l_inv_1
*I *1582:Y O *D sg13cmos5l_inv_1
*CAP
1 *1583:A 0.000111267
2 *1582:Y 0.000111267
3 *1577:A *1583:A 0
4 *77:12 *1583:A 0
*RES
1 *1582:Y *1583:A 41.3802 
*END

*D_NET *79 0.000494411
*CONN
*I *1584:A I *D sg13cmos5l_inv_1
*I *1583:Y O *D sg13cmos5l_inv_1
*CAP
1 *1584:A 0.000239483
2 *1583:Y 0.000239483
3 *1584:A *1586:A 1.54449e-05
4 *1584:A *1587:A 0
5 *1576:A *1584:A 0
6 *1577:A *1584:A 0
7 *77:12 *1584:A 0
*RES
1 *1583:Y *1584:A 42.5647 
*END

*D_NET *80 0.000372477
*CONN
*I *1585:A I *D sg13cmos5l_inv_1
*I *2573:Y O *D sg13cmos5l_inv_1
*CAP
1 *1585:A 0.000106474
2 *2573:Y 0.000106474
3 *1585:A *1596:A 0.000144073
4 *1585:A *2573:A 1.54556e-05
*RES
1 *2573:Y *1585:A 41.3802 
*END

*D_NET *81 0.000258893
*CONN
*I *1586:A I *D sg13cmos5l_inv_1
*I *1584:Y O *D sg13cmos5l_inv_1
*CAP
1 *1586:A 0.000121724
2 *1584:Y 0.000121724
3 *1586:A *1587:A 0
4 *1586:A *1588:A 0
5 *1586:A *2539:A 0
6 *1576:A *1586:A 0
7 *1584:A *1586:A 1.54449e-05
*RES
1 *1584:Y *1586:A 41.3802 
*END

*D_NET *82 0.000387394
*CONN
*I *1587:A I *D sg13cmos5l_inv_1
*I *1586:Y O *D sg13cmos5l_inv_1
*CAP
1 *1587:A 0.000193697
2 *1586:Y 0.000193697
3 *1587:A *2539:A 0
4 *1587:A *83:8 0
5 *1584:A *1587:A 0
6 *1586:A *1587:A 0
*RES
1 *1586:Y *1587:A 41.9982 
*END

*D_NET *83 0.0013571
*CONN
*I *1555:A I *D sg13cmos5l_buf_1
*I *1588:A I *D sg13cmos5l_inv_1
*I *1587:Y O *D sg13cmos5l_inv_1
*CAP
1 *1555:A 0
2 *1588:A 0.000368016
3 *1587:Y 0.000205731
4 *83:8 0.000573747
5 *1588:A *2506:A 0
6 *1588:A *2517:A 0
7 *1588:A *2528:A 0.000209605
8 *1588:A *2539:A 0
9 *1588:A *2550:A 0
10 *83:8 *2528:A 0
11 *83:8 *2539:A 0
12 *1586:A *1588:A 0
13 *1587:A *83:8 0
*RES
1 *1587:Y *83:8 22.2454 
2 *83:8 *1588:A 23.8419 
3 *83:8 *1555:A 20 
*END

*D_NET *84 0.00117521
*CONN
*I *1589:A I *D sg13cmos5l_inv_1
*I *1588:Y O *D sg13cmos5l_inv_1
*CAP
1 *1589:A 0.00018557
2 *1588:Y 0.000259303
3 *84:12 0.000444873
4 *1589:A *2384:A 0
5 *1589:A *2517:A 0
6 *84:12 *2350:A 0
7 *84:12 *2550:A 0.000209835
8 *84:12 *1066:10 7.56299e-05
9 *1574:A *84:12 0
*RES
1 *1588:Y *84:12 43.0282 
2 *84:12 *1589:A 41.6171 
*END

*D_NET *85 0.000126468
*CONN
*I *1590:A I *D sg13cmos5l_inv_1
*I *1589:Y O *D sg13cmos5l_inv_1
*CAP
1 *1590:A 6.3234e-05
2 *1589:Y 6.3234e-05
3 *1574:A *1590:A 0
*RES
1 *1589:Y *1590:A 40.5974 
*END

*D_NET *86 0.00580484
*CONN
*I *1530:A3 I *D sg13cmos5l_mux4_1
*I *1591:A I *D sg13cmos5l_inv_1
*I *1590:Y O *D sg13cmos5l_inv_1
*CAP
1 *1530:A3 6.29336e-05
2 *1591:A 0.000859489
3 *1590:Y 0.000602677
4 *86:8 0.0015251
5 *1591:A *1530:A2 0.000288502
6 *1591:A *1707:A 0
7 *1591:A *1837:A 0
8 *1591:A *202:8 0
9 *1591:A *224:8 0.000340374
10 *1591:A *331:6 0
11 *1591:A *1082:48 0.000878035
12 *1591:A *1088:14 0
13 *86:8 *1530:A2 0.00108772
14 *86:8 *889:8 0.000160013
15 *86:8 *933:8 0
*RES
1 *1590:Y *86:8 46.5302 
2 *86:8 *1591:A 49.3474 
3 *86:8 *1530:A3 40.5356 
*END

*D_NET *87 0.000955752
*CONN
*I *1592:A I *D sg13cmos5l_inv_1
*I *1591:Y O *D sg13cmos5l_inv_1
*CAP
1 *1592:A 5.76345e-05
2 *1591:Y 0.000420242
3 *87:8 0.000477876
4 *87:8 *1082:48 0
*RES
1 *1591:Y *87:8 43.0694 
2 *87:8 *1592:A 40.5356 
*END

*D_NET *88 0.000132506
*CONN
*I *1593:A I *D sg13cmos5l_inv_1
*I *1592:Y O *D sg13cmos5l_inv_1
*CAP
1 *1593:A 6.62532e-05
2 *1592:Y 6.62532e-05
*RES
1 *1592:Y *1593:A 40.5974 
*END

*D_NET *89 0.000413124
*CONN
*I *1594:A I *D sg13cmos5l_inv_1
*I *1593:Y O *D sg13cmos5l_inv_1
*CAP
1 *1594:A 5.519e-05
2 *1593:Y 0.000151372
3 *89:8 0.000206562
4 *89:8 *1082:48 0
5 *55:20 *1594:A 0
*RES
1 *1593:Y *89:8 41.0918 
2 *89:8 *1594:A 40.5356 
*END

*D_NET *90 0.000112035
*CONN
*I *1595:A I *D sg13cmos5l_inv_1
*I *1594:Y O *D sg13cmos5l_inv_1
*CAP
1 *1595:A 5.60176e-05
2 *1594:Y 5.60176e-05
3 *1535:A1 *1595:A 0
*RES
1 *1594:Y *1595:A 40.5974 
*END

*D_NET *91 0.000613087
*CONN
*I *1596:A I *D sg13cmos5l_inv_1
*I *1585:Y O *D sg13cmos5l_inv_1
*CAP
1 *1596:A 0.000234507
2 *1585:Y 0.000234507
3 *1596:A *1607:A 0
4 *1596:A *1618:A 0
5 *1596:A *1841:A 0
6 *1596:A *1895:A 0
7 *1596:A *2573:A 0
8 *1585:A *1596:A 0.000144073
*RES
1 *1585:Y *1596:A 42.8016 
*END

*D_NET *92 0.000583702
*CONN
*I *1597:A I *D sg13cmos5l_inv_1
*I *1595:Y O *D sg13cmos5l_inv_1
*CAP
1 *1597:A 0.000203497
2 *1595:Y 0.000203497
3 *1597:A *1535:S 0
4 *1597:A *1730:A 0
5 *1597:A *1076:32 0
6 *1535:A1 *1597:A 0
7 *55:20 *1597:A 0.000176707
*RES
1 *1595:Y *1597:A 42.2145 
*END

*D_NET *93 0.00069945
*CONN
*I *1598:A I *D sg13cmos5l_inv_1
*I *1597:Y O *D sg13cmos5l_inv_1
*CAP
1 *1598:A 3.03288e-05
2 *1597:Y 0.000231401
3 *93:8 0.00026173
4 *1598:A *273:18 4.77425e-05
5 *93:8 *229:10 0
6 *93:8 *231:8 0.000128248
7 *93:8 *1078:39 0
8 *93:8 *1082:48 0
*RES
1 *1597:Y *93:8 42.575 
2 *93:8 *1598:A 40.3193 
*END

*D_NET *94 0.000107826
*CONN
*I *1599:A I *D sg13cmos5l_inv_1
*I *1598:Y O *D sg13cmos5l_inv_1
*CAP
1 *1599:A 5.39128e-05
2 *1598:Y 5.39128e-05
3 *1599:A *1678:A 0
4 *1599:A *174:10 0
*RES
1 *1598:Y *1599:A 40.5974 
*END

*D_NET *95 0.0020269
*CONN
*I *1600:A I *D sg13cmos5l_inv_1
*I *1599:Y O *D sg13cmos5l_inv_1
*CAP
1 *1600:A 3.25653e-05
2 *1599:Y 0.000391505
3 *95:8 0.000424071
4 *1600:A *267:10 4.77425e-05
5 *1600:A *272:30 0
6 *95:8 *165:8 0
7 *95:8 *166:8 0
8 *95:8 *167:8 0
9 *95:8 *231:8 0.000129163
10 *95:8 *236:8 0.000713675
11 *95:8 *256:10 0
12 *95:8 *273:10 0
13 *95:8 *1083:39 0.000288173
*RES
1 *1599:Y *95:8 46.283 
2 *95:8 *1600:A 40.3193 
*END

*D_NET *96 0.000394977
*CONN
*I *1601:A I *D sg13cmos5l_inv_1
*I *1600:Y O *D sg13cmos5l_inv_1
*CAP
1 *1601:A 0.00018206
2 *1600:Y 0.00018206
3 *1601:A *1771:A 1.54556e-05
4 *1601:A *255:14 0
5 *1601:A *267:10 0
6 *1601:A *272:30 1.54008e-05
*RES
1 *1600:Y *1601:A 41.751 
*END

*D_NET *97 0.000120897
*CONN
*I *1602:A I *D sg13cmos5l_inv_1
*I *1601:Y O *D sg13cmos5l_inv_1
*CAP
1 *1602:A 0
2 *1601:Y 6.04484e-05
3 *97:8 6.04484e-05
4 *97:8 *256:10 0
5 *97:8 *1083:39 0
*RES
1 *1601:Y *97:8 40.5974 
2 *97:8 *1602:A 40 
*END

*D_NET *98 9.45957e-05
*CONN
*I *1603:A I *D sg13cmos5l_inv_1
*I *1602:Y O *D sg13cmos5l_inv_1
*CAP
1 *1603:A 4.72978e-05
2 *1602:Y 4.72978e-05
3 *1603:A *1742:A 0
4 *1603:A *1743:A 0
*RES
1 *1602:Y *1603:A 40.5974 
*END

*D_NET *99 0.000119634
*CONN
*I *1604:A I *D sg13cmos5l_inv_1
*I *1603:Y O *D sg13cmos5l_inv_1
*CAP
1 *1604:A 0
2 *1603:Y 5.98168e-05
3 *99:8 5.98168e-05
4 *99:8 *1551:A 0
5 *99:8 *256:10 0
6 *99:8 *1080:10 0
*RES
1 *1603:Y *99:8 40.5974 
2 *99:8 *1604:A 40 
*END

*D_NET *100 0.00016184
*CONN
*I *1605:A I *D sg13cmos5l_inv_1
*I *1604:Y O *D sg13cmos5l_inv_1
*CAP
1 *1605:A 8.09199e-05
2 *1604:Y 8.09199e-05
3 *1605:A *1538:A0 0
4 *1605:A *1744:A 0
5 *1605:A *1080:31 0
*RES
1 *1604:Y *1605:A 40.9167 
*END

*D_NET *101 0.000392416
*CONN
*I *1606:A I *D sg13cmos5l_inv_1
*I *1605:Y O *D sg13cmos5l_inv_1
*CAP
1 *1606:A 0
2 *1605:Y 0.000196208
3 *101:8 0.000196208
4 *101:8 *103:8 0
5 *101:8 *154:8 0
6 *101:8 *240:8 0
*RES
1 *1605:Y *101:8 41.8334 
2 *101:8 *1606:A 40 
*END

*D_NET *102 0.000295844
*CONN
*I *1607:A I *D sg13cmos5l_inv_1
*I *1596:Y O *D sg13cmos5l_inv_1
*CAP
1 *1607:A 0.000147922
2 *1596:Y 0.000147922
3 *1596:A *1607:A 0
*RES
1 *1596:Y *1607:A 41.3802 
*END

*D_NET *103 0.000988203
*CONN
*I *1608:A I *D sg13cmos5l_inv_1
*I *1606:Y O *D sg13cmos5l_inv_1
*CAP
1 *1608:A 0.000111912
2 *1606:Y 0.000172552
3 *103:8 0.000284465
4 *1608:A *1538:A0 0.000161801
5 *1608:A *104:14 4.78359e-05
6 *1608:A *1081:38 0.000209637
7 *103:8 *240:8 0
8 *101:8 *103:8 0
*RES
1 *1606:Y *103:8 41.5862 
2 *103:8 *1608:A 41.4008 
*END

*D_NET *104 0.00284555
*CONN
*I *1538:A0 I *D sg13cmos5l_mux4_1
*I *1609:A I *D sg13cmos5l_inv_1
*I *1608:Y O *D sg13cmos5l_inv_1
*CAP
1 *1538:A0 0.000823789
2 *1609:A 0
3 *1608:Y 0
4 *104:14 0.000249559
5 *104:4 0.00107335
6 *1538:A0 *1659:A 0
7 *1538:A0 *1661:A 8.00842e-05
8 *1538:A0 *1760:A 0
9 *1538:A0 *121:27 0
10 *1538:A0 *156:10 0
11 *1538:A0 *256:10 0
12 *1538:A0 *1080:31 0
13 *1538:A0 *1081:38 0
14 *1538:A0 *1081:53 1.54008e-05
15 *104:14 *240:8 0.000393736
16 *104:14 *1083:8 0
17 *1605:A *1538:A0 0
18 *1608:A *1538:A0 0.000161801
19 *1608:A *104:14 4.78359e-05
*RES
1 *1608:Y *104:4 20 
2 *104:4 *104:14 42.6883 
3 *104:14 *1609:A 20 
4 *104:4 *1538:A0 28.1267 
*END

*D_NET *105 0.000907634
*CONN
*I *1610:A I *D sg13cmos5l_inv_1
*I *1609:Y O *D sg13cmos5l_inv_1
*CAP
1 *1610:A 0.00013418
2 *1609:Y 0.000175758
3 *105:10 0.000309938
4 *1610:A *1611:A 0
5 *1610:A *1612:A 0
6 *1610:A *1621:A 0
7 *1610:A *1082:25 0
8 *105:10 *149:14 0
9 *105:10 *240:8 0.000287758
10 *105:10 *1083:8 0
*RES
1 *1609:Y *105:10 42.3999 
2 *105:10 *1610:A 40.5736 
*END

*D_NET *106 0.000179327
*CONN
*I *1611:A I *D sg13cmos5l_inv_1
*I *1610:Y O *D sg13cmos5l_inv_1
*CAP
1 *1611:A 8.96637e-05
2 *1610:Y 8.96637e-05
3 *1611:A *1612:A 0
4 *1611:A *1655:A 0
5 *1611:A *1082:25 0
6 *1610:A *1611:A 0
*RES
1 *1610:Y *1611:A 40.9167 
*END

*D_NET *107 0.000356668
*CONN
*I *1612:A I *D sg13cmos5l_inv_1
*I *1611:Y O *D sg13cmos5l_inv_1
*CAP
1 *1612:A 0.000170158
2 *1611:Y 0.000170158
3 *1612:A *1613:A 1.63516e-05
4 *1612:A *1621:A 0
5 *1612:A *1082:25 0
6 *1610:A *1612:A 0
7 *1611:A *1612:A 0
*RES
1 *1611:Y *1612:A 41.854 
*END

*D_NET *108 0.000177403
*CONN
*I *1613:A I *D sg13cmos5l_inv_1
*I *1612:Y O *D sg13cmos5l_inv_1
*CAP
1 *1613:A 8.05258e-05
2 *1612:Y 8.05258e-05
3 *1613:A *1614:A 0
4 *1613:A *1620:A 0
5 *1613:A *1082:25 0
6 *1612:A *1613:A 1.63516e-05
*RES
1 *1612:Y *1613:A 40.9167 
*END

*D_NET *109 0.00101739
*CONN
*I *1614:A I *D sg13cmos5l_inv_1
*I *1613:Y O *D sg13cmos5l_inv_1
*CAP
1 *1614:A 0.000428961
2 *1613:Y 0.000428961
3 *1614:A *1553:A 0
4 *1614:A *1615:A 1.54556e-05
5 *1614:A *1617:A 0
6 *1614:A *1619:A 0
7 *1614:A *1620:A 0
8 *1614:A *1621:A 0
9 *1614:A *1749:A 0
10 *1614:A *1752:A 0
11 *1614:A *242:16 0
12 *1614:A *245:12 0.000144008
13 *1614:A *264:12 0
14 *1613:A *1614:A 0
15 *2576:A *1614:A 0
*RES
1 *1613:Y *1614:A 43.9343 
*END

*D_NET *110 0.000344478
*CONN
*I *1615:A I *D sg13cmos5l_inv_1
*I *1614:Y O *D sg13cmos5l_inv_1
*CAP
1 *1615:A 0.000156783
2 *1614:Y 0.000156783
3 *1615:A *1749:A 0
4 *1615:A *1750:A 0
5 *1615:A *1755:A 1.54556e-05
6 *1615:A *248:12 0
7 *1614:A *1615:A 1.54556e-05
*RES
1 *1614:Y *1615:A 41.6274 
*END

*D_NET *111 0.00012456
*CONN
*I *1616:A I *D sg13cmos5l_inv_1
*I *1615:Y O *D sg13cmos5l_inv_1
*CAP
1 *1616:A 6.22801e-05
2 *1615:Y 6.22801e-05
3 *1616:A *1619:A 0
4 *1616:A *1755:A 0
*RES
1 *1615:Y *1616:A 40.5974 
*END

*D_NET *112 0.000354878
*CONN
*I *1617:A I *D sg13cmos5l_inv_1
*I *1616:Y O *D sg13cmos5l_inv_1
*CAP
1 *1617:A 0.000177439
2 *1616:Y 0.000177439
3 *1617:A *1619:A 0
4 *1617:A *1755:A 0
5 *1617:A *264:12 0
6 *1614:A *1617:A 0
*RES
1 *1616:Y *1617:A 41.751 
*END

*D_NET *113 0.000121047
*CONN
*I *1618:A I *D sg13cmos5l_inv_1
*I *1607:Y O *D sg13cmos5l_inv_1
*CAP
1 *1618:A 6.05236e-05
2 *1607:Y 6.05236e-05
3 *1596:A *1618:A 0
*RES
1 *1607:Y *1618:A 40.5974 
*END

*D_NET *114 0.000239029
*CONN
*I *1619:A I *D sg13cmos5l_inv_1
*I *1617:Y O *D sg13cmos5l_inv_1
*CAP
1 *1619:A 0.000119514
2 *1617:Y 0.000119514
3 *1619:A *1621:A 0
4 *1619:A *264:12 0
5 *1614:A *1619:A 0
6 *1616:A *1619:A 0
7 *1617:A *1619:A 0
*RES
1 *1617:Y *1619:A 41.2922 
*END

*D_NET *115 0.00031526
*CONN
*I *1620:A I *D sg13cmos5l_inv_1
*I *1619:Y O *D sg13cmos5l_inv_1
*CAP
1 *1620:A 0.00015763
2 *1619:Y 0.00015763
3 *1620:A *264:12 0
4 *1613:A *1620:A 0
5 *1614:A *1620:A 0
6 *2576:A *1620:A 0
*RES
1 *1619:Y *1620:A 41.6171 
*END

*D_NET *116 0.00044494
*CONN
*I *1621:A I *D sg13cmos5l_inv_1
*I *1620:Y O *D sg13cmos5l_inv_1
*CAP
1 *1621:A 0.00022247
2 *1620:Y 0.00022247
3 *1621:A *1623:A 0
4 *1621:A *1624:A 0
5 *1621:A *264:12 0
6 *1610:A *1621:A 0
7 *1612:A *1621:A 0
8 *1614:A *1621:A 0
9 *1619:A *1621:A 0
*RES
1 *1620:Y *1621:A 42.5647 
*END

*D_NET *117 0.000273739
*CONN
*I *1622:A I *D sg13cmos5l_inv_1
*I *1621:Y O *D sg13cmos5l_inv_1
*CAP
1 *1622:A 0
2 *1621:Y 0.00013687
3 *117:8 0.00013687
4 *117:8 *1083:8 0
*RES
1 *1621:Y *117:8 41.5862 
2 *117:8 *1622:A 40 
*END

*D_NET *118 0.000234144
*CONN
*I *1623:A I *D sg13cmos5l_inv_1
*I *1622:Y O *D sg13cmos5l_inv_1
*CAP
1 *1623:A 0.000117072
2 *1622:Y 0.000117072
3 *1623:A *1624:A 0
4 *1623:A *264:12 0
5 *1621:A *1623:A 0
*RES
1 *1622:Y *1623:A 41.3802 
*END

*D_NET *119 0.000385173
*CONN
*I *1624:A I *D sg13cmos5l_inv_1
*I *1623:Y O *D sg13cmos5l_inv_1
*CAP
1 *1624:A 0.000192587
2 *1623:Y 0.000192587
3 *1624:A *1625:A 0
4 *1624:A *1655:A 0
5 *1624:A *264:12 0
6 *1621:A *1624:A 0
7 *1623:A *1624:A 0
*RES
1 *1623:Y *1624:A 42.2145 
*END

*D_NET *120 0.000237749
*CONN
*I *1625:A I *D sg13cmos5l_inv_1
*I *1624:Y O *D sg13cmos5l_inv_1
*CAP
1 *1625:A 0.000111147
2 *1624:Y 0.000111147
3 *1625:A *1630:A 0
4 *1625:A *1655:A 0
5 *1625:A *1656:A 0
6 *1625:A *121:10 1.54556e-05
7 *1625:A *264:12 0
8 *1624:A *1625:A 0
*RES
1 *1624:Y *1625:A 41.3802 
*END

*D_NET *121 0.00224994
*CONN
*I *1538:A1 I *D sg13cmos5l_mux4_1
*I *1626:A I *D sg13cmos5l_inv_1
*I *1625:Y O *D sg13cmos5l_inv_1
*CAP
1 *1538:A1 0
2 *1626:A 0
3 *1625:Y 0.000290454
4 *121:27 0.00082679
5 *121:10 0.00111724
6 *121:10 *1627:A 0
7 *121:10 *1628:A 0
8 *121:10 *1652:A 0
9 *121:10 *1656:A 0
10 *121:10 *264:12 0
11 *121:10 *1082:25 0
12 *121:27 *1630:A 0
13 *121:27 *1652:A 0
14 *121:27 *139:20 0
15 *121:27 *264:20 0
16 *121:27 *1080:31 0
17 *121:27 *1084:12 0
18 *121:27 *1084:30 0
19 *1538:A0 *121:27 0
20 *1625:A *121:10 1.54556e-05
*RES
1 *1625:Y *121:10 23.09 
2 *121:10 *1626:A 20 
3 *121:10 *121:27 48.0443 
4 *121:27 *1538:A1 20 
*END

*D_NET *122 0.00012456
*CONN
*I *1627:A I *D sg13cmos5l_inv_1
*I *1626:Y O *D sg13cmos5l_inv_1
*CAP
1 *1627:A 6.22801e-05
2 *1626:Y 6.22801e-05
3 *1627:A *1652:A 0
4 *121:10 *1627:A 0
*RES
1 *1626:Y *1627:A 40.5974 
*END

*D_NET *123 0.00012456
*CONN
*I *1628:A I *D sg13cmos5l_inv_1
*I *1627:Y O *D sg13cmos5l_inv_1
*CAP
1 *1628:A 6.22801e-05
2 *1627:Y 6.22801e-05
3 *121:10 *1628:A 0
*RES
1 *1627:Y *1628:A 40.5974 
*END

*D_NET *124 0.000131393
*CONN
*I *1629:A I *D sg13cmos5l_inv_1
*I *1618:Y O *D sg13cmos5l_inv_1
*CAP
1 *1629:A 6.56967e-05
2 *1618:Y 6.56967e-05
*RES
1 *1618:Y *1629:A 40.5974 
*END

*D_NET *125 0.000392135
*CONN
*I *1630:A I *D sg13cmos5l_inv_1
*I *1628:Y O *D sg13cmos5l_inv_1
*CAP
1 *1630:A 0.000196068
2 *1628:Y 0.000196068
3 *1630:A *1631:A 0
4 *1625:A *1630:A 0
5 *121:27 *1630:A 0
*RES
1 *1628:Y *1630:A 42.2145 
*END

*D_NET *126 0.000261258
*CONN
*I *1631:A I *D sg13cmos5l_inv_1
*I *1630:Y O *D sg13cmos5l_inv_1
*CAP
1 *1631:A 0.000122901
2 *1630:Y 0.000122901
3 *1631:A *1633:A 0
4 *1631:A *1634:A 0
5 *1631:A *127:10 1.54556e-05
6 *1631:A *144:10 0
7 *1630:A *1631:A 0
*RES
1 *1630:Y *1631:A 41.3802 
*END

*D_NET *127 0.000629947
*CONN
*I *1632:A I *D sg13cmos5l_inv_1
*I *1631:Y O *D sg13cmos5l_inv_1
*CAP
1 *1632:A 0
2 *1631:Y 0.000234775
3 *127:10 0.000234775
4 *127:10 *1633:A 0
5 *127:10 *1648:A 0
6 *127:10 *144:10 0.000144942
7 *1631:A *127:10 1.54556e-05
*RES
1 *1631:Y *127:10 42.4926 
2 *127:10 *1632:A 40 
*END

*D_NET *128 0.000264199
*CONN
*I *1633:A I *D sg13cmos5l_inv_1
*I *1632:Y O *D sg13cmos5l_inv_1
*CAP
1 *1633:A 0.0001321
2 *1632:Y 0.0001321
3 *1633:A *1634:A 0
4 *1631:A *1633:A 0
5 *127:10 *1633:A 0
*RES
1 *1632:Y *1633:A 41.3802 
*END

*D_NET *129 0.00046245
*CONN
*I *1634:A I *D sg13cmos5l_inv_1
*I *1633:Y O *D sg13cmos5l_inv_1
*CAP
1 *1634:A 0.000231225
2 *1633:Y 0.000231225
3 *1634:A *1635:A 0
4 *1634:A *1636:A 0
5 *1634:A *1643:A 0
6 *1634:A *139:10 0
7 *1631:A *1634:A 0
8 *1633:A *1634:A 0
*RES
1 *1633:Y *1634:A 42.884 
*END

*D_NET *130 0.000223265
*CONN
*I *1635:A I *D sg13cmos5l_inv_1
*I *1634:Y O *D sg13cmos5l_inv_1
*CAP
1 *1635:A 0.000111633
2 *1634:Y 0.000111633
3 *1635:A *1637:A 0
4 *1635:A *1641:A 0
5 *1635:A *1643:A 0
6 *1635:A *2559:A 0
7 *1634:A *1635:A 0
*RES
1 *1634:Y *1635:A 41.3802 
*END

*D_NET *131 9.45957e-05
*CONN
*I *1636:A I *D sg13cmos5l_inv_1
*I *1635:Y O *D sg13cmos5l_inv_1
*CAP
1 *1636:A 4.72978e-05
2 *1635:Y 4.72978e-05
3 *1636:A *1638:A 0
4 *1634:A *1636:A 0
*RES
1 *1635:Y *1636:A 40.5974 
*END

*D_NET *132 0.000270503
*CONN
*I *1637:A I *D sg13cmos5l_inv_1
*I *1636:Y O *D sg13cmos5l_inv_1
*CAP
1 *1637:A 0.000135252
2 *1636:Y 0.000135252
3 *1637:A *1638:A 0
4 *1637:A *1641:A 0
5 *1637:A *2558:A 0
6 *1635:A *1637:A 0
7 *2578:A *1637:A 0
8 *27:26 *1637:A 0
*RES
1 *1636:Y *1637:A 41.3128 
*END

*D_NET *133 0.000225883
*CONN
*I *1638:A I *D sg13cmos5l_inv_1
*I *1637:Y O *D sg13cmos5l_inv_1
*CAP
1 *1638:A 0.000112941
2 *1637:Y 0.000112941
3 *1638:A *2558:A 0
4 *1638:A *2562:A 0
5 *1636:A *1638:A 0
6 *1637:A *1638:A 0
7 *27:26 *1638:A 0
*RES
1 *1637:Y *1638:A 41.3802 
*END

*D_NET *134 9.45957e-05
*CONN
*I *1639:A I *D sg13cmos5l_inv_1
*I *1638:Y O *D sg13cmos5l_inv_1
*CAP
1 *1639:A 4.72978e-05
2 *1638:Y 4.72978e-05
3 *1639:A *1642:A 0
4 *1639:A *2562:A 0
*RES
1 *1638:Y *1639:A 40.5974 
*END

*D_NET *135 0.000433156
*CONN
*I *1640:A I *D sg13cmos5l_inv_1
*I *1629:Y O *D sg13cmos5l_inv_1
*CAP
1 *1640:A 0.000216578
2 *1629:Y 0.000216578
3 *1640:A *1662:A 0
4 *1640:A *1833:A 0
5 *1640:A *400:10 0
6 *1640:A *401:24 0
7 *1640:A *1088:14 0
*RES
1 *1629:Y *1640:A 42.2145 
*END

*D_NET *136 0.000421914
*CONN
*I *1641:A I *D sg13cmos5l_inv_1
*I *1639:Y O *D sg13cmos5l_inv_1
*CAP
1 *1641:A 0.000122258
2 *1639:Y 0.000122258
3 *1641:A *1642:A 0
4 *1641:A *1643:A 0
5 *1635:A *1641:A 0
6 *1637:A *1641:A 0
7 *27:26 *1641:A 0.000177399
*RES
1 *1639:Y *1641:A 41.4008 
*END

*D_NET *137 0.000274765
*CONN
*I *1642:A I *D sg13cmos5l_inv_1
*I *1641:Y O *D sg13cmos5l_inv_1
*CAP
1 *1642:A 0.000137382
2 *1641:Y 0.000137382
3 *1642:A *1643:A 0
4 *1639:A *1642:A 0
5 *1641:A *1642:A 0
*RES
1 *1641:Y *1642:A 41.3802 
*END

*D_NET *138 0.00053594
*CONN
*I *1643:A I *D sg13cmos5l_inv_1
*I *1642:Y O *D sg13cmos5l_inv_1
*CAP
1 *1643:A 0.000244014
2 *1642:Y 0.000244014
3 *1643:A *1645:A 0
4 *1643:A *1646:A 0
5 *1643:A *1647:A 0
6 *1643:A *139:10 4.79124e-05
7 *1634:A *1643:A 0
8 *1635:A *1643:A 0
9 *1641:A *1643:A 0
10 *1642:A *1643:A 0
*RES
1 *1642:Y *1643:A 42.8737 
*END

*D_NET *139 0.00216976
*CONN
*I *1644:A I *D sg13cmos5l_inv_1
*I *1538:A2 I *D sg13cmos5l_mux4_1
*I *1643:Y O *D sg13cmos5l_inv_1
*CAP
1 *1644:A 0
2 *1538:A2 0
3 *1643:Y 0.000287342
4 *139:20 0.000725742
5 *139:12 0.000725742
6 *139:10 0.000287342
7 *139:10 *1648:A 1.54556e-05
8 *139:10 *144:10 0
9 *139:20 *1647:A 0
10 *139:20 *1648:A 0
11 *139:20 *1081:53 0
12 *139:20 *1082:25 8.02269e-05
13 *139:20 *1082:33 0
14 *139:20 *1084:30 0
15 *1634:A *139:10 0
16 *1643:A *139:10 4.79124e-05
17 *27:32 *139:10 0
18 *121:27 *139:20 0
*RES
1 *1643:Y *139:10 43.4505 
2 *139:10 *139:12 20 
3 *139:12 *139:20 46.6332 
4 *139:20 *1538:A2 20 
5 *139:12 *1644:A 20 
*END

*D_NET *140 0.000112997
*CONN
*I *1645:A I *D sg13cmos5l_inv_1
*I *1644:Y O *D sg13cmos5l_inv_1
*CAP
1 *1645:A 5.64984e-05
2 *1644:Y 5.64984e-05
3 *1645:A *1647:A 0
4 *1645:A *1648:A 0
5 *1643:A *1645:A 0
*RES
1 *1644:Y *1645:A 40.5974 
*END

*D_NET *141 0.000125396
*CONN
*I *1646:A I *D sg13cmos5l_inv_1
*I *1645:Y O *D sg13cmos5l_inv_1
*CAP
1 *1646:A 6.2698e-05
2 *1645:Y 6.2698e-05
3 *1646:A *1647:A 0
4 *1643:A *1646:A 0
*RES
1 *1645:Y *1646:A 40.5974 
*END

*D_NET *142 0.000761288
*CONN
*I *1647:A I *D sg13cmos5l_inv_1
*I *1646:Y O *D sg13cmos5l_inv_1
*CAP
1 *1647:A 0.000308074
2 *1646:Y 0.000308074
3 *1647:A *1648:A 0.000145141
4 *1643:A *1647:A 0
5 *1645:A *1647:A 0
6 *1646:A *1647:A 0
7 *139:20 *1647:A 0
*RES
1 *1646:Y *1647:A 42.7398 
*END

*D_NET *143 0.00111556
*CONN
*I *1648:A I *D sg13cmos5l_inv_1
*I *1647:Y O *D sg13cmos5l_inv_1
*CAP
1 *1648:A 0.000439785
2 *1647:Y 0.000439785
3 *1648:A *1650:A 0
4 *1648:A *1652:A 7.53965e-05
5 *1648:A *144:10 0
6 *1648:A *1082:25 0
7 *1645:A *1648:A 0
8 *1647:A *1648:A 0.000145141
9 *127:10 *1648:A 0
10 *139:10 *1648:A 1.54556e-05
11 *139:20 *1648:A 0
*RES
1 *1647:Y *1648:A 44.6556 
*END

*D_NET *144 0.000648445
*CONN
*I *1649:A I *D sg13cmos5l_inv_1
*I *1648:Y O *D sg13cmos5l_inv_1
*CAP
1 *1649:A 0
2 *1648:Y 0.000251751
3 *144:10 0.000251751
4 *144:10 *1650:A 0
5 *144:10 *264:20 0
6 *1631:A *144:10 0
7 *1648:A *144:10 0
8 *127:10 *144:10 0.000144942
9 *139:10 *144:10 0
*RES
1 *1648:Y *144:10 42.7398 
2 *144:10 *1649:A 40 
*END

*D_NET *145 0.000286037
*CONN
*I *1650:A I *D sg13cmos5l_inv_1
*I *1649:Y O *D sg13cmos5l_inv_1
*CAP
1 *1650:A 0.000143018
2 *1649:Y 0.000143018
3 *1650:A *1652:A 0
4 *1648:A *1650:A 0
5 *144:10 *1650:A 0
*RES
1 *1649:Y *1650:A 41.3802 
*END

*D_NET *146 0.000381603
*CONN
*I *1651:A I *D sg13cmos5l_inv_1
*I *1640:Y O *D sg13cmos5l_inv_1
*CAP
1 *1651:A 0.000190801
2 *1640:Y 0.000190801
3 *1651:A *1662:A 0
4 *1651:A *1718:A 0
5 *1651:A *1088:14 0
*RES
1 *1640:Y *1651:A 42.1218 
*END

*D_NET *147 0.000682896
*CONN
*I *1652:A I *D sg13cmos5l_inv_1
*I *1650:Y O *D sg13cmos5l_inv_1
*CAP
1 *1652:A 0.00030375
2 *1650:Y 0.00030375
3 *1652:A *1082:25 0
4 *1627:A *1652:A 0
5 *1648:A *1652:A 7.53965e-05
6 *1650:A *1652:A 0
7 *121:10 *1652:A 0
8 *121:27 *1652:A 0
*RES
1 *1650:Y *1652:A 43.2033 
*END

*D_NET *148 0.000615826
*CONN
*I *1653:A I *D sg13cmos5l_inv_1
*I *1652:Y O *D sg13cmos5l_inv_1
*CAP
1 *1653:A 0
2 *1652:Y 0.000137267
3 *148:8 0.000137267
4 *148:8 *264:20 0
5 *148:8 *1084:12 0.000341292
*RES
1 *1652:Y *148:8 41.5862 
2 *148:8 *1653:A 40 
*END

*D_NET *149 0.00133214
*CONN
*I *1654:A I *D sg13cmos5l_inv_1
*I *1653:Y O *D sg13cmos5l_inv_1
*CAP
1 *1654:A 0
2 *1653:Y 0.000593599
3 *149:14 0.000593599
4 *149:14 *153:8 0
5 *149:14 *265:12 0.000144942
6 *105:10 *149:14 0
*RES
1 *1653:Y *149:14 45.356 
2 *149:14 *1654:A 40 
*END

*D_NET *150 0.000536552
*CONN
*I *1655:A I *D sg13cmos5l_inv_1
*I *1654:Y O *D sg13cmos5l_inv_1
*CAP
1 *1655:A 0.000268276
2 *1654:Y 0.000268276
3 *1655:A *1656:A 0
4 *1655:A *1657:A 0
5 *1655:A *1746:A 0
6 *1655:A *1082:25 0
7 *1611:A *1655:A 0
8 *1624:A *1655:A 0
9 *1625:A *1655:A 0
*RES
1 *1654:Y *1655:A 42.9561 
*END

*D_NET *151 0.000230501
*CONN
*I *1656:A I *D sg13cmos5l_inv_1
*I *1655:Y O *D sg13cmos5l_inv_1
*CAP
1 *1656:A 0.000115251
2 *1655:Y 0.000115251
3 *1656:A *1082:25 0
4 *1625:A *1656:A 0
5 *1655:A *1656:A 0
6 *121:10 *1656:A 0
*RES
1 *1655:Y *1656:A 41.3802 
*END

*D_NET *152 9.45957e-05
*CONN
*I *1657:A I *D sg13cmos5l_inv_1
*I *1656:Y O *D sg13cmos5l_inv_1
*CAP
1 *1657:A 4.72978e-05
2 *1656:Y 4.72978e-05
3 *1655:A *1657:A 0
*RES
1 *1656:Y *1657:A 40.5974 
*END

*D_NET *153 0.00029593
*CONN
*I *1658:A I *D sg13cmos5l_inv_1
*I *1657:Y O *D sg13cmos5l_inv_1
*CAP
1 *1658:A 0
2 *1657:Y 0.000147965
3 *153:8 0.000147965
4 *153:8 *1084:12 0
5 *149:14 *153:8 0
*RES
1 *1657:Y *153:8 41.5862 
2 *153:8 *1658:A 40 
*END

*D_NET *154 0.000412513
*CONN
*I *1659:A I *D sg13cmos5l_inv_1
*I *1658:Y O *D sg13cmos5l_inv_1
*CAP
1 *1659:A 3.23749e-05
2 *1658:Y 0.000149972
3 *154:8 0.000182347
4 *1659:A *1081:38 4.78195e-05
5 *154:8 *265:12 0
6 *1538:A0 *1659:A 0
7 *101:8 *154:8 0
*RES
1 *1658:Y *154:8 41.339 
2 *154:8 *1659:A 40.3193 
*END

*D_NET *155 0.00020868
*CONN
*I *1660:A I *D sg13cmos5l_inv_1
*I *1659:Y O *D sg13cmos5l_inv_1
*CAP
1 *1660:A 0
2 *1659:Y 4.02163e-05
3 *155:8 4.02163e-05
4 *155:8 *265:12 0.000128248
*RES
1 *1659:Y *155:8 40.5974 
2 *155:8 *1660:A 40 
*END

*D_NET *156 0.00166176
*CONN
*I *1538:A3 I *D sg13cmos5l_mux4_1
*I *1661:A I *D sg13cmos5l_inv_1
*I *1660:Y O *D sg13cmos5l_inv_1
*CAP
1 *1538:A3 0.000440138
2 *1661:A 0.000159049
3 *1660:Y 0.00019165
4 *156:10 0.000790837
5 *1538:A3 *1896:A 0
6 *1538:A3 *160:8 0
7 *1538:A3 *265:12 0
8 *1538:A3 *1080:31 0
9 *1538:A3 *1084:30 0
10 *1661:A *158:8 0
11 *1661:A *265:12 0
12 *1661:A *1081:38 0
13 *1661:A *1084:30 0
14 *156:10 *1080:31 0
15 *1538:A0 *1661:A 8.00842e-05
16 *1538:A0 *156:10 0
*RES
1 *1660:Y *156:10 41.9364 
2 *156:10 *1661:A 41.3802 
3 *156:10 *1538:A3 43.914 
*END

*D_NET *157 0.000243761
*CONN
*I *1662:A I *D sg13cmos5l_inv_1
*I *1651:Y O *D sg13cmos5l_inv_1
*CAP
1 *1662:A 0.000121881
2 *1651:Y 0.000121881
3 *1662:A *1718:A 0
4 *1662:A *1088:14 0
5 *1640:A *1662:A 0
6 *1651:A *1662:A 0
*RES
1 *1651:Y *1662:A 41.3802 
*END

*D_NET *158 0.000180075
*CONN
*I *1663:A I *D sg13cmos5l_inv_1
*I *1661:Y O *D sg13cmos5l_inv_1
*CAP
1 *1663:A 0
2 *1661:Y 9.00373e-05
3 *158:8 9.00373e-05
4 *158:8 *265:12 0
5 *1661:A *158:8 0
*RES
1 *1661:Y *158:8 40.8446 
2 *158:8 *1663:A 40 
*END

*D_NET *159 0.000176745
*CONN
*I *1664:A I *D sg13cmos5l_inv_1
*I *1663:Y O *D sg13cmos5l_inv_1
*CAP
1 *1664:A 8.83723e-05
2 *1663:Y 8.83723e-05
3 *1664:A *1080:31 0
*RES
1 *1663:Y *1664:A 40.9167 
*END

*D_NET *160 0.000136005
*CONN
*I *1665:A I *D sg13cmos5l_inv_1
*I *1664:Y O *D sg13cmos5l_inv_1
*CAP
1 *1665:A 0
2 *1664:Y 6.80025e-05
3 *160:8 6.80025e-05
4 *160:8 *265:12 0
5 *1538:A3 *160:8 0
*RES
1 *1664:Y *160:8 40.5974 
2 *160:8 *1665:A 40 
*END

*D_NET *161 9.45957e-05
*CONN
*I *1666:A I *D sg13cmos5l_inv_1
*I *1665:Y O *D sg13cmos5l_inv_1
*CAP
1 *1666:A 4.72978e-05
2 *1665:Y 4.72978e-05
*RES
1 *1665:Y *1666:A 40.5974 
*END

*D_NET *162 0.000457595
*CONN
*I *1667:A I *D sg13cmos5l_inv_1
*I *1666:Y O *D sg13cmos5l_inv_1
*CAP
1 *1667:A 0.000228798
2 *1666:Y 0.000228798
3 *1667:A *1770:A 0
4 *1667:A *1894:A 0
5 *1667:A *1896:A 0
6 *1667:A *272:30 0
7 *1667:A *1080:31 0
8 *1667:A *1083:39 0
*RES
1 *1666:Y *1667:A 42.4046 
*END

*D_NET *163 9.45957e-05
*CONN
*I *1668:A I *D sg13cmos5l_inv_1
*I *1667:Y O *D sg13cmos5l_inv_1
*CAP
1 *1668:A 4.72978e-05
2 *1667:Y 4.72978e-05
3 *1668:A *1894:A 0
*RES
1 *1667:Y *1668:A 40.5974 
*END

*D_NET *164 0.000579405
*CONN
*I *1669:A I *D sg13cmos5l_inv_1
*I *1668:Y O *D sg13cmos5l_inv_1
*CAP
1 *1669:A 0.00016903
2 *1668:Y 0.00016903
3 *1669:A *255:14 0
4 *1669:A *1083:39 0.000241346
*RES
1 *1668:Y *1669:A 41.6171 
*END

*D_NET *165 0.00016395
*CONN
*I *1670:A I *D sg13cmos5l_inv_1
*I *1669:Y O *D sg13cmos5l_inv_1
*CAP
1 *1670:A 0
2 *1669:Y 8.19751e-05
3 *165:8 8.19751e-05
4 *165:8 *256:10 0
5 *165:8 *1083:39 0
6 *95:8 *165:8 0
*RES
1 *1669:Y *165:8 40.8446 
2 *165:8 *1670:A 40 
*END

*D_NET *166 0.000373636
*CONN
*I *1671:A I *D sg13cmos5l_inv_1
*I *1670:Y O *D sg13cmos5l_inv_1
*CAP
1 *1671:A 4.99488e-05
2 *1670:Y 3.51111e-05
3 *166:8 8.50599e-05
4 *1671:A *1885:A 7.52693e-05
5 *1671:A *256:28 0
6 *166:8 *256:10 0.000128247
7 *95:8 *166:8 0
*RES
1 *1670:Y *166:8 40.5974 
2 *166:8 *1671:A 40.5021 
*END

*D_NET *167 0.000117753
*CONN
*I *1672:A I *D sg13cmos5l_inv_1
*I *1671:Y O *D sg13cmos5l_inv_1
*CAP
1 *1672:A 0
2 *1671:Y 5.88766e-05
3 *167:8 5.88766e-05
4 *167:8 *273:10 0
5 *95:8 *167:8 0
*RES
1 *1671:Y *167:8 40.5974 
2 *167:8 *1672:A 40 
*END

*D_NET *168 0.000916454
*CONN
*I *1673:A I *D sg13cmos5l_inv_1
*I *1662:Y O *D sg13cmos5l_inv_1
*CAP
1 *1673:A 0
2 *1662:Y 0.000287832
3 *168:8 0.000287832
4 *168:8 *1684:A 0.00034079
5 *168:8 *191:8 0
6 *168:8 *400:10 0
7 *168:8 *401:24 0
*RES
1 *1662:Y *168:8 43.3166 
2 *168:8 *1673:A 40 
*END

*D_NET *169 9.45957e-05
*CONN
*I *1674:A I *D sg13cmos5l_inv_1
*I *1672:Y O *D sg13cmos5l_inv_1
*CAP
1 *1674:A 4.72978e-05
2 *1672:Y 4.72978e-05
3 *1674:A *1739:A 0
*RES
1 *1672:Y *1674:A 40.5974 
*END

*D_NET *170 9.45957e-05
*CONN
*I *1675:A I *D sg13cmos5l_inv_1
*I *1674:Y O *D sg13cmos5l_inv_1
*CAP
1 *1675:A 4.72978e-05
2 *1674:Y 4.72978e-05
3 *1675:A *1738:A 0
4 *1675:A *1739:A 0
*RES
1 *1674:Y *1675:A 40.5974 
*END

*D_NET *171 9.45957e-05
*CONN
*I *1676:A I *D sg13cmos5l_inv_1
*I *1675:Y O *D sg13cmos5l_inv_1
*CAP
1 *1676:A 4.72978e-05
2 *1675:Y 4.72978e-05
3 *1676:A *1737:A 0
4 *1676:A *1738:A 0
*RES
1 *1675:Y *1676:A 40.5974 
*END

*D_NET *172 9.45957e-05
*CONN
*I *1677:A I *D sg13cmos5l_inv_1
*I *1676:Y O *D sg13cmos5l_inv_1
*CAP
1 *1677:A 4.72978e-05
2 *1676:Y 4.72978e-05
3 *1677:A *1737:A 0
*RES
1 *1676:Y *1677:A 40.5974 
*END

*D_NET *173 9.45957e-05
*CONN
*I *1678:A I *D sg13cmos5l_inv_1
*I *1677:Y O *D sg13cmos5l_inv_1
*CAP
1 *1678:A 4.72978e-05
2 *1677:Y 4.72978e-05
3 *1678:A *1681:A 0
4 *1599:A *1678:A 0
*RES
1 *1677:Y *1678:A 40.5974 
*END

*D_NET *174 0.0012571
*CONN
*I *1543:A0 I *D sg13cmos5l_mux4_1
*I *1679:A I *D sg13cmos5l_inv_1
*I *1678:Y O *D sg13cmos5l_inv_1
*CAP
1 *1543:A0 0.000127357
2 *1679:A 0.000161027
3 *1678:Y 0.000172366
4 *174:10 0.000460749
5 *1679:A *175:8 0.000288174
6 *1679:A *273:10 0
7 *174:10 *1681:A 0
8 *174:10 *273:18 4.74248e-05
9 *174:10 *1081:161 0
10 *1599:A *174:10 0
11 *55:20 *174:10 0
*RES
1 *1678:Y *174:10 41.751 
2 *174:10 *1679:A 42.1527 
3 *174:10 *1543:A0 41.6583 
*END

*D_NET *175 0.000499944
*CONN
*I *1680:A I *D sg13cmos5l_inv_1
*I *1679:Y O *D sg13cmos5l_inv_1
*CAP
1 *1680:A 0
2 *1679:Y 0.000105885
3 *175:8 0.000105885
4 *175:8 *181:8 0
5 *175:8 *273:10 0
6 *1679:A *175:8 0.000288174
*RES
1 *1679:Y *175:8 41.5862 
2 *175:8 *1680:A 40 
*END

*D_NET *176 0.000246326
*CONN
*I *1681:A I *D sg13cmos5l_inv_1
*I *1680:Y O *D sg13cmos5l_inv_1
*CAP
1 *1681:A 0.000123163
2 *1680:Y 0.000123163
3 *1681:A *1682:A 0
4 *1678:A *1681:A 0
5 *174:10 *1681:A 0
*RES
1 *1680:Y *1681:A 41.3802 
*END

*D_NET *177 0.000375709
*CONN
*I *1682:A I *D sg13cmos5l_inv_1
*I *1681:Y O *D sg13cmos5l_inv_1
*CAP
1 *1682:A 0.000187854
2 *1681:Y 0.000187854
3 *1682:A *1683:A 0
4 *1682:A *1687:A 0
5 *1682:A *1081:161 0
6 *1681:A *1682:A 0
*RES
1 *1681:Y *1682:A 41.9982 
*END

*D_NET *178 0.000226053
*CONN
*I *1683:A I *D sg13cmos5l_inv_1
*I *1682:Y O *D sg13cmos5l_inv_1
*CAP
1 *1683:A 0.000113026
2 *1682:Y 0.000113026
3 *1683:A *1690:A 0
4 *1683:A *1691:A 0
5 *1683:A *1081:161 0
6 *1682:A *1683:A 0
*RES
1 *1682:Y *1683:A 41.3802 
*END

*D_NET *179 0.00199394
*CONN
*I *1530:A0 I *D sg13cmos5l_mux4_1
*I *1684:A I *D sg13cmos5l_inv_1
*I *1673:Y O *D sg13cmos5l_inv_1
*CAP
1 *1530:A0 0.000324379
2 *1684:A 0.000118317
3 *1673:Y 0
4 *179:6 0.000442696
5 *1530:A0 *1529:S0 0.000256358
6 *1530:A0 *1862:A 0.000122871
7 *1530:A0 *401:24 0
8 *1684:A *191:8 0.00034079
9 *1684:A *401:24 0
10 *1684:A *1088:14 4.77425e-05
11 *168:8 *1684:A 0.00034079
*RES
1 *1673:Y *179:6 40 
2 *179:6 *1684:A 42.1527 
3 *179:6 *1530:A0 43.4505 
*END

*D_NET *180 0.000546577
*CONN
*I *1685:A I *D sg13cmos5l_inv_1
*I *1563:Y O *D sg13cmos5l_inv_1
*CAP
1 *1685:A 0
2 *1563:Y 0.000208707
3 *180:10 0.000208707
4 *180:10 *446:8 0.000129163
5 *24:12 *180:10 0
*RES
1 *1563:Y *180:10 42.3999 
2 *180:10 *1685:A 40 
*END

*D_NET *181 0.000245292
*CONN
*I *1686:A I *D sg13cmos5l_inv_1
*I *1683:Y O *D sg13cmos5l_inv_1
*CAP
1 *1686:A 0
2 *1683:Y 0.000122646
3 *181:8 0.000122646
4 *181:8 *1084:30 0
5 *175:8 *181:8 0
*RES
1 *1683:Y *181:8 41.339 
2 *181:8 *1686:A 40 
*END

*D_NET *182 0.000226511
*CONN
*I *1687:A I *D sg13cmos5l_inv_1
*I *1686:Y O *D sg13cmos5l_inv_1
*CAP
1 *1687:A 0.000113256
2 *1686:Y 0.000113256
3 *1687:A *381:10 0
4 *1682:A *1687:A 0
*RES
1 *1686:Y *1687:A 41.3802 
*END

*D_NET *183 0.000364726
*CONN
*I *1688:A I *D sg13cmos5l_inv_1
*I *1687:Y O *D sg13cmos5l_inv_1
*CAP
1 *1688:A 0.000182363
2 *1687:Y 0.000182363
3 *1688:A *1689:A 0
4 *1688:A *1693:A 0
5 *1688:A *1889:A 0
6 *1688:A *1081:149 0
7 *1688:A *1081:161 0
*RES
1 *1687:Y *1688:A 41.6171 
*END

*D_NET *184 0.000238153
*CONN
*I *1689:A I *D sg13cmos5l_inv_1
*I *1688:Y O *D sg13cmos5l_inv_1
*CAP
1 *1689:A 0.000119076
2 *1688:Y 0.000119076
3 *1689:A *1081:149 0
4 *1688:A *1689:A 0
*RES
1 *1688:Y *1689:A 41.3802 
*END

*D_NET *185 9.45957e-05
*CONN
*I *1690:A I *D sg13cmos5l_inv_1
*I *1689:Y O *D sg13cmos5l_inv_1
*CAP
1 *1690:A 4.72978e-05
2 *1689:Y 4.72978e-05
3 *1683:A *1690:A 0
*RES
1 *1689:Y *1690:A 40.5974 
*END

*D_NET *186 9.50856e-05
*CONN
*I *1691:A I *D sg13cmos5l_inv_1
*I *1690:Y O *D sg13cmos5l_inv_1
*CAP
1 *1691:A 4.75428e-05
2 *1690:Y 4.75428e-05
3 *1539:A0 *1691:A 0
4 *1683:A *1691:A 0
*RES
1 *1690:Y *1691:A 40.5974 
*END

*D_NET *187 0.000103114
*CONN
*I *1692:A I *D sg13cmos5l_inv_1
*I *1691:Y O *D sg13cmos5l_inv_1
*CAP
1 *1692:A 5.15568e-05
2 *1691:Y 5.15568e-05
3 *1692:A *1693:A 0
4 *1539:A0 *1692:A 0
*RES
1 *1691:Y *1692:A 40.5974 
*END

*D_NET *188 0.000463423
*CONN
*I *1693:A I *D sg13cmos5l_inv_1
*I *1692:Y O *D sg13cmos5l_inv_1
*CAP
1 *1693:A 0.000231711
2 *1692:Y 0.000231711
3 *1693:A *1694:A 0
4 *1693:A *192:10 0
5 *1693:A *1081:161 0
6 *1539:A0 *1693:A 0
7 *1688:A *1693:A 0
8 *1692:A *1693:A 0
9 *55:20 *1693:A 0
*RES
1 *1692:Y *1693:A 42.2145 
*END

*D_NET *189 0.000233737
*CONN
*I *1694:A I *D sg13cmos5l_inv_1
*I *1693:Y O *D sg13cmos5l_inv_1
*CAP
1 *1694:A 0.000116868
2 *1693:Y 0.000116868
3 *1694:A *1081:161 0
4 *1693:A *1694:A 0
5 *55:20 *1694:A 0
*RES
1 *1693:Y *1694:A 41.0106 
*END

*D_NET *190 9.45957e-05
*CONN
*I *1695:A I *D sg13cmos5l_inv_1
*I *1694:Y O *D sg13cmos5l_inv_1
*CAP
1 *1695:A 4.72978e-05
2 *1694:Y 4.72978e-05
*RES
1 *1694:Y *1695:A 40.5974 
*END

*D_NET *191 0.0010452
*CONN
*I *1696:A I *D sg13cmos5l_inv_1
*I *1684:Y O *D sg13cmos5l_inv_1
*CAP
1 *1696:A 0.000177972
2 *1684:Y 0.000174232
3 *191:8 0.000352204
4 *1684:A *191:8 0.00034079
5 *168:8 *191:8 0
*RES
1 *1684:Y *191:8 41.8334 
2 *191:8 *1696:A 41.4008 
*END

*D_NET *192 0.00106951
*CONN
*I *1697:A I *D sg13cmos5l_inv_1
*I *1695:Y O *D sg13cmos5l_inv_1
*CAP
1 *1697:A 9.54673e-05
2 *1695:Y 0.000153801
3 *192:10 0.000249268
4 *1697:A *193:10 7.98097e-05
5 *1697:A *443:12 0
6 *1697:A *1084:30 0.00017718
7 *192:10 *440:14 0
8 *192:10 *441:8 0
9 *192:10 *1084:30 0.00023464
10 *1544:S *1697:A 0
11 *1693:A *192:10 0
12 *55:20 *192:10 7.93426e-05
*RES
1 *1695:Y *192:10 41.8746 
2 *192:10 *1697:A 41.1845 
*END

*D_NET *193 0.001158
*CONN
*I *1698:A I *D sg13cmos5l_inv_1
*I *1543:A1 I *D sg13cmos5l_mux4_1
*I *1697:Y O *D sg13cmos5l_inv_1
*CAP
1 *1698:A 0
2 *1543:A1 0.000208971
3 *1697:Y 0.000249773
4 *193:10 0.000458744
5 *1543:A1 *1543:A3 0
6 *1543:A1 *1701:A 0
7 *1543:A1 *1076:32 0
8 *193:10 *1699:A 0
9 *193:10 *1700:A 0
10 *193:10 *443:12 0
11 *1697:A *193:10 7.98097e-05
12 *55:20 *1543:A1 0.00011279
13 *55:20 *193:10 4.79124e-05
*RES
1 *1697:Y *193:10 22.8119 
2 *193:10 *1543:A1 22.2866 
3 *193:10 *1698:A 20 
*END

*D_NET *194 0.00012456
*CONN
*I *1699:A I *D sg13cmos5l_inv_1
*I *1698:Y O *D sg13cmos5l_inv_1
*CAP
1 *1699:A 6.22801e-05
2 *1698:Y 6.22801e-05
3 *193:10 *1699:A 0
*RES
1 *1698:Y *1699:A 40.5974 
*END

*D_NET *195 9.9762e-05
*CONN
*I *1700:A I *D sg13cmos5l_inv_1
*I *1699:Y O *D sg13cmos5l_inv_1
*CAP
1 *1700:A 4.9881e-05
2 *1699:Y 4.9881e-05
3 *193:10 *1700:A 0
*RES
1 *1699:Y *1700:A 40.5974 
*END

*D_NET *196 0.000145734
*CONN
*I *1701:A I *D sg13cmos5l_inv_1
*I *1700:Y O *D sg13cmos5l_inv_1
*CAP
1 *1701:A 7.2867e-05
2 *1700:Y 7.2867e-05
3 *1701:A *1076:32 0
4 *1543:A1 *1701:A 0
5 *1544:S *1701:A 0
*RES
1 *1700:Y *1701:A 40.9579 
*END

*D_NET *197 0.000228672
*CONN
*I *1702:A I *D sg13cmos5l_inv_1
*I *1701:Y O *D sg13cmos5l_inv_1
*CAP
1 *1702:A 3.23749e-05
2 *1701:Y 5.80515e-05
3 *197:8 9.04264e-05
4 *1702:A *1076:32 4.78195e-05
5 *197:8 *1543:A2 0
6 *197:8 *443:12 0
7 *1544:A1 *1702:A 0
*RES
1 *1701:Y *197:8 40.5974 
2 *197:8 *1702:A 40.3193 
*END

*D_NET *198 0.00028752
*CONN
*I *1703:A I *D sg13cmos5l_inv_1
*I *1702:Y O *D sg13cmos5l_inv_1
*CAP
1 *1703:A 0
2 *1702:Y 0.00014376
3 *198:8 0.00014376
4 *198:8 *1543:A2 0
5 *198:8 *210:8 0
6 *198:8 *446:8 0
7 *24:12 *198:8 0
*RES
1 *1702:Y *198:8 41.5862 
2 *198:8 *1703:A 40 
*END

*D_NET *199 9.45957e-05
*CONN
*I *1704:A I *D sg13cmos5l_inv_1
*I *1703:Y O *D sg13cmos5l_inv_1
*CAP
1 *1704:A 4.72978e-05
2 *1703:Y 4.72978e-05
3 *1704:A *1717:A 0
4 *57:16 *1704:A 0
*RES
1 *1703:Y *1704:A 40.5974 
*END

*D_NET *200 9.45957e-05
*CONN
*I *1705:A I *D sg13cmos5l_inv_1
*I *1704:Y O *D sg13cmos5l_inv_1
*CAP
1 *1705:A 4.72978e-05
2 *1704:Y 4.72978e-05
*RES
1 *1704:Y *1705:A 40.5974 
*END

*D_NET *201 9.45957e-05
*CONN
*I *1706:A I *D sg13cmos5l_inv_1
*I *1705:Y O *D sg13cmos5l_inv_1
*CAP
1 *1706:A 4.72978e-05
2 *1705:Y 4.72978e-05
3 *1706:A *1953:A 0
*RES
1 *1705:Y *1706:A 40.5974 
*END

*D_NET *202 0.00101763
*CONN
*I *1707:A I *D sg13cmos5l_inv_1
*I *1696:Y O *D sg13cmos5l_inv_1
*CAP
1 *1707:A 5.49603e-05
2 *1696:Y 0.000283417
3 *202:8 0.000338378
4 *202:8 *224:8 0.000340877
5 *1591:A *1707:A 0
6 *1591:A *202:8 0
*RES
1 *1696:Y *202:8 42.575 
2 *202:8 *1707:A 40.5356 
*END

*D_NET *203 0.000371832
*CONN
*I *1708:A I *D sg13cmos5l_inv_1
*I *1706:Y O *D sg13cmos5l_inv_1
*CAP
1 *1708:A 0.000178188
2 *1706:Y 0.000178188
3 *1708:A *1709:A 0
4 *1708:A *1714:A 1.54556e-05
5 *1708:A *331:25 0
6 *51:24 *1708:A 0
*RES
1 *1706:Y *1708:A 41.0118 
*END

*D_NET *204 0.000159778
*CONN
*I *1709:A I *D sg13cmos5l_inv_1
*I *1708:Y O *D sg13cmos5l_inv_1
*CAP
1 *1709:A 7.98888e-05
2 *1708:Y 7.98888e-05
3 *1709:A *1714:A 0
4 *1708:A *1709:A 0
5 *51:24 *1709:A 0
*RES
1 *1708:Y *1709:A 40.9167 
*END

*D_NET *205 0.000580558
*CONN
*I *1710:A I *D sg13cmos5l_inv_1
*I *1709:Y O *D sg13cmos5l_inv_1
*CAP
1 *1710:A 3.60825e-05
2 *1709:Y 0.000254196
3 *205:8 0.000290279
4 *205:8 *1078:47 0
*RES
1 *1709:Y *205:8 42.0806 
2 *205:8 *1710:A 40.3193 
*END

*D_NET *206 0.000439765
*CONN
*I *1711:A I *D sg13cmos5l_inv_1
*I *1710:Y O *D sg13cmos5l_inv_1
*CAP
1 *1711:A 0
2 *1710:Y 0.00010252
3 *206:8 0.00010252
4 *206:8 *331:25 0
5 *206:8 *1078:47 0.000234726
*RES
1 *1710:Y *206:8 41.339 
2 *206:8 *1711:A 40 
*END

*D_NET *207 0.00577813
*CONN
*I *1556:A I *D sg13cmos5l_buf_1
*I *1712:A I *D sg13cmos5l_inv_1
*I *1711:Y O *D sg13cmos5l_inv_1
*CAP
1 *1556:A 0
2 *1712:A 0.00041936
3 *1711:Y 3.40341e-05
4 *207:25 0.00109415
5 *207:8 0.00154755
6 *1712:A *1713:A 0
7 *1712:A *1714:A 0
8 *1712:A *1078:47 0
9 *1712:A *1088:14 0.000241428
10 *207:8 *2025:A 0
11 *207:8 *1078:51 0
12 *207:25 *2010:A 0.00020973
13 *207:25 *2016:A 0
14 *207:25 *331:25 0
15 *207:25 *477:8 0
16 *207:25 *480:8 0
17 *207:25 *490:8 0
18 *207:25 *492:8 0
19 *207:25 *494:8 0
20 *207:25 *510:10 0
21 *207:25 *513:12 0.000394653
22 osc_tap[1] *207:25 0
23 *51:24 *1712:A 0.000762846
24 *51:24 *207:25 0.00107437
*RES
1 *1711:Y *207:8 40.3193 
2 *207:8 *1712:A 44.9337 
3 *207:8 *207:25 34.8526 
4 *207:25 *1556:A 20 
*END

*D_NET *208 0.000148594
*CONN
*I *1713:A I *D sg13cmos5l_inv_1
*I *1712:Y O *D sg13cmos5l_inv_1
*CAP
1 *1713:A 7.42968e-05
2 *1712:Y 7.42968e-05
3 *1713:A *331:25 0
4 *1713:A *1088:14 0
5 *1712:A *1713:A 0
*RES
1 *1712:Y *1713:A 40.8884 
*END

*D_NET *209 0.000519287
*CONN
*I *1714:A I *D sg13cmos5l_inv_1
*I *1713:Y O *D sg13cmos5l_inv_1
*CAP
1 *1714:A 0.000251916
2 *1713:Y 0.000251916
3 *1714:A *1721:A 0
4 *1714:A *1722:A 0
5 *1714:A *331:25 0
6 *1708:A *1714:A 1.54556e-05
7 *1709:A *1714:A 0
8 *1712:A *1714:A 0
9 *51:24 *1714:A 0
*RES
1 *1713:Y *1714:A 42.7089 
*END

*D_NET *210 0.00186199
*CONN
*I *1715:A I *D sg13cmos5l_inv_1
*I *1543:A2 I *D sg13cmos5l_mux4_1
*I *1714:Y O *D sg13cmos5l_inv_1
*CAP
1 *1715:A 0
2 *1543:A2 0.000271107
3 *1714:Y 0.00019516
4 *210:8 0.000466268
5 *1543:A2 *443:12 0
6 *1543:A2 *1078:47 0.000235556
7 *210:8 *331:25 0
8 *210:8 *1078:47 0.000693894
9 *197:8 *1543:A2 0
10 *198:8 *1543:A2 0
11 *198:8 *210:8 0
*RES
1 *1714:Y *210:8 43.3166 
2 *210:8 *1543:A2 43.5638 
3 *210:8 *1715:A 40 
*END

*D_NET *211 9.45957e-05
*CONN
*I *1716:A I *D sg13cmos5l_inv_1
*I *1715:Y O *D sg13cmos5l_inv_1
*CAP
1 *1716:A 4.72978e-05
2 *1715:Y 4.72978e-05
3 *1716:A *1950:A 0
*RES
1 *1715:Y *1716:A 40.5974 
*END

*D_NET *212 0.00038675
*CONN
*I *1717:A I *D sg13cmos5l_inv_1
*I *1716:Y O *D sg13cmos5l_inv_1
*CAP
1 *1717:A 0.000193375
2 *1716:Y 0.000193375
3 *1717:A *331:25 0
4 *1717:A *1078:41 0
5 *1704:A *1717:A 0
*RES
1 *1716:Y *1717:A 42.2145 
*END

*D_NET *213 0.000302538
*CONN
*I *1718:A I *D sg13cmos5l_inv_1
*I *1707:Y O *D sg13cmos5l_inv_1
*CAP
1 *1718:A 0.000151269
2 *1707:Y 0.000151269
3 *1651:A *1718:A 0
4 *1662:A *1718:A 0
*RES
1 *1707:Y *1718:A 41.3802 
*END

*D_NET *214 9.45957e-05
*CONN
*I *1719:A I *D sg13cmos5l_inv_1
*I *1717:Y O *D sg13cmos5l_inv_1
*CAP
1 *1719:A 4.72978e-05
2 *1717:Y 4.72978e-05
3 *1719:A *1725:A 0
*RES
1 *1717:Y *1719:A 40.5974 
*END

*D_NET *215 0.000109037
*CONN
*I *1720:A I *D sg13cmos5l_inv_1
*I *1719:Y O *D sg13cmos5l_inv_1
*CAP
1 *1720:A 0
2 *1719:Y 5.45187e-05
3 *215:8 5.45187e-05
4 *215:8 *219:8 0
5 *215:8 *221:8 0
6 *215:8 *1078:47 0
*RES
1 *1719:Y *215:8 40.5974 
2 *215:8 *1720:A 40 
*END

*D_NET *216 0.000119843
*CONN
*I *1721:A I *D sg13cmos5l_inv_1
*I *1720:Y O *D sg13cmos5l_inv_1
*CAP
1 *1721:A 5.99217e-05
2 *1720:Y 5.99217e-05
3 *1721:A *1722:A 0
4 *1721:A *1723:A 0
5 *1714:A *1721:A 0
*RES
1 *1720:Y *1721:A 40.5974 
*END

*D_NET *217 0.000393555
*CONN
*I *1722:A I *D sg13cmos5l_inv_1
*I *1721:Y O *D sg13cmos5l_inv_1
*CAP
1 *1722:A 0.000196777
2 *1721:Y 0.000196777
3 *1722:A *1723:A 0
4 *1722:A *331:25 0
5 *1722:A *1088:14 0
6 *1714:A *1722:A 0
7 *1721:A *1722:A 0
*RES
1 *1721:Y *1722:A 41.9982 
*END

*D_NET *218 0.000233109
*CONN
*I *1723:A I *D sg13cmos5l_inv_1
*I *1722:Y O *D sg13cmos5l_inv_1
*CAP
1 *1723:A 0.000116554
2 *1722:Y 0.000116554
3 *1723:A *331:25 0
4 *1723:A *1088:14 0
5 *1721:A *1723:A 0
6 *1722:A *1723:A 0
*RES
1 *1722:Y *1723:A 41.3802 
*END

*D_NET *219 0.000596028
*CONN
*I *1724:A I *D sg13cmos5l_inv_1
*I *1723:Y O *D sg13cmos5l_inv_1
*CAP
1 *1724:A 0
2 *1723:Y 0.000207167
3 *219:8 0.000207167
4 *219:8 *221:8 0.000181694
5 *219:8 *1082:48 0
6 *215:8 *219:8 0
*RES
1 *1723:Y *219:8 42.575 
2 *219:8 *1724:A 40 
*END

*D_NET *220 0.000321481
*CONN
*I *1725:A I *D sg13cmos5l_inv_1
*I *1724:Y O *D sg13cmos5l_inv_1
*CAP
1 *1725:A 0.000160741
2 *1724:Y 0.000160741
3 *1725:A *1726:A 0
4 *1725:A *331:25 0
5 *1719:A *1725:A 0
*RES
1 *1724:Y *1725:A 41.5965 
*END

*D_NET *221 0.000503235
*CONN
*I *1726:A I *D sg13cmos5l_inv_1
*I *1725:Y O *D sg13cmos5l_inv_1
*CAP
1 *1726:A 2.78357e-05
2 *1725:Y 0.000132935
3 *221:8 0.000160771
4 *1726:A *1728:A 0
5 *1726:A *331:25 0
6 *1726:A *1078:41 0
7 *221:8 *1082:48 0
8 *1725:A *1726:A 0
9 *215:8 *221:8 0
10 *219:8 *221:8 0.000181694
*RES
1 *1725:Y *221:8 41.8334 
2 *221:8 *1726:A 40.3193 
*END

*D_NET *222 9.76025e-05
*CONN
*I *1727:A I *D sg13cmos5l_inv_1
*I *1726:Y O *D sg13cmos5l_inv_1
*CAP
1 *1727:A 4.88013e-05
2 *1726:Y 4.88013e-05
*RES
1 *1726:Y *1727:A 40.5974 
*END

*D_NET *223 0.000209254
*CONN
*I *1728:A I *D sg13cmos5l_inv_1
*I *1727:Y O *D sg13cmos5l_inv_1
*CAP
1 *1728:A 8.20876e-05
2 *1727:Y 8.20876e-05
3 *1728:A *1078:41 4.50783e-05
4 *1726:A *1728:A 0
*RES
1 *1727:Y *1728:A 41.0197 
*END

*D_NET *224 0.00121827
*CONN
*I *1729:A I *D sg13cmos5l_inv_1
*I *1718:Y O *D sg13cmos5l_inv_1
*CAP
1 *1729:A 0.000202564
2 *1718:Y 6.59436e-05
3 *224:8 0.000268508
4 *1591:A *224:8 0.000340374
5 *202:8 *224:8 0.000340877
*RES
1 *1718:Y *224:8 41.5862 
2 *224:8 *1729:A 41.6171 
*END

*D_NET *225 0.000435481
*CONN
*I *1730:A I *D sg13cmos5l_inv_1
*I *1728:Y O *D sg13cmos5l_inv_1
*CAP
1 *1730:A 6.35526e-05
2 *1728:Y 6.03557e-05
3 *225:8 0.000123908
4 *1730:A *1076:32 0.000112536
5 *225:8 *1076:32 7.51285e-05
6 *225:8 *1078:39 0
7 *1597:A *1730:A 0
*RES
1 *1728:Y *225:8 40.5974 
2 *225:8 *1730:A 40.7519 
*END

*D_NET *226 0.000309337
*CONN
*I *1731:A I *D sg13cmos5l_inv_1
*I *1730:Y O *D sg13cmos5l_inv_1
*CAP
1 *1731:A 0.000154668
2 *1730:Y 0.000154668
3 *1731:A *1733:A 0
4 *1731:A *229:10 0
5 *1731:A *1076:32 0
6 *55:20 *1731:A 0
*RES
1 *1730:Y *1731:A 41.4008 
*END

*D_NET *227 0.000102278
*CONN
*I *1732:A I *D sg13cmos5l_inv_1
*I *1731:Y O *D sg13cmos5l_inv_1
*CAP
1 *1732:A 5.1139e-05
2 *1731:Y 5.1139e-05
3 *1732:A *1543:A3 0
*RES
1 *1731:Y *1732:A 40.5974 
*END

*D_NET *228 0.000637485
*CONN
*I *1543:A3 I *D sg13cmos5l_mux4_1
*I *1733:A I *D sg13cmos5l_inv_1
*I *1732:Y O *D sg13cmos5l_inv_1
*CAP
1 *1543:A3 0.000197001
2 *1733:A 0.000121741
3 *1732:Y 0
4 *228:4 0.000318743
5 *1543:A3 *1076:32 0
6 *1733:A *1076:32 0
7 *1543:A1 *1543:A3 0
8 *1731:A *1733:A 0
9 *1732:A *1543:A3 0
10 *55:20 *1543:A3 0
11 *55:20 *1733:A 0
*RES
1 *1732:Y *228:4 20 
2 *228:4 *1733:A 21.3493 
3 *228:4 *1543:A3 22.1265 
*END

*D_NET *229 0.000697924
*CONN
*I *1734:A I *D sg13cmos5l_inv_1
*I *1733:Y O *D sg13cmos5l_inv_1
*CAP
1 *1734:A 0.000118247
2 *1733:Y 0.000143057
3 *229:10 0.000261304
4 *1734:A *273:18 0
5 *1731:A *229:10 0
6 *55:20 *1734:A 6.34759e-05
7 *55:20 *229:10 0.00011184
8 *93:8 *229:10 0
*RES
1 *1733:Y *229:10 41.3493 
2 *229:10 *1734:A 41.2051 
*END

*D_NET *230 0.000133739
*CONN
*I *1735:A I *D sg13cmos5l_inv_1
*I *1734:Y O *D sg13cmos5l_inv_1
*CAP
1 *1735:A 6.68694e-05
2 *1734:Y 6.68694e-05
*RES
1 *1734:Y *1735:A 40.8446 
*END

*D_NET *231 0.000552175
*CONN
*I *1736:A I *D sg13cmos5l_inv_1
*I *1735:Y O *D sg13cmos5l_inv_1
*CAP
1 *1736:A 0
2 *1735:Y 0.000147382
3 *231:8 0.000147382
4 *231:8 *1082:48 0
5 *93:8 *231:8 0.000128248
6 *95:8 *231:8 0.000129163
*RES
1 *1735:Y *231:8 42.0806 
2 *231:8 *1736:A 40 
*END

*D_NET *232 9.45957e-05
*CONN
*I *1737:A I *D sg13cmos5l_inv_1
*I *1736:Y O *D sg13cmos5l_inv_1
*CAP
1 *1737:A 4.72978e-05
2 *1736:Y 4.72978e-05
3 *1676:A *1737:A 0
4 *1677:A *1737:A 0
*RES
1 *1736:Y *1737:A 40.5974 
*END

*D_NET *233 9.76025e-05
*CONN
*I *1738:A I *D sg13cmos5l_inv_1
*I *1737:Y O *D sg13cmos5l_inv_1
*CAP
1 *1738:A 4.88013e-05
2 *1737:Y 4.88013e-05
3 *1675:A *1738:A 0
4 *1676:A *1738:A 0
*RES
1 *1737:Y *1738:A 40.5974 
*END

*D_NET *234 0.000107826
*CONN
*I *1739:A I *D sg13cmos5l_inv_1
*I *1738:Y O *D sg13cmos5l_inv_1
*CAP
1 *1739:A 5.39128e-05
2 *1738:Y 5.39128e-05
3 *1674:A *1739:A 0
4 *1675:A *1739:A 0
*RES
1 *1738:Y *1739:A 40.5974 
*END

*D_NET *235 0.000649594
*CONN
*I *1740:A I *D sg13cmos5l_inv_1
*I *1729:Y O *D sg13cmos5l_inv_1
*CAP
1 *1740:A 0
2 *1729:Y 0.00012805
3 *235:8 0.00012805
4 *235:8 *246:8 0.000393493
5 *235:8 *1082:48 0
*RES
1 *1729:Y *235:8 41.8334 
2 *235:8 *1740:A 40 
*END

*D_NET *236 0.00146303
*CONN
*I *1741:A I *D sg13cmos5l_inv_1
*I *1739:Y O *D sg13cmos5l_inv_1
*CAP
1 *1741:A 0
2 *1739:Y 0.000283871
3 *236:8 0.000283871
4 *236:8 *376:8 0.000181608
5 *236:8 *1082:48 0
6 *95:8 *236:8 0.000713675
*RES
1 *1739:Y *236:8 44.0582 
2 *236:8 *1741:A 40 
*END

*D_NET *237 0.000214981
*CONN
*I *1742:A I *D sg13cmos5l_inv_1
*I *1741:Y O *D sg13cmos5l_inv_1
*CAP
1 *1742:A 0.000107491
2 *1741:Y 0.000107491
3 *1742:A *272:30 0
4 *1603:A *1742:A 0
*RES
1 *1741:Y *1742:A 41.4703 
*END

*D_NET *238 9.45957e-05
*CONN
*I *1743:A I *D sg13cmos5l_inv_1
*I *1742:Y O *D sg13cmos5l_inv_1
*CAP
1 *1743:A 4.72978e-05
2 *1742:Y 4.72978e-05
3 *1743:A *1080:31 0
4 *1603:A *1743:A 0
*RES
1 *1742:Y *1743:A 40.5974 
*END

*D_NET *239 0.000103616
*CONN
*I *1744:A I *D sg13cmos5l_inv_1
*I *1743:Y O *D sg13cmos5l_inv_1
*CAP
1 *1744:A 5.18081e-05
2 *1743:Y 5.18081e-05
3 *1605:A *1744:A 0
*RES
1 *1743:Y *1744:A 40.5974 
*END

*D_NET *240 0.00128886
*CONN
*I *1745:A I *D sg13cmos5l_inv_1
*I *1744:Y O *D sg13cmos5l_inv_1
*CAP
1 *1745:A 0
2 *1744:Y 0.000303683
3 *240:8 0.000303683
4 *240:8 *1083:8 0
5 *101:8 *240:8 0
6 *103:8 *240:8 0
7 *104:14 *240:8 0.000393736
8 *105:10 *240:8 0.000287758
*RES
1 *1744:Y *240:8 44.0582 
2 *240:8 *1745:A 40 
*END

*D_NET *241 0.000107701
*CONN
*I *1746:A I *D sg13cmos5l_inv_1
*I *1745:Y O *D sg13cmos5l_inv_1
*CAP
1 *1746:A 5.38503e-05
2 *1745:Y 5.38503e-05
3 *1746:A *242:16 0
4 *1655:A *1746:A 0
*RES
1 *1745:Y *1746:A 40.5974 
*END

*D_NET *242 0.00170641
*CONN
*I *1747:A I *D sg13cmos5l_inv_1
*I *1746:Y O *D sg13cmos5l_inv_1
*CAP
1 *1747:A 0
2 *1746:Y 0.000650631
3 *242:16 0.000650631
4 *242:16 *1533:A0 0.000287343
5 *242:16 *1553:A 8.0216e-05
6 *242:16 *1748:A 0
7 *242:16 *1750:A 1.5412e-05
8 *242:16 *1752:A 2.21754e-05
9 *242:16 *243:8 0
10 *242:16 *1082:25 0
11 *1614:A *242:16 0
12 *1746:A *242:16 0
*RES
1 *1746:Y *242:16 46.2315 
2 *242:16 *1747:A 40 
*END

*D_NET *243 0.00105336
*CONN
*I *1748:A I *D sg13cmos5l_inv_1
*I *1747:Y O *D sg13cmos5l_inv_1
*CAP
1 *1748:A 0.000159948
2 *1747:Y 0.000366731
3 *243:8 0.000526679
4 *1748:A *245:12 0
5 *243:8 *1533:A0 0
6 *243:8 *245:12 0
7 *242:16 *1748:A 0
8 *242:16 *243:8 0
*RES
1 *1747:Y *243:8 42.8222 
2 *243:8 *1748:A 41.4008 
*END

*D_NET *244 0.000119252
*CONN
*I *1749:A I *D sg13cmos5l_inv_1
*I *1748:Y O *D sg13cmos5l_inv_1
*CAP
1 *1749:A 5.96258e-05
2 *1748:Y 5.96258e-05
3 *1614:A *1749:A 0
4 *1615:A *1749:A 0
*RES
1 *1748:Y *1749:A 40.5974 
*END

*D_NET *245 0.0021476
*CONN
*I *1533:A0 I *D sg13cmos5l_mux4_1
*I *1750:A I *D sg13cmos5l_inv_1
*I *1749:Y O *D sg13cmos5l_inv_1
*CAP
1 *1533:A0 0.000338901
2 *1750:A 3.32059e-05
3 *1749:Y 0.000353491
4 *245:12 0.000725599
5 *1533:A0 *263:30 0
6 *1533:A0 *1079:16 0.000234224
7 *1533:A0 *1081:25 0
8 *1750:A *1752:A 1.5412e-05
9 *1614:A *245:12 0.000144008
10 *1615:A *1750:A 0
11 *1748:A *245:12 0
12 *242:16 *1533:A0 0.000287343
13 *242:16 *1750:A 1.5412e-05
14 *243:8 *1533:A0 0
15 *243:8 *245:12 0
*RES
1 *1749:Y *245:12 43.8007 
2 *245:12 *1750:A 40.3193 
3 *245:12 *1533:A0 43.8831 
*END

*D_NET *246 0.00143834
*CONN
*I *1751:A I *D sg13cmos5l_inv_1
*I *1740:Y O *D sg13cmos5l_inv_1
*CAP
1 *1751:A 0.000147398
2 *1740:Y 0.000254036
3 *246:8 0.000401434
4 *1751:A *1795:A 0
5 *1751:A *1078:51 0.000241979
6 *246:8 *268:8 0
7 *246:8 *1082:48 0
8 *235:8 *246:8 0.000393493
*RES
1 *1740:Y *246:8 43.3166 
2 *246:8 *1751:A 41.6171 
*END

*D_NET *247 0.000239532
*CONN
*I *1752:A I *D sg13cmos5l_inv_1
*I *1750:Y O *D sg13cmos5l_inv_1
*CAP
1 *1752:A 0.000100972
2 *1750:Y 0.000100972
3 *1752:A *248:12 0
4 *1614:A *1752:A 0
5 *1750:A *1752:A 1.5412e-05
6 *242:16 *1752:A 2.21754e-05
*RES
1 *1750:Y *1752:A 41.2077 
*END

*D_NET *248 0.000770152
*CONN
*I *1753:A I *D sg13cmos5l_inv_1
*I *1752:Y O *D sg13cmos5l_inv_1
*CAP
1 *1753:A 0.000127303
2 *1752:Y 0.000257773
3 *248:12 0.000385076
4 *1753:A *1755:A 0
5 *248:12 *1755:A 0
6 *248:12 *263:30 0
7 *248:12 *1079:16 0
8 *1615:A *248:12 0
9 *1752:A *248:12 0
*RES
1 *1752:Y *248:12 42.163 
2 *248:12 *1753:A 41.1845 
*END

*D_NET *249 0.000165611
*CONN
*I *1754:A I *D sg13cmos5l_inv_1
*I *1753:Y O *D sg13cmos5l_inv_1
*CAP
1 *1754:A 8.28055e-05
2 *1753:Y 8.28055e-05
3 *1754:A *1765:A 0
*RES
1 *1753:Y *1754:A 40.8446 
*END

*D_NET *250 0.000891012
*CONN
*I *1755:A I *D sg13cmos5l_inv_1
*I *1754:Y O *D sg13cmos5l_inv_1
*CAP
1 *1755:A 0.000333721
2 *1754:Y 0.000333721
3 *1755:A *1756:A 0.000128618
4 *1755:A *252:10 7.94957e-05
5 *1755:A *264:12 0
6 *1615:A *1755:A 1.54556e-05
7 *1616:A *1755:A 0
8 *1617:A *1755:A 0
9 *1753:A *1755:A 0
10 *248:12 *1755:A 0
*RES
1 *1754:Y *1755:A 43.6565 
*END

*D_NET *251 0.000815409
*CONN
*I *1756:A I *D sg13cmos5l_inv_1
*I *1755:Y O *D sg13cmos5l_inv_1
*CAP
1 *1756:A 0.000255135
2 *1755:Y 0.000255135
3 *1756:A *1757:A 0.000176521
4 *1756:A *1758:A 0
5 *1756:A *264:12 0
6 *1755:A *1756:A 0.000128618
*RES
1 *1755:Y *1756:A 42.8119 
*END

*D_NET *252 0.000874162
*CONN
*I *1757:A I *D sg13cmos5l_inv_1
*I *1756:Y O *D sg13cmos5l_inv_1
*CAP
1 *1757:A 0.000105998
2 *1756:Y 0.000203075
3 *252:10 0.000309073
4 *1757:A *264:12 0
5 *1755:A *252:10 7.94957e-05
6 *1756:A *1757:A 0.000176521
*RES
1 *1756:Y *252:10 41.3802 
2 *252:10 *1757:A 41.1845 
*END

*D_NET *253 0.000449722
*CONN
*I *1758:A I *D sg13cmos5l_inv_1
*I *1757:Y O *D sg13cmos5l_inv_1
*CAP
1 *1758:A 0.00020099
2 *1757:Y 0.00020099
3 *1758:A *254:8 4.77425e-05
4 *1758:A *258:18 0
5 *1758:A *259:10 0
6 *1758:A *264:12 0
7 *1756:A *1758:A 0
*RES
1 *1757:Y *1758:A 42.2454 
*END

*D_NET *254 0.00567692
*CONN
*I *1759:A I *D sg13cmos5l_inv_1
*I *1758:Y O *D sg13cmos5l_inv_1
*CAP
1 *1759:A 0
2 *1758:Y 3.03288e-05
3 *254:22 0.00146665
4 *254:8 0.00149698
5 *254:22 *1811:A 0
6 *254:22 *1812:A 0
7 *254:22 *1815:A 8.00842e-05
8 *254:22 *1817:A 0
9 *254:22 *255:14 0
10 *254:22 *258:18 0.00172709
11 *254:22 *267:18 0.000112799
12 *254:22 *272:30 0
13 *254:22 *277:24 0
14 *254:22 *283:8 0
15 *254:22 *1079:8 0.000715247
16 *1758:A *254:8 4.77425e-05
*RES
1 *1758:Y *254:8 40.3193 
2 *254:8 *254:22 37.4585 
3 *254:22 *1759:A 20 
*END

*D_NET *255 0.00280866
*CONN
*I *1760:A I *D sg13cmos5l_inv_1
*I *1759:Y O *D sg13cmos5l_inv_1
*CAP
1 *1760:A 4.45141e-05
2 *1759:Y 0.000912951
3 *255:14 0.000957465
4 *1760:A *1080:31 8.02927e-05
5 *255:14 *1771:A 0
6 *255:14 *1809:A 0
7 *255:14 *1811:A 0
8 *255:14 *1881:A 0
9 *255:14 *256:10 0
10 *255:14 *265:12 0
11 *255:14 *266:8 0.000394652
12 *255:14 *267:10 0.000370929
13 *255:14 *267:18 4.78524e-05
14 *255:14 *1083:39 0
15 *1538:A0 *1760:A 0
16 *1601:A *255:14 0
17 *1669:A *255:14 0
18 *254:22 *255:14 0
*RES
1 *1759:Y *255:14 49.7747 
2 *255:14 *1760:A 40.5356 
*END

*D_NET *256 0.00471861
*CONN
*I *1761:A I *D sg13cmos5l_inv_1
*I *1760:Y O *D sg13cmos5l_inv_1
*CAP
1 *1761:A 0
2 *1760:Y 0.000512915
3 *256:28 0.00103517
4 *256:10 0.00154809
5 *256:10 *266:8 0
6 *256:10 *273:10 0.000872356
7 *256:10 *1080:31 1.54008e-05
8 *256:28 *1817:A 0.000241886
9 *256:28 *1819:A 4.77425e-05
10 *256:28 *1858:A 0
11 *256:28 *1877:A 0
12 *256:28 *1880:A 7.58489e-05
13 *256:28 *1881:A 0
14 *256:28 *1883:A 0
15 *256:28 *1885:A 0
16 *256:28 *267:18 0.000240957
17 *256:28 *267:26 0
18 *256:28 *270:14 0
19 *256:28 *277:24 0
20 *1538:A0 *256:10 0
21 *1671:A *256:28 0
22 *95:8 *256:10 0
23 *97:8 *256:10 0
24 *99:8 *256:10 0
25 *165:8 *256:10 0
26 *166:8 *256:10 0.000128247
27 *255:14 *256:10 0
*RES
1 *1760:Y *256:10 46.5096 
2 *256:10 *256:28 30.9901 
3 *256:28 *1761:A 20 
*END

*D_NET *257 0.000551625
*CONN
*I *1762:A I *D sg13cmos5l_inv_1
*I *1751:Y O *D sg13cmos5l_inv_1
*CAP
1 *1762:A 0
2 *1751:Y 0.000105374
3 *257:8 0.000105374
4 *257:8 *268:8 0.000340877
5 *51:24 *257:8 0
*RES
1 *1751:Y *257:8 41.5862 
2 *257:8 *1762:A 40 
*END

*D_NET *258 0.00537043
*CONN
*I *1763:A I *D sg13cmos5l_inv_1
*I *1761:Y O *D sg13cmos5l_inv_1
*CAP
1 *1763:A 0
2 *1761:Y 0.000109604
3 *258:18 0.00115543
4 *258:8 0.00126503
5 *258:8 *267:26 0.00011159
6 *258:8 *277:24 0
7 *258:18 *1768:A 0
8 *258:18 *1790:A 0
9 *258:18 *259:10 0.000317194
10 *258:18 *261:8 0.000129163
11 *258:18 *264:8 0
12 *258:18 *272:30 0
13 *258:18 *277:30 0
14 *258:18 *280:8 0
15 *258:18 *287:12 0
16 *258:18 *288:8 0
17 *258:18 *293:10 0
18 *258:18 *295:8 0
19 *258:18 *353:8 0
20 *258:18 *1079:8 0.000555321
21 *1758:A *258:18 0
22 *254:22 *258:18 0.00172709
*RES
1 *1761:Y *258:8 40.9682 
2 *258:8 *258:18 35.43 
3 *258:18 *1763:A 20 
*END

*D_NET *259 0.000715495
*CONN
*I *1764:A I *D sg13cmos5l_inv_1
*I *1763:Y O *D sg13cmos5l_inv_1
*CAP
1 *1764:A 0
2 *1763:Y 0.00019915
3 *259:10 0.00019915
4 *259:10 *264:8 0
5 *259:10 *264:12 0
6 *1758:A *259:10 0
7 *2575:A *259:10 0
8 *258:18 *259:10 0.000317194
*RES
1 *1763:Y *259:10 42.2145 
2 *259:10 *1764:A 40 
*END

*D_NET *260 9.45957e-05
*CONN
*I *1765:A I *D sg13cmos5l_inv_1
*I *1764:Y O *D sg13cmos5l_inv_1
*CAP
1 *1765:A 4.72978e-05
2 *1764:Y 4.72978e-05
3 *1754:A *1765:A 0
*RES
1 *1764:Y *1765:A 40.5974 
*END

*D_NET *261 0.00020602
*CONN
*I *1766:A I *D sg13cmos5l_inv_1
*I *1765:Y O *D sg13cmos5l_inv_1
*CAP
1 *1766:A 0
2 *1765:Y 3.84283e-05
3 *261:8 3.84283e-05
4 *261:8 *264:8 0
5 *261:8 *287:12 0
6 *258:18 *261:8 0.000129163
*RES
1 *1765:Y *261:8 40.5974 
2 *261:8 *1766:A 40 
*END

*D_NET *262 0.000424788
*CONN
*I *1767:A I *D sg13cmos5l_inv_1
*I *1766:Y O *D sg13cmos5l_inv_1
*CAP
1 *1767:A 0.000140011
2 *1766:Y 0.000140011
3 *1767:A *1768:A 0.000144767
4 *1767:A *1079:16 0
*RES
1 *1766:Y *1767:A 41.4008 
*END

*D_NET *263 0.00340588
*CONN
*I *1533:A1 I *D sg13cmos5l_mux4_1
*I *1768:A I *D sg13cmos5l_inv_1
*I *1767:Y O *D sg13cmos5l_inv_1
*CAP
1 *1533:A1 5.01605e-05
2 *1768:A 0.000449241
3 *1767:Y 0.00090984
4 *263:30 0.00051076
5 *1533:A1 *1533:A2 8.02434e-05
6 *1768:A *1783:A 0
7 *1768:A *277:30 0
8 *1768:A *1079:16 0.000144767
9 *263:30 *1533:A2 0.000288917
10 *263:30 *281:12 0.000447598
11 *263:30 *1079:16 0.000379587
12 *263:30 *1081:25 0
13 *1533:A0 *263:30 0
14 *1767:A *1768:A 0.000144767
15 *248:12 *263:30 0
16 *258:18 *1768:A 0
*RES
1 *1767:Y *1768:A 44.7174 
2 *1767:Y *263:30 45.5208 
3 *263:30 *1533:A1 40.5356 
*END

*D_NET *264 0.00546785
*CONN
*I *1769:A I *D sg13cmos5l_inv_1
*I *1768:Y O *D sg13cmos5l_inv_1
*CAP
1 *1769:A 0
2 *1768:Y 0.000355739
3 *264:20 0.000834456
4 *264:12 0.00213051
5 *264:8 0.00165179
6 *264:8 *287:12 0
7 *264:8 *1079:8 0
8 *264:20 *265:12 0
9 *264:20 *1084:12 0
10 *1614:A *264:12 0
11 *1617:A *264:12 0
12 *1619:A *264:12 0
13 *1620:A *264:12 0
14 *1621:A *264:12 0
15 *1623:A *264:12 0
16 *1624:A *264:12 0
17 *1625:A *264:12 0
18 *1755:A *264:12 0
19 *1756:A *264:12 0
20 *1757:A *264:12 0
21 *1758:A *264:12 0
22 *2575:A *264:8 7.52158e-05
23 *2575:A *264:12 0.000177564
24 *2576:A *264:12 0.000242577
25 *2577:A *264:20 0
26 *121:10 *264:12 0
27 *121:27 *264:20 0
28 *144:10 *264:20 0
29 *148:8 *264:20 0
30 *258:18 *264:8 0
31 *259:10 *264:8 0
32 *259:10 *264:12 0
33 *261:8 *264:8 0
*RES
1 *1768:Y *264:8 43.5638 
2 *264:8 *264:12 35.4603 
3 *264:12 *264:20 47.622 
4 *264:20 *1769:A 20 
*END

*D_NET *265 0.00199062
*CONN
*I *1770:A I *D sg13cmos5l_inv_1
*I *1769:Y O *D sg13cmos5l_inv_1
*CAP
1 *1770:A 2.71962e-05
2 *1769:Y 0.000807592
3 *265:12 0.000834788
4 *1770:A *272:30 0
5 *1770:A *1080:31 4.78521e-05
6 *1538:A3 *265:12 0
7 *1661:A *265:12 0
8 *1667:A *1770:A 0
9 *149:14 *265:12 0.000144942
10 *154:8 *265:12 0
11 *155:8 *265:12 0.000128248
12 *158:8 *265:12 0
13 *160:8 *265:12 0
14 *255:14 *265:12 0
15 *264:20 *265:12 0
*RES
1 *1769:Y *265:12 47.0452 
2 *265:12 *1770:A 40.3193 
*END

*D_NET *266 0.00104628
*CONN
*I *1771:A I *D sg13cmos5l_inv_1
*I *1770:Y O *D sg13cmos5l_inv_1
*CAP
1 *1771:A 0.000188511
2 *1770:Y 0.000129575
3 *266:8 0.000318087
4 *1771:A *272:30 0
5 *266:8 *273:10 0
6 *1601:A *1771:A 1.54556e-05
7 *255:14 *1771:A 0
8 *255:14 *266:8 0.000394652
9 *256:10 *266:8 0
*RES
1 *1770:Y *266:8 41.8334 
2 *266:8 *1771:A 41.6171 
*END

*D_NET *267 0.00665163
*CONN
*I *1772:A I *D sg13cmos5l_inv_1
*I *1771:Y O *D sg13cmos5l_inv_1
*CAP
1 *1772:A 6.77554e-05
2 *1771:Y 0.000343765
3 *267:26 0.000725122
4 *267:18 0.00125908
5 *267:10 0.000945482
6 *1772:A *1776:A 0
7 *1772:A *1778:A 0
8 *1772:A *269:10 4.77863e-05
9 *267:10 *272:30 0
10 *267:10 *376:8 0
11 *267:10 *1082:48 0.000343266
12 *267:18 *1817:A 0
13 *267:18 *1881:A 7.91244e-05
14 *267:18 *313:8 0
15 *267:18 *1078:29 0
16 *267:26 *1781:A 0
17 *267:26 *269:10 0.00114084
18 *267:26 *270:14 0
19 *267:26 *272:30 0
20 *267:26 *276:8 0.000767537
21 *267:26 *351:12 0
22 *1600:A *267:10 4.77425e-05
23 *1601:A *267:10 0
24 *254:22 *267:18 0.000112799
25 *255:14 *267:10 0.000370929
26 *255:14 *267:18 4.78524e-05
27 *256:28 *267:18 0.000240957
28 *256:28 *267:26 0
29 *258:8 *267:26 0.00011159
*RES
1 *1771:Y *267:10 44.0685 
2 *267:10 *267:18 45.6135 
3 *267:18 *267:26 49.0125 
4 *267:26 *1772:A 40.7519 
*END

*D_NET *268 0.000733347
*CONN
*I *1773:A I *D sg13cmos5l_inv_1
*I *1762:Y O *D sg13cmos5l_inv_1
*CAP
1 *1773:A 3.17912e-05
2 *1762:Y 0.000164444
3 *268:8 0.000196235
4 *1773:A *1818:A 0
5 *268:8 *301:8 0
6 *51:24 *268:8 0
7 *246:8 *268:8 0
8 *257:8 *268:8 0.000340877
*RES
1 *1762:Y *268:8 42.3278 
2 *268:8 *1773:A 40.3193 
*END

*D_NET *269 0.00497215
*CONN
*I *1774:A I *D sg13cmos5l_inv_1
*I *1772:Y O *D sg13cmos5l_inv_1
*CAP
1 *1774:A 0.000538199
2 *1772:Y 0.000291663
3 *269:10 0.000829862
4 *1774:A *1534:S0 8.00842e-05
5 *1774:A *1781:A 0
6 *1774:A *1875:A 0
7 *1774:A *270:14 0.000655039
8 *1774:A *270:24 7.88655e-05
9 *1774:A *369:12 0.000112662
10 *269:10 *272:8 0
11 *269:10 *272:30 0.00119716
12 *1772:A *269:10 4.77863e-05
13 *267:26 *269:10 0.00114084
*RES
1 *1772:Y *269:10 46.077 
2 *269:10 *1774:A 45.562 
*END

*D_NET *270 0.00504415
*CONN
*I *1775:A I *D sg13cmos5l_inv_1
*I *1774:Y O *D sg13cmos5l_inv_1
*CAP
1 *1775:A 0.000609017
2 *1774:Y 0.000492403
3 *270:24 0.00101104
4 *270:14 0.000894425
5 *1775:A *271:10 0.000661973
6 *1775:A *348:8 0.000288173
7 *1775:A *351:12 0
8 *270:14 *1781:A 0
9 *270:14 *1821:A 0
10 *270:14 *272:30 0.00012816
11 *270:24 *1781:A 0
12 *270:24 *1854:A 0
13 *270:24 *1856:A 0
14 *270:24 *1867:A 0
15 *270:24 *1870:A 0.000177316
16 *270:24 *1871:A 4.77425e-05
17 *270:24 *277:24 0
18 *1774:A *270:14 0.000655039
19 *1774:A *270:24 7.88655e-05
20 *256:28 *270:14 0
21 *267:26 *270:14 0
*RES
1 *1774:Y *270:14 45.2942 
2 *270:14 *270:24 44.017 
3 *270:24 *1775:A 48.755 
*END

*D_NET *271 0.0016728
*CONN
*I *1776:A I *D sg13cmos5l_inv_1
*I *1775:Y O *D sg13cmos5l_inv_1
*CAP
1 *1776:A 0.000165092
2 *1775:Y 0.00019582
3 *271:10 0.000360913
4 *1776:A *1779:A 0
5 *1776:A *1841:A 0
6 *1776:A *338:10 0
7 *271:10 *337:8 0
8 *271:10 *338:10 0.000289002
9 *1772:A *1776:A 0
10 *1775:A *271:10 0.000661973
*RES
1 *1775:Y *271:10 43.6359 
2 *271:10 *1776:A 41.8334 
*END

*D_NET *272 0.00763254
*CONN
*I *1777:A I *D sg13cmos5l_inv_1
*I *1776:Y O *D sg13cmos5l_inv_1
*CAP
1 *1777:A 0
2 *1776:Y 9.28097e-05
3 *272:30 0.00222421
4 *272:8 0.00231702
5 *272:8 *1841:A 0
6 *272:30 *1533:S1 0
7 *272:30 *1552:A 0.000176274
8 *272:30 *1802:A 0
9 *272:30 *1803:A 0
10 *272:30 *1806:A 0
11 *272:30 *1808:A 8.00842e-05
12 *272:30 *1809:A 7.50503e-05
13 *272:30 *1812:A 0
14 *272:30 *1813:A 0.000172077
15 *272:30 *1814:A 1.49544e-05
16 *272:30 *273:10 0.00011159
17 *272:30 *277:8 0.000234224
18 *272:30 *298:27 3.1684e-05
19 *272:30 *309:10 0.000344389
20 *272:30 *321:8 0.000128355
21 *272:30 *351:27 0.000289113
22 *272:30 *1078:16 0
23 *272:30 *1080:31 0
24 *272:30 *1083:39 0
25 *1600:A *272:30 0
26 *1601:A *272:30 1.54008e-05
27 *1667:A *272:30 0
28 *1742:A *272:30 0
29 *1770:A *272:30 0
30 *1771:A *272:30 0
31 *254:22 *272:30 0
32 *258:18 *272:30 0
33 *267:10 *272:30 0
34 *267:26 *272:30 0
35 *269:10 *272:8 0
36 *269:10 *272:30 0.00119716
37 *270:14 *272:30 0.00012816
*RES
1 *1776:Y *272:8 40.7519 
2 *272:8 *272:30 45.2247 
3 *272:30 *1777:A 20 
*END

*D_NET *273 0.00592703
*CONN
*I *1778:A I *D sg13cmos5l_inv_1
*I *1777:Y O *D sg13cmos5l_inv_1
*CAP
1 *1778:A 0.000345535
2 *1777:Y 0.000723785
3 *273:18 0.00137303
4 *273:10 0.00175128
5 *1778:A *1779:A 0
6 *1778:A *1826:A 0
7 *1778:A *1827:A 8.00842e-05
8 *273:10 *1080:31 0
9 *273:18 *1534:A1 0
10 *273:18 *1822:A 0
11 *273:18 *1875:A 0.000338113
12 *273:18 *351:35 0.000236081
13 *273:18 *1078:39 0
14 *1598:A *273:18 4.77425e-05
15 *1679:A *273:10 0
16 *1734:A *273:18 0
17 *1772:A *1778:A 0
18 *55:20 *273:18 0
19 *95:8 *273:10 0
20 *167:8 *273:10 0
21 *174:10 *273:18 4.74248e-05
22 *175:8 *273:10 0
23 *256:10 *273:10 0.000872356
24 *266:8 *273:10 0
25 *272:30 *273:10 0.00011159
*RES
1 *1777:Y *273:10 49.5069 
2 *273:10 *273:18 49.5069 
3 *273:18 *1778:A 42.9149 
*END

*D_NET *274 0.0002323
*CONN
*I *1779:A I *D sg13cmos5l_inv_1
*I *1778:Y O *D sg13cmos5l_inv_1
*CAP
1 *1779:A 0.00011615
2 *1778:Y 0.00011615
3 *1779:A *1826:A 0
4 *1779:A *1850:A 0
5 *1779:A *1852:A 0
6 *1779:A *1856:A 0
7 *1776:A *1779:A 0
8 *1778:A *1779:A 0
*RES
1 *1778:Y *1779:A 41.3802 
*END

*D_NET *275 9.85633e-05
*CONN
*I *1780:A I *D sg13cmos5l_inv_1
*I *1779:Y O *D sg13cmos5l_inv_1
*CAP
1 *1780:A 4.92817e-05
2 *1779:Y 4.92817e-05
3 *1780:A *1825:A 0
4 *1780:A *1826:A 0
5 *1780:A *1852:A 0
6 *1780:A *1853:A 0
*RES
1 *1779:Y *1780:A 40.5974 
*END

*D_NET *276 0.00189641
*CONN
*I *1781:A I *D sg13cmos5l_inv_1
*I *1780:Y O *D sg13cmos5l_inv_1
*CAP
1 *1781:A 0.000220303
2 *1780:Y 0.000253289
3 *276:8 0.000473591
4 *276:8 *351:12 0
5 *276:8 *365:8 0.000181694
6 *1774:A *1781:A 0
7 *267:26 *1781:A 0
8 *267:26 *276:8 0.000767537
9 *270:14 *1781:A 0
10 *270:24 *1781:A 0
*RES
1 *1780:Y *276:8 43.5638 
2 *276:8 *1781:A 41.854 
*END

*D_NET *277 0.00412957
*CONN
*I *1782:A I *D sg13cmos5l_inv_1
*I *1781:Y O *D sg13cmos5l_inv_1
*CAP
1 *1782:A 0
2 *1781:Y 0.000106315
3 *277:30 0.00103981
4 *277:24 0.0015031
5 *277:8 0.000569601
6 *277:24 *1863:A 0
7 *277:24 *1866:A 0
8 *277:24 *1870:A 0
9 *277:30 *1783:A 1.54556e-05
10 *277:30 *1790:A 0
11 *277:30 *284:10 0
12 *277:30 *285:8 0.000661058
13 *277:30 *287:12 0
14 *277:30 *288:8 0
15 *277:30 *359:8 0
16 *1768:A *277:30 0
17 *254:22 *277:24 0
18 *256:28 *277:24 0
19 *258:8 *277:24 0
20 *258:18 *277:30 0
21 *270:24 *277:24 0
22 *272:30 *277:8 0.000234224
*RES
1 *1781:Y *277:8 41.0918 
2 *277:8 *277:24 45.0058 
3 *277:24 *277:30 32.0098 
4 *277:30 *1782:A 20 
*END

*D_NET *278 0.00064801
*CONN
*I *1783:A I *D sg13cmos5l_inv_1
*I *1782:Y O *D sg13cmos5l_inv_1
*CAP
1 *1783:A 0.000316277
2 *1782:Y 0.000316277
3 *1768:A *1783:A 0
4 *277:30 *1783:A 1.54556e-05
*RES
1 *1782:Y *1783:A 43.09 
*END

*D_NET *279 0.00012456
*CONN
*I *1784:A I *D sg13cmos5l_inv_1
*I *1773:Y O *D sg13cmos5l_inv_1
*CAP
1 *1784:A 6.22801e-05
2 *1773:Y 6.22801e-05
3 *1784:A *1795:A 0
4 *1784:A *2025:A 0
*RES
1 *1773:Y *1784:A 40.5974 
*END

*D_NET *280 0.000966162
*CONN
*I *1785:A I *D sg13cmos5l_inv_1
*I *1783:Y O *D sg13cmos5l_inv_1
*CAP
1 *1785:A 0.000210962
2 *1783:Y 0.000101265
3 *280:8 0.000312228
4 *280:8 *287:12 0.000341707
5 *258:18 *280:8 0
*RES
1 *1783:Y *280:8 41.5862 
2 *280:8 *1785:A 41.8334 
*END

*D_NET *281 0.00306339
*CONN
*I *1533:A2 I *D sg13cmos5l_mux4_1
*I *1786:A I *D sg13cmos5l_inv_1
*I *1785:Y O *D sg13cmos5l_inv_1
*CAP
1 *1533:A2 0.000192051
2 *1786:A 0.000144436
3 *1785:Y 0.000547096
4 *281:12 0.000883583
5 *1533:A2 *298:27 0.000112717
6 *1786:A *282:10 7.94957e-05
7 *1786:A *298:27 0
8 *281:12 *1787:A 0
9 *281:12 *282:10 0.000287256
10 *1533:A1 *1533:A2 8.02434e-05
11 *263:30 *1533:A2 0.000288917
12 *263:30 *281:12 0.000447598
*RES
1 *1785:Y *281:12 45.3766 
2 *281:12 *1786:A 41.4008 
3 *281:12 *1533:A2 42.3381 
*END

*D_NET *282 0.00123845
*CONN
*I *1787:A I *D sg13cmos5l_inv_1
*I *1786:Y O *D sg13cmos5l_inv_1
*CAP
1 *1787:A 0.000183378
2 *1786:Y 0.000252469
3 *282:10 0.000435848
4 *1786:A *282:10 7.94957e-05
5 *281:12 *1787:A 0
6 *281:12 *282:10 0.000287256
*RES
1 *1786:Y *282:10 41.8746 
2 *282:10 *1787:A 41.1845 
*END

*D_NET *283 0.000726995
*CONN
*I *1788:A I *D sg13cmos5l_inv_1
*I *1787:Y O *D sg13cmos5l_inv_1
*CAP
1 *1788:A 0.000159409
2 *1787:Y 0.000204088
3 *283:8 0.000363497
4 *1788:A *1798:A 0
5 *1788:A *1802:A 0
6 *1788:A *1803:A 0
7 *254:22 *283:8 0
*RES
1 *1787:Y *283:8 41.5862 
2 *283:8 *1788:A 41.4008 
*END

*D_NET *284 0.000971736
*CONN
*I *1789:A I *D sg13cmos5l_inv_1
*I *1788:Y O *D sg13cmos5l_inv_1
*CAP
1 *1789:A 0
2 *1788:Y 0.000315265
3 *284:10 0.000315265
4 *284:10 *1793:A 0
5 *284:10 *1798:A 0
6 *284:10 *1799:A 0
7 *284:10 *287:12 0.000341205
8 *284:10 *293:10 0
9 *277:30 *284:10 0
*RES
1 *1788:Y *284:10 43.2033 
2 *284:10 *1789:A 40 
*END

*D_NET *285 0.00156368
*CONN
*I *1790:A I *D sg13cmos5l_inv_1
*I *1789:Y O *D sg13cmos5l_inv_1
*CAP
1 *1790:A 3.1205e-05
2 *1789:Y 0.000420108
3 *285:8 0.000451313
4 *285:8 *287:12 0
5 *258:18 *1790:A 0
6 *277:30 *1790:A 0
7 *277:30 *285:8 0.000661058
*RES
1 *1789:Y *285:8 44.5526 
2 *285:8 *1790:A 40.3193 
*END

*D_NET *286 9.45957e-05
*CONN
*I *1791:A I *D sg13cmos5l_inv_1
*I *1790:Y O *D sg13cmos5l_inv_1
*CAP
1 *1791:A 4.72978e-05
2 *1790:Y 4.72978e-05
*RES
1 *1790:Y *1791:A 40.5974 
*END

*D_NET *287 0.00324312
*CONN
*I *1792:A I *D sg13cmos5l_inv_1
*I *1791:Y O *D sg13cmos5l_inv_1
*CAP
1 *1792:A 0
2 *1791:Y 0
3 *287:12 0.000975675
4 *287:6 0.000975675
5 *287:12 *288:8 0.000608855
6 *258:18 *287:12 0
7 *261:8 *287:12 0
8 *264:8 *287:12 0
9 *277:30 *287:12 0
10 *280:8 *287:12 0.000341707
11 *284:10 *287:12 0.000341205
12 *285:8 *287:12 0
*RES
1 *1791:Y *287:6 40 
2 *287:6 *287:12 30.8047 
3 *287:12 *1792:A 20 
*END

*D_NET *288 0.00121229
*CONN
*I *1793:A I *D sg13cmos5l_inv_1
*I *1792:Y O *D sg13cmos5l_inv_1
*CAP
1 *1793:A 6.18376e-05
2 *1792:Y 0.00023988
3 *288:8 0.000301717
4 *1793:A *1794:A 0
5 *1793:A *1799:A 0
6 *288:8 *293:10 0
7 *258:18 *288:8 0
8 *277:30 *288:8 0
9 *284:10 *1793:A 0
10 *287:12 *288:8 0.000608855
*RES
1 *1792:Y *288:8 43.0694 
2 *288:8 *1793:A 40.5356 
*END

*D_NET *289 0.000232616
*CONN
*I *1794:A I *D sg13cmos5l_inv_1
*I *1793:Y O *D sg13cmos5l_inv_1
*CAP
1 *1794:A 0.000116308
2 *1793:Y 0.000116308
3 *1794:A *1798:A 0
4 *1794:A *1799:A 0
5 *1793:A *1794:A 0
*RES
1 *1793:Y *1794:A 41.3802 
*END

*D_NET *290 0.000654745
*CONN
*I *1795:A I *D sg13cmos5l_inv_1
*I *1784:Y O *D sg13cmos5l_inv_1
*CAP
1 *1795:A 0.000271037
2 *1784:Y 0.000271037
3 *1795:A *1529:S0 0
4 *1795:A *1818:A 0.000112671
5 *1795:A *1829:A 0
6 *1795:A *2021:A 0
7 *1795:A *1078:51 0
8 *1751:A *1795:A 0
9 *1784:A *1795:A 0
*RES
1 *1784:Y *1795:A 42.8428 
*END

*D_NET *291 0.000101364
*CONN
*I *1797:A I *D sg13cmos5l_inv_1
*I *1794:Y O *D sg13cmos5l_inv_1
*CAP
1 *1797:A 5.0682e-05
2 *1794:Y 5.0682e-05
3 *1797:A *1798:A 0
*RES
1 *1794:Y *1797:A 40.5974 
*END

*D_NET *292 0.000660912
*CONN
*I *1798:A I *D sg13cmos5l_inv_1
*I *1797:Y O *D sg13cmos5l_inv_1
*CAP
1 *1798:A 0.000274614
2 *1797:Y 0.000274614
3 *1798:A *1800:A 0
4 *1798:A *1803:A 0
5 *1798:A *293:10 0.000111683
6 *1788:A *1798:A 0
7 *1794:A *1798:A 0
8 *1797:A *1798:A 0
9 *284:10 *1798:A 0
*RES
1 *1797:Y *1798:A 43.0591 
*END

*D_NET *293 0.000966076
*CONN
*I *1799:A I *D sg13cmos5l_inv_1
*I *1798:Y O *D sg13cmos5l_inv_1
*CAP
1 *1799:A 9.64987e-05
2 *1798:Y 0.000306895
3 *293:10 0.000403394
4 *1799:A *1800:A 4.76053e-05
5 *1799:A *1863:A 0
6 *1799:A *1864:A 0
7 *293:10 *295:8 0
8 *1793:A *1799:A 0
9 *1794:A *1799:A 0
10 *1798:A *293:10 0.000111683
11 *258:18 *293:10 0
12 *284:10 *1799:A 0
13 *284:10 *293:10 0
14 *288:8 *293:10 0
*RES
1 *1798:Y *293:10 42.8325 
2 *293:10 *1799:A 40.9682 
*END

*D_NET *294 0.000620922
*CONN
*I *1800:A I *D sg13cmos5l_inv_1
*I *1799:Y O *D sg13cmos5l_inv_1
*CAP
1 *1800:A 0.000286658
2 *1799:Y 0.000286658
3 *1800:A *1801:A 0
4 *1800:A *1802:A 0
5 *1800:A *1803:A 0
6 *1800:A *1863:A 0
7 *1798:A *1800:A 0
8 *1799:A *1800:A 4.76053e-05
*RES
1 *1799:Y *1800:A 43.0591 
*END

*D_NET *295 0.000407703
*CONN
*I *1801:A I *D sg13cmos5l_inv_1
*I *1800:Y O *D sg13cmos5l_inv_1
*CAP
1 *1801:A 5.51831e-05
2 *1800:Y 0.000148668
3 *295:8 0.000203852
4 *1801:A *1802:A 0
5 *1800:A *1801:A 0
6 *258:18 *295:8 0
7 *293:10 *295:8 0
*RES
1 *1800:Y *295:8 41.339 
2 *295:8 *1801:A 40.4481 
*END

*D_NET *296 0.000268045
*CONN
*I *1802:A I *D sg13cmos5l_inv_1
*I *1801:Y O *D sg13cmos5l_inv_1
*CAP
1 *1802:A 0.000134022
2 *1801:Y 0.000134022
3 *1802:A *1806:A 0
4 *1802:A *1814:A 0
5 *1788:A *1802:A 0
6 *1800:A *1802:A 0
7 *1801:A *1802:A 0
8 *272:30 *1802:A 0
*RES
1 *1801:Y *1802:A 41.3802 
*END

*D_NET *297 0.000520391
*CONN
*I *1803:A I *D sg13cmos5l_inv_1
*I *1802:Y O *D sg13cmos5l_inv_1
*CAP
1 *1803:A 0.000260195
2 *1802:Y 0.000260195
3 *1803:A *1805:A 0
4 *1803:A *298:6 0
5 *1803:A *298:27 0
6 *1788:A *1803:A 0
7 *1798:A *1803:A 0
8 *1800:A *1803:A 0
9 *272:30 *1803:A 0
*RES
1 *1802:Y *1803:A 42.467 
*END

*D_NET *298 0.00129577
*CONN
*I *1533:A3 I *D sg13cmos5l_mux4_1
*I *1804:A I *D sg13cmos5l_inv_1
*I *1803:Y O *D sg13cmos5l_inv_1
*CAP
1 *1533:A3 0
2 *1804:A 7.95202e-05
3 *1803:Y 8.28055e-05
4 *298:27 0.000308522
5 *298:6 0.000470847
6 *298:27 *1806:A 0.000209676
7 *298:27 *1081:25 0
8 *1533:A2 *298:27 0.000112717
9 *1786:A *298:27 0
10 *1803:A *298:6 0
11 *1803:A *298:27 0
12 *272:30 *298:27 3.1684e-05
*RES
1 *1803:Y *298:6 20.8446 
2 *298:6 *1804:A 20.7519 
3 *298:6 *298:27 43.4041 
4 *298:27 *1533:A3 20 
*END

*D_NET *299 0.000115354
*CONN
*I *1805:A I *D sg13cmos5l_inv_1
*I *1804:Y O *D sg13cmos5l_inv_1
*CAP
1 *1805:A 5.76769e-05
2 *1804:Y 5.76769e-05
3 *1803:A *1805:A 0
*RES
1 *1804:Y *1805:A 40.5974 
*END

*D_NET *300 0.00128801
*CONN
*I *1806:A I *D sg13cmos5l_inv_1
*I *1805:Y O *D sg13cmos5l_inv_1
*CAP
1 *1806:A 0.000539166
2 *1805:Y 0.000539166
3 *1806:A *1081:14 0
4 *1806:A *1081:25 0
5 *1802:A *1806:A 0
6 *272:30 *1806:A 0
7 *298:27 *1806:A 0.000209676
*RES
1 *1805:Y *1806:A 45.4899 
*END

*D_NET *301 0.00108378
*CONN
*I *1807:A I *D sg13cmos5l_inv_1
*I *1795:Y O *D sg13cmos5l_inv_1
*CAP
1 *1807:A 0.00022507
2 *1795:Y 0.00011596
3 *301:8 0.00034103
4 *1807:A *1818:A 0.000386317
5 *1807:A *1829:A 1.54008e-05
6 *1807:A *1840:A 0
7 *1807:A *1989:A 0
8 *1807:A *1076:80 0
9 *268:8 *301:8 0
*RES
1 *1795:Y *301:8 41.339 
2 *301:8 *1807:A 42.5962 
*END

*D_NET *302 0.00129908
*CONN
*I *1808:A I *D sg13cmos5l_inv_1
*I *1806:Y O *D sg13cmos5l_inv_1
*CAP
1 *1808:A 5.61002e-05
2 *1806:Y 0.000264972
3 *302:8 0.000321072
4 *302:8 *1078:8 0.000341619
5 *302:8 *1082:48 0.000235228
6 *272:30 *1808:A 8.00842e-05
*RES
1 *1806:Y *302:8 42.8222 
2 *302:8 *1808:A 40.5356 
*END

*D_NET *303 0.000652285
*CONN
*I *1809:A I *D sg13cmos5l_inv_1
*I *1808:Y O *D sg13cmos5l_inv_1
*CAP
1 *1809:A 0.000224638
2 *1808:Y 0.000224638
3 *1809:A *1078:16 0.000127958
4 *255:14 *1809:A 0
5 *272:30 *1809:A 7.50503e-05
*RES
1 *1808:Y *1809:A 42.3175 
*END

*D_NET *304 0.000135538
*CONN
*I *1810:A I *D sg13cmos5l_inv_1
*I *1809:Y O *D sg13cmos5l_inv_1
*CAP
1 *1810:A 6.77691e-05
2 *1809:Y 6.77691e-05
*RES
1 *1809:Y *1810:A 40.5974 
*END

*D_NET *305 0.000425324
*CONN
*I *1811:A I *D sg13cmos5l_inv_1
*I *1810:Y O *D sg13cmos5l_inv_1
*CAP
1 *1811:A 0.000212662
2 *1810:Y 0.000212662
3 *1811:A *1812:A 0
4 *1811:A *1078:16 0
5 *254:22 *1811:A 0
6 *255:14 *1811:A 0
*RES
1 *1810:Y *1811:A 41.751 
*END

*D_NET *306 0.000540632
*CONN
*I *1812:A I *D sg13cmos5l_inv_1
*I *1811:Y O *D sg13cmos5l_inv_1
*CAP
1 *1812:A 0.000230568
2 *1811:Y 0.000230568
3 *1812:A *307:10 7.94957e-05
4 *1811:A *1812:A 0
5 *254:22 *1812:A 0
6 *272:30 *1812:A 0
*RES
1 *1811:Y *1812:A 42.2145 
*END

*D_NET *307 0.000972761
*CONN
*I *1813:A I *D sg13cmos5l_inv_1
*I *1812:Y O *D sg13cmos5l_inv_1
*CAP
1 *1813:A 9.71159e-05
2 *1812:Y 0.000263478
3 *307:10 0.000360594
4 *307:10 *1078:29 0
5 *307:10 *1081:25 0
6 *1812:A *307:10 7.94957e-05
7 *272:30 *1813:A 0.000172077
*RES
1 *1812:Y *307:10 41.8746 
2 *307:10 *1813:A 41.151 
*END

*D_NET *308 0.000274679
*CONN
*I *1814:A I *D sg13cmos5l_inv_1
*I *1813:Y O *D sg13cmos5l_inv_1
*CAP
1 *1814:A 0.000122162
2 *1813:Y 0.000122162
3 *1814:A *309:10 1.54008e-05
4 *1802:A *1814:A 0
5 *272:30 *1814:A 1.49544e-05
*RES
1 *1813:Y *1814:A 41.1353 
*END

*D_NET *309 0.000900796
*CONN
*I *1815:A I *D sg13cmos5l_inv_1
*I *1814:Y O *D sg13cmos5l_inv_1
*CAP
1 *1815:A 5.06592e-05
2 *1814:Y 0.000179802
3 *309:10 0.000230461
4 *1814:A *309:10 1.54008e-05
5 *254:22 *1815:A 8.00842e-05
6 *272:30 *309:10 0.000344389
*RES
1 *1814:Y *309:10 41.9055 
2 *309:10 *1815:A 40.5356 
*END

*D_NET *310 0.000129475
*CONN
*I *1816:A I *D sg13cmos5l_inv_1
*I *1815:Y O *D sg13cmos5l_inv_1
*CAP
1 *1816:A 6.47374e-05
2 *1815:Y 6.47374e-05
*RES
1 *1815:Y *1816:A 40.5974 
*END

*D_NET *311 0.000540832
*CONN
*I *1817:A I *D sg13cmos5l_inv_1
*I *1816:Y O *D sg13cmos5l_inv_1
*CAP
1 *1817:A 0.000149473
2 *1816:Y 0.000149473
3 *254:22 *1817:A 0
4 *256:28 *1817:A 0.000241886
5 *267:18 *1817:A 0
*RES
1 *1816:Y *1817:A 41.6171 
*END

*D_NET *312 0.0011229
*CONN
*I *1818:A I *D sg13cmos5l_inv_1
*I *1807:Y O *D sg13cmos5l_inv_1
*CAP
1 *1818:A 0.000311954
2 *1807:Y 0.000311954
3 *1818:A *1829:A 0
4 *1818:A *1840:A 0
5 *1818:A *2021:A 0
6 *1818:A *1076:80 0
7 *1818:A *1078:51 0
8 *1773:A *1818:A 0
9 *1795:A *1818:A 0.000112671
10 *1807:A *1818:A 0.000386317
*RES
1 *1807:Y *1818:A 43.811 
*END

*D_NET *313 0.000416946
*CONN
*I *1819:A I *D sg13cmos5l_inv_1
*I *1817:Y O *D sg13cmos5l_inv_1
*CAP
1 *1819:A 3.03288e-05
2 *1817:Y 6.36338e-05
3 *313:8 9.39626e-05
4 *313:8 *1078:29 0.000181279
5 *256:28 *1819:A 4.77425e-05
6 *267:18 *313:8 0
*RES
1 *1817:Y *313:8 40.8446 
2 *313:8 *1819:A 40.3193 
*END

*D_NET *314 9.45957e-05
*CONN
*I *1820:A I *D sg13cmos5l_inv_1
*I *1819:Y O *D sg13cmos5l_inv_1
*CAP
1 *1820:A 4.72978e-05
2 *1819:Y 4.72978e-05
3 *1820:A *1878:A 0
4 *1820:A *1879:A 0
*RES
1 *1819:Y *1820:A 40.5974 
*END

*D_NET *315 9.57626e-05
*CONN
*I *1821:A I *D sg13cmos5l_inv_1
*I *1820:Y O *D sg13cmos5l_inv_1
*CAP
1 *1821:A 4.78813e-05
2 *1820:Y 4.78813e-05
3 *1821:A *1878:A 0
4 *270:14 *1821:A 0
*RES
1 *1820:Y *1821:A 40.5974 
*END

*D_NET *316 0.00110164
*CONN
*I *1534:A0 I *D sg13cmos5l_mux4_1
*I *1822:A I *D sg13cmos5l_inv_1
*I *1821:Y O *D sg13cmos5l_inv_1
*CAP
1 *1534:A0 2.86402e-05
2 *1822:A 0.000204411
3 *1821:Y 6.6747e-05
4 *316:10 0.000233051
5 *316:8 6.6747e-05
6 *1534:A0 *1534:S0 1.54008e-05
7 *1822:A *351:35 0
8 *1822:A *369:12 0.000177203
9 *316:8 *369:12 7.51285e-05
10 *316:8 *1078:29 0.000234311
11 *273:18 *1822:A 0
*RES
1 *1821:Y *316:8 41.0918 
2 *316:8 *316:10 20 
3 *316:10 *1822:A 21.7681 
4 *316:10 *1534:A0 20.3193 
*END

*D_NET *317 0.000188543
*CONN
*I *1823:A I *D sg13cmos5l_inv_1
*I *1822:Y O *D sg13cmos5l_inv_1
*CAP
1 *1823:A 9.42713e-05
2 *1822:Y 9.42713e-05
3 *1823:A *1874:A 0
*RES
1 *1822:Y *1823:A 40.9167 
*END

*D_NET *318 0.000308724
*CONN
*I *1824:A I *D sg13cmos5l_inv_1
*I *1823:Y O *D sg13cmos5l_inv_1
*CAP
1 *1824:A 0.000154362
2 *1823:Y 0.000154362
*RES
1 *1823:Y *1824:A 41.5888 
*END

*D_NET *319 0.000238291
*CONN
*I *1825:A I *D sg13cmos5l_inv_1
*I *1824:Y O *D sg13cmos5l_inv_1
*CAP
1 *1825:A 0.000119146
2 *1824:Y 0.000119146
3 *1825:A *1874:A 0
4 *1780:A *1825:A 0
*RES
1 *1824:Y *1825:A 41.3107 
*END

*D_NET *320 0.000546442
*CONN
*I *1826:A I *D sg13cmos5l_inv_1
*I *1825:Y O *D sg13cmos5l_inv_1
*CAP
1 *1826:A 0.000225479
2 *1825:Y 0.000225479
3 *1826:A *351:27 9.5485e-05
4 *1778:A *1826:A 0
5 *1779:A *1826:A 0
6 *1780:A *1826:A 0
*RES
1 *1825:Y *1826:A 42.1012 
*END

*D_NET *321 0.000426284
*CONN
*I *1827:A I *D sg13cmos5l_inv_1
*I *1826:Y O *D sg13cmos5l_inv_1
*CAP
1 *1827:A 5.08741e-05
2 *1826:Y 5.80487e-05
3 *321:8 0.000108923
4 *1778:A *1827:A 8.00842e-05
5 *272:30 *321:8 0.000128355
*RES
1 *1826:Y *321:8 40.5974 
2 *321:8 *1827:A 40.5356 
*END

*D_NET *322 0.000129475
*CONN
*I *1828:A I *D sg13cmos5l_inv_1
*I *1827:Y O *D sg13cmos5l_inv_1
*CAP
1 *1828:A 6.47374e-05
2 *1827:Y 6.47374e-05
*RES
1 *1827:Y *1828:A 40.5974 
*END

*D_NET *323 0.000244601
*CONN
*I *1829:A I *D sg13cmos5l_inv_1
*I *1818:Y O *D sg13cmos5l_inv_1
*CAP
1 *1829:A 0.0001146
2 *1818:Y 0.0001146
3 *1829:A *1076:80 0
4 *1829:A *1078:51 0
5 *1795:A *1829:A 0
6 *1807:A *1829:A 1.54008e-05
7 *1818:A *1829:A 0
*RES
1 *1818:Y *1829:A 41.3802 
*END

*D_NET *324 0.000129475
*CONN
*I *1830:A I *D sg13cmos5l_inv_1
*I *1828:Y O *D sg13cmos5l_inv_1
*CAP
1 *1830:A 6.47374e-05
2 *1828:Y 6.47374e-05
*RES
1 *1828:Y *1830:A 40.5974 
*END

*D_NET *325 0.000873667
*CONN
*I *1831:A I *D sg13cmos5l_inv_1
*I *1830:Y O *D sg13cmos5l_inv_1
*CAP
1 *1831:A 0.000135929
2 *1830:Y 0.000300904
3 *325:10 0.000436833
4 *325:10 *333:8 0
*RES
1 *1830:Y *325:10 41.8746 
2 *325:10 *1831:A 41.1845 
*END

*D_NET *326 0.000167771
*CONN
*I *1832:A I *D sg13cmos5l_inv_1
*I *1831:Y O *D sg13cmos5l_inv_1
*CAP
1 *1832:A 8.38853e-05
2 *1831:Y 8.38853e-05
3 *1832:A *1841:A 0
4 *1832:A *1842:A 0
*RES
1 *1831:Y *1832:A 40.8446 
*END

*D_NET *327 0.000390205
*CONN
*I *1833:A I *D sg13cmos5l_inv_1
*I *1832:Y O *D sg13cmos5l_inv_1
*CAP
1 *1833:A 0.000195102
2 *1832:Y 0.000195102
3 *1833:A *1838:A 0
4 *1833:A *1839:A 0
5 *1640:A *1833:A 0
*RES
1 *1832:Y *1833:A 41.9673 
*END

*D_NET *328 0.000104819
*CONN
*I *1834:A I *D sg13cmos5l_inv_1
*I *1833:Y O *D sg13cmos5l_inv_1
*CAP
1 *1834:A 5.24094e-05
2 *1833:Y 5.24094e-05
3 *1834:A *1836:A 0
*RES
1 *1833:Y *1834:A 40.5974 
*END

*D_NET *329 0.000322082
*CONN
*I *1835:A I *D sg13cmos5l_inv_1
*I *1834:Y O *D sg13cmos5l_inv_1
*CAP
1 *1835:A 0.000161041
2 *1834:Y 0.000161041
3 *1835:A *1838:A 0
*RES
1 *1834:Y *1835:A 41.4008 
*END

*D_NET *330 0.000292174
*CONN
*I *1836:A I *D sg13cmos5l_inv_1
*I *1835:Y O *D sg13cmos5l_inv_1
*CAP
1 *1836:A 0.000146087
2 *1835:Y 0.000146087
3 *1836:A *1837:A 0
4 *1834:A *1836:A 0
*RES
1 *1835:Y *1836:A 41.3802 
*END

*D_NET *331 0.00616547
*CONN
*I *1557:A I *D sg13cmos5l_buf_1
*I *1837:A I *D sg13cmos5l_inv_1
*I *1836:Y O *D sg13cmos5l_inv_1
*CAP
1 *1557:A 0.000117782
2 *1837:A 0.000283531
3 *1836:Y 2.35541e-05
4 *331:25 0.00258113
5 *331:6 0.00277044
6 *1557:A *1977:A 4.79124e-05
7 *1557:A *2013:A 0
8 *1837:A *1535:S 0
9 *331:25 *2016:A 0
10 *331:25 *450:10 0
11 *331:25 *452:10 0
12 *331:25 *476:8 0
13 *331:25 *510:10 0
14 *331:25 *513:12 0
15 *331:25 *518:8 0
16 *331:25 *525:10 0
17 *331:25 *1076:72 0.00034112
18 *331:25 *1078:47 0
19 *1591:A *1837:A 0
20 *1591:A *331:6 0
21 *1708:A *331:25 0
22 *1713:A *331:25 0
23 *1714:A *331:25 0
24 *1717:A *331:25 0
25 *1722:A *331:25 0
26 *1723:A *331:25 0
27 *1725:A *331:25 0
28 *1726:A *331:25 0
29 *1836:A *1837:A 0
30 *206:8 *331:25 0
31 *207:25 *331:25 0
32 *210:8 *331:25 0
*RES
1 *1836:Y *331:6 20.3193 
2 *331:6 *1837:A 22.5544 
3 *331:6 *331:25 45.5028 
4 *331:25 *1557:A 41.1845 
*END

*D_NET *332 0.000484014
*CONN
*I *1838:A I *D sg13cmos5l_inv_1
*I *1837:Y O *D sg13cmos5l_inv_1
*CAP
1 *1838:A 0.000242007
2 *1837:Y 0.000242007
3 *1838:A *1535:S 0
4 *1833:A *1838:A 0
5 *1835:A *1838:A 0
*RES
1 *1837:Y *1838:A 42.2454 
*END

*D_NET *333 0.00240025
*CONN
*I *1839:A I *D sg13cmos5l_inv_1
*I *1534:A1 I *D sg13cmos5l_mux4_1
*I *1838:Y O *D sg13cmos5l_inv_1
*CAP
1 *1839:A 0.000222362
2 *1534:A1 0.000404381
3 *1838:Y 0.000114812
4 *333:8 0.000741555
5 *1534:A1 *1534:A3 0.00023464
6 *1534:A1 *369:12 0.000128247
7 *1534:A1 *1078:29 0.00055425
8 *1833:A *1839:A 0
9 *53:12 *1534:A1 0
10 *55:20 *1839:A 0
11 *273:18 *1534:A1 0
12 *325:10 *333:8 0
*RES
1 *1838:Y *333:8 41.339 
2 *333:8 *1534:A1 45.047 
3 *333:8 *1839:A 42.0497 
*END

*D_NET *334 0.000112161
*CONN
*I *1840:A I *D sg13cmos5l_inv_1
*I *1829:Y O *D sg13cmos5l_inv_1
*CAP
1 *1840:A 5.60806e-05
2 *1829:Y 5.60806e-05
3 *1807:A *1840:A 0
4 *1818:A *1840:A 0
*RES
1 *1829:Y *1840:A 40.5974 
*END

*D_NET *335 0.000414663
*CONN
*I *1841:A I *D sg13cmos5l_inv_1
*I *1839:Y O *D sg13cmos5l_inv_1
*CAP
1 *1841:A 0.000207332
2 *1839:Y 0.000207332
3 *1596:A *1841:A 0
4 *1776:A *1841:A 0
5 *1832:A *1841:A 0
6 *272:8 *1841:A 0
*RES
1 *1839:Y *1841:A 42.2454 
*END

*D_NET *336 9.45957e-05
*CONN
*I *1842:A I *D sg13cmos5l_inv_1
*I *1841:Y O *D sg13cmos5l_inv_1
*CAP
1 *1842:A 4.72978e-05
2 *1841:Y 4.72978e-05
3 *1832:A *1842:A 0
*RES
1 *1841:Y *1842:A 40.5974 
*END

*D_NET *337 0.000259852
*CONN
*I *1843:A I *D sg13cmos5l_inv_1
*I *1842:Y O *D sg13cmos5l_inv_1
*CAP
1 *1843:A 0
2 *1842:Y 0.000129926
3 *337:8 0.000129926
4 *337:8 *338:10 0
5 *271:10 *337:8 0
*RES
1 *1842:Y *337:8 41.5862 
2 *337:8 *1843:A 40 
*END

*D_NET *338 0.000793779
*CONN
*I *1844:A I *D sg13cmos5l_inv_1
*I *1843:Y O *D sg13cmos5l_inv_1
*CAP
1 *1844:A 5.62013e-05
2 *1843:Y 0.000196187
3 *338:10 0.000252388
4 *1776:A *338:10 0
5 *271:10 *338:10 0.000289002
6 *337:8 *338:10 0
*RES
1 *1843:Y *338:10 42.5235 
2 *338:10 *1844:A 40.5356 
*END

*D_NET *339 0.000228978
*CONN
*I *1845:A I *D sg13cmos5l_inv_1
*I *1844:Y O *D sg13cmos5l_inv_1
*CAP
1 *1845:A 0.000114489
2 *1844:Y 0.000114489
*RES
1 *1844:Y *1845:A 41.3802 
*END

*D_NET *340 9.45957e-05
*CONN
*I *1846:A I *D sg13cmos5l_inv_1
*I *1845:Y O *D sg13cmos5l_inv_1
*CAP
1 *1846:A 4.72978e-05
2 *1845:Y 4.72978e-05
*RES
1 *1845:Y *1846:A 40.5974 
*END

*D_NET *341 9.45957e-05
*CONN
*I *1847:A I *D sg13cmos5l_inv_1
*I *1846:Y O *D sg13cmos5l_inv_1
*CAP
1 *1847:A 4.72978e-05
2 *1846:Y 4.72978e-05
*RES
1 *1846:Y *1847:A 40.5974 
*END

*D_NET *342 9.45957e-05
*CONN
*I *1848:A I *D sg13cmos5l_inv_1
*I *1847:Y O *D sg13cmos5l_inv_1
*CAP
1 *1848:A 4.72978e-05
2 *1847:Y 4.72978e-05
*RES
1 *1847:Y *1848:A 40.5974 
*END

*D_NET *343 9.45957e-05
*CONN
*I *1849:A I *D sg13cmos5l_inv_1
*I *1848:Y O *D sg13cmos5l_inv_1
*CAP
1 *1849:A 4.72978e-05
2 *1848:Y 4.72978e-05
*RES
1 *1848:Y *1849:A 40.5974 
*END

*D_NET *344 9.45957e-05
*CONN
*I *1850:A I *D sg13cmos5l_inv_1
*I *1849:Y O *D sg13cmos5l_inv_1
*CAP
1 *1850:A 4.72978e-05
2 *1849:Y 4.72978e-05
3 *1779:A *1850:A 0
*RES
1 *1849:Y *1850:A 40.5974 
*END

*D_NET *345 9.50856e-05
*CONN
*I *1851:A I *D sg13cmos5l_inv_1
*I *1840:Y O *D sg13cmos5l_inv_1
*CAP
1 *1851:A 4.75428e-05
2 *1840:Y 4.75428e-05
3 *1851:A *1989:A 0
*RES
1 *1840:Y *1851:A 40.5974 
*END

*D_NET *346 9.45957e-05
*CONN
*I *1852:A I *D sg13cmos5l_inv_1
*I *1850:Y O *D sg13cmos5l_inv_1
*CAP
1 *1852:A 4.72978e-05
2 *1850:Y 4.72978e-05
3 *1779:A *1852:A 0
4 *1780:A *1852:A 0
*RES
1 *1850:Y *1852:A 40.5974 
*END

*D_NET *347 9.45957e-05
*CONN
*I *1853:A I *D sg13cmos5l_inv_1
*I *1852:Y O *D sg13cmos5l_inv_1
*CAP
1 *1853:A 4.72978e-05
2 *1852:Y 4.72978e-05
3 *1780:A *1853:A 0
*RES
1 *1852:Y *1853:A 40.5974 
*END

*D_NET *348 0.000518926
*CONN
*I *1854:A I *D sg13cmos5l_inv_1
*I *1853:Y O *D sg13cmos5l_inv_1
*CAP
1 *1854:A 3.49189e-05
2 *1853:Y 8.04573e-05
3 *348:8 0.000115376
4 *348:8 *351:12 0
5 *1775:A *348:8 0.000288173
6 *270:24 *1854:A 0
*RES
1 *1853:Y *348:8 41.339 
2 *348:8 *1854:A 40.3193 
*END

*D_NET *349 0.000228978
*CONN
*I *1855:A I *D sg13cmos5l_inv_1
*I *1854:Y O *D sg13cmos5l_inv_1
*CAP
1 *1855:A 0.000114489
2 *1854:Y 0.000114489
*RES
1 *1854:Y *1855:A 41.3802 
*END

*D_NET *350 0.000377918
*CONN
*I *1856:A I *D sg13cmos5l_inv_1
*I *1855:Y O *D sg13cmos5l_inv_1
*CAP
1 *1856:A 0.000181259
2 *1855:Y 0.000181259
3 *1856:A *351:12 1.54008e-05
4 *1779:A *1856:A 0
5 *270:24 *1856:A 0
*RES
1 *1855:Y *1856:A 41.9673 
*END

*D_NET *351 0.00302657
*CONN
*I *1534:A2 I *D sg13cmos5l_mux4_1
*I *1857:A I *D sg13cmos5l_inv_1
*I *1856:Y O *D sg13cmos5l_inv_1
*CAP
1 *1534:A2 0
2 *1857:A 0
3 *1856:Y 0
4 *351:35 0.000238675
5 *351:27 0.000688387
6 *351:12 0.00039235
7 *351:4 0.000842061
8 *351:12 *365:8 0.000181279
9 *351:27 *1874:A 0
10 *351:35 *1534:A3 0
11 *351:35 *1875:A 4.77425e-05
12 *1775:A *351:12 0
13 *1822:A *351:35 0
14 *1826:A *351:27 9.5485e-05
15 *1856:A *351:12 1.54008e-05
16 *267:26 *351:12 0
17 *272:30 *351:27 0.000289113
18 *273:18 *351:35 0.000236081
19 *276:8 *351:12 0
20 *348:8 *351:12 0
*RES
1 *1856:Y *351:4 20 
2 *351:4 *351:12 44.0994 
3 *351:12 *1857:A 20 
4 *351:4 *351:27 44.1406 
5 *351:27 *351:35 42.3381 
6 *351:35 *1534:A2 20 
*END

*D_NET *352 0.000160708
*CONN
*I *1858:A I *D sg13cmos5l_inv_1
*I *1857:Y O *D sg13cmos5l_inv_1
*CAP
1 *1858:A 8.03539e-05
2 *1857:Y 8.03539e-05
3 *1858:A *1868:A 0
4 *1858:A *1870:A 0
5 *256:28 *1858:A 0
*RES
1 *1857:Y *1858:A 40.9167 
*END

*D_NET *353 0.00023648
*CONN
*I *1859:A I *D sg13cmos5l_inv_1
*I *1858:Y O *D sg13cmos5l_inv_1
*CAP
1 *1859:A 0
2 *1858:Y 0.00011824
3 *353:8 0.00011824
4 *353:8 *359:8 0
5 *258:18 *353:8 0
*RES
1 *1858:Y *353:8 41.0918 
2 *353:8 *1859:A 40 
*END

*D_NET *354 9.45957e-05
*CONN
*I *1860:A I *D sg13cmos5l_inv_1
*I *1859:Y O *D sg13cmos5l_inv_1
*CAP
1 *1860:A 4.72978e-05
2 *1859:Y 4.72978e-05
*RES
1 *1859:Y *1860:A 40.5974 
*END

*D_NET *355 0.000107701
*CONN
*I *1861:A I *D sg13cmos5l_inv_1
*I *1860:Y O *D sg13cmos5l_inv_1
*CAP
1 *1861:A 5.38503e-05
2 *1860:Y 5.38503e-05
3 *1861:A *1863:A 0
*RES
1 *1860:Y *1861:A 40.5974 
*END

*D_NET *356 0.00232882
*CONN
*I *1529:A1 I *D sg13cmos5l_mux4_1
*I *1862:A I *D sg13cmos5l_inv_1
*I *1851:Y O *D sg13cmos5l_inv_1
*CAP
1 *1529:A1 5.40154e-05
2 *1862:A 0.000491004
3 *1851:Y 0.000518206
4 *356:10 0.00106323
5 *1529:A1 *1529:S1 0
6 *1529:A1 *1530:A1 0
7 *1862:A *1529:S0 0
8 *1862:A *1529:A0 0
9 *1862:A *1906:A 0
10 *1862:A *367:10 7.94957e-05
11 *1862:A *401:24 0
12 *356:10 *1529:A3 0
13 *356:10 *1529:S1 0
14 *356:10 *1530:A1 0
15 *356:10 *711:16 0
16 *356:10 *1076:80 0
17 *1530:A0 *1862:A 0.000122871
*RES
1 *1851:Y *356:10 44.5011 
2 *356:10 *1862:A 44.532 
3 *356:10 *1529:A1 40.5356 
*END

*D_NET *357 0.000462854
*CONN
*I *1863:A I *D sg13cmos5l_inv_1
*I *1861:Y O *D sg13cmos5l_inv_1
*CAP
1 *1863:A 0.000231427
2 *1861:Y 0.000231427
3 *1863:A *1864:A 0
4 *1799:A *1863:A 0
5 *1800:A *1863:A 0
6 *1861:A *1863:A 0
7 *277:24 *1863:A 0
*RES
1 *1861:Y *1863:A 42.4617 
*END

*D_NET *358 0.00023436
*CONN
*I *1864:A I *D sg13cmos5l_inv_1
*I *1863:Y O *D sg13cmos5l_inv_1
*CAP
1 *1864:A 0.00011718
2 *1863:Y 0.00011718
3 *1799:A *1864:A 0
4 *1863:A *1864:A 0
*RES
1 *1863:Y *1864:A 41.3802 
*END

*D_NET *359 0.000395053
*CONN
*I *1865:A I *D sg13cmos5l_inv_1
*I *1864:Y O *D sg13cmos5l_inv_1
*CAP
1 *1865:A 0
2 *1864:Y 0.000197527
3 *359:8 0.000197527
4 *277:30 *359:8 0
5 *353:8 *359:8 0
*RES
1 *1864:Y *359:8 41.8334 
2 *359:8 *1865:A 40 
*END

*D_NET *360 9.45957e-05
*CONN
*I *1866:A I *D sg13cmos5l_inv_1
*I *1865:Y O *D sg13cmos5l_inv_1
*CAP
1 *1866:A 4.72978e-05
2 *1865:Y 4.72978e-05
3 *277:24 *1866:A 0
*RES
1 *1865:Y *1866:A 40.5974 
*END

*D_NET *361 0.00042281
*CONN
*I *1867:A I *D sg13cmos5l_inv_1
*I *1866:Y O *D sg13cmos5l_inv_1
*CAP
1 *1867:A 0.000211405
2 *1866:Y 0.000211405
3 *270:24 *1867:A 0
*RES
1 *1866:Y *1867:A 42.5338 
*END

*D_NET *362 9.45957e-05
*CONN
*I *1868:A I *D sg13cmos5l_inv_1
*I *1867:Y O *D sg13cmos5l_inv_1
*CAP
1 *1868:A 4.72978e-05
2 *1867:Y 4.72978e-05
3 *1858:A *1868:A 0
*RES
1 *1867:Y *1868:A 40.5974 
*END

*D_NET *363 9.68552e-05
*CONN
*I *1869:A I *D sg13cmos5l_inv_1
*I *1868:Y O *D sg13cmos5l_inv_1
*CAP
1 *1869:A 4.84276e-05
2 *1868:Y 4.84276e-05
3 *1869:A *1870:A 0
*RES
1 *1868:Y *1869:A 40.5974 
*END

*D_NET *364 0.000532791
*CONN
*I *1870:A I *D sg13cmos5l_inv_1
*I *1869:Y O *D sg13cmos5l_inv_1
*CAP
1 *1870:A 0.000177737
2 *1869:Y 0.000177737
3 *1858:A *1870:A 0
4 *1869:A *1870:A 0
5 *270:24 *1870:A 0.000177316
6 *277:24 *1870:A 0
*RES
1 *1869:Y *1870:A 41.9673 
*END

*D_NET *365 0.000540947
*CONN
*I *1871:A I *D sg13cmos5l_inv_1
*I *1870:Y O *D sg13cmos5l_inv_1
*CAP
1 *1871:A 3.03288e-05
2 *1870:Y 3.47871e-05
3 *365:8 6.51159e-05
4 *270:24 *1871:A 4.77425e-05
5 *276:8 *365:8 0.000181694
6 *351:12 *365:8 0.000181279
*RES
1 *1870:Y *365:8 40.8446 
2 *365:8 *1871:A 40.3193 
*END

*D_NET *366 0.00012456
*CONN
*I *1872:A I *D sg13cmos5l_inv_1
*I *1871:Y O *D sg13cmos5l_inv_1
*CAP
1 *1872:A 6.22801e-05
2 *1871:Y 6.22801e-05
3 *1872:A *1874:A 0
*RES
1 *1871:Y *1872:A 40.5974 
*END

*D_NET *367 0.00119464
*CONN
*I *1873:A I *D sg13cmos5l_inv_1
*I *1862:Y O *D sg13cmos5l_inv_1
*CAP
1 *1873:A 0.000160266
2 *1862:Y 0.000253679
3 *367:10 0.000413946
4 *367:10 *400:10 0.000287256
5 *1862:A *367:10 7.94957e-05
*RES
1 *1862:Y *367:10 41.8746 
2 *367:10 *1873:A 41.1845 
*END

*D_NET *368 0.000596854
*CONN
*I *1874:A I *D sg13cmos5l_inv_1
*I *1872:Y O *D sg13cmos5l_inv_1
*CAP
1 *1874:A 0.000298427
2 *1872:Y 0.000298427
3 *1823:A *1874:A 0
4 *1825:A *1874:A 0
5 *1872:A *1874:A 0
6 *351:27 *1874:A 0
*RES
1 *1872:Y *1874:A 42.6986 
*END

*D_NET *369 0.00259482
*CONN
*I *1534:A3 I *D sg13cmos5l_mux4_1
*I *1875:A I *D sg13cmos5l_inv_1
*I *1874:Y O *D sg13cmos5l_inv_1
*CAP
1 *1534:A3 0.000145374
2 *1875:A 0.000256282
3 *1874:Y 0.000338885
4 *369:12 0.000740541
5 *369:12 *1078:29 0
6 *1534:A1 *1534:A3 0.00023464
7 *1534:A1 *369:12 0.000128247
8 *1774:A *1875:A 0
9 *1774:A *369:12 0.000112662
10 *1822:A *369:12 0.000177203
11 *273:18 *1875:A 0.000338113
12 *316:8 *369:12 7.51285e-05
13 *351:35 *1534:A3 0
14 *351:35 *1875:A 4.77425e-05
*RES
1 *1874:Y *369:12 43.6153 
2 *369:12 *1875:A 42.6162 
3 *369:12 *1534:A3 41.6274 
*END

*D_NET *370 0.000129475
*CONN
*I *1876:A I *D sg13cmos5l_inv_1
*I *1875:Y O *D sg13cmos5l_inv_1
*CAP
1 *1876:A 6.47374e-05
2 *1875:Y 6.47374e-05
*RES
1 *1875:Y *1876:A 40.5974 
*END

*D_NET *371 0.000543199
*CONN
*I *1877:A I *D sg13cmos5l_inv_1
*I *1876:Y O *D sg13cmos5l_inv_1
*CAP
1 *1877:A 5.50555e-05
2 *1876:Y 0.000216544
3 *371:8 0.000271599
4 *371:8 *1082:48 0
5 *256:28 *1877:A 0
*RES
1 *1876:Y *371:8 41.5862 
2 *371:8 *1877:A 40.5356 
*END

*D_NET *372 0.000116245
*CONN
*I *1878:A I *D sg13cmos5l_inv_1
*I *1877:Y O *D sg13cmos5l_inv_1
*CAP
1 *1878:A 5.81224e-05
2 *1877:Y 5.81224e-05
3 *1820:A *1878:A 0
4 *1821:A *1878:A 0
*RES
1 *1877:Y *1878:A 40.5974 
*END

*D_NET *373 0.000187826
*CONN
*I *1879:A I *D sg13cmos5l_inv_1
*I *1878:Y O *D sg13cmos5l_inv_1
*CAP
1 *1879:A 9.3913e-05
2 *1878:Y 9.3913e-05
3 *1820:A *1879:A 0
*RES
1 *1878:Y *1879:A 40.7077 
*END

*D_NET *374 0.000290188
*CONN
*I *1880:A I *D sg13cmos5l_inv_1
*I *1879:Y O *D sg13cmos5l_inv_1
*CAP
1 *1880:A 0.00010717
2 *1879:Y 0.00010717
3 *256:28 *1880:A 7.58489e-05
*RES
1 *1879:Y *1880:A 41.1047 
*END

*D_NET *375 0.000657147
*CONN
*I *1881:A I *D sg13cmos5l_inv_1
*I *1880:Y O *D sg13cmos5l_inv_1
*CAP
1 *1881:A 0.00026514
2 *1880:Y 0.00026514
3 *1881:A *1882:A 4.77425e-05
4 *1881:A *1883:A 0
5 *255:14 *1881:A 0
6 *256:28 *1881:A 0
7 *267:18 *1881:A 7.91244e-05
*RES
1 *1880:Y *1881:A 42.9149 
*END

*D_NET *376 0.000403344
*CONN
*I *1882:A I *D sg13cmos5l_inv_1
*I *1881:Y O *D sg13cmos5l_inv_1
*CAP
1 *1882:A 2.99958e-05
2 *1881:Y 5.7001e-05
3 *376:8 8.69967e-05
4 *1881:A *1882:A 4.77425e-05
5 *236:8 *376:8 0.000181608
6 *267:10 *376:8 0
*RES
1 *1881:Y *376:8 40.8446 
2 *376:8 *1882:A 40.3193 
*END

*D_NET *377 0.000123076
*CONN
*I *1883:A I *D sg13cmos5l_inv_1
*I *1882:Y O *D sg13cmos5l_inv_1
*CAP
1 *1883:A 6.15379e-05
2 *1882:Y 6.15379e-05
3 *1883:A *1885:A 0
4 *1881:A *1883:A 0
5 *256:28 *1883:A 0
*RES
1 *1882:Y *1883:A 40.5974 
*END

*D_NET *378 0.000473101
*CONN
*I *1884:A I *D sg13cmos5l_inv_1
*I *1873:Y O *D sg13cmos5l_inv_1
*CAP
1 *1884:A 0.000180271
2 *1873:Y 0.000180271
3 *1884:A *389:12 0.000112558
*RES
1 *1873:Y *1884:A 41.751 
*END

*D_NET *379 0.000919399
*CONN
*I *1885:A I *D sg13cmos5l_inv_1
*I *1883:Y O *D sg13cmos5l_inv_1
*CAP
1 *1885:A 0.000422065
2 *1883:Y 0.000422065
3 *1885:A *1886:A 0
4 *1885:A *1083:39 0
5 *1671:A *1885:A 7.52693e-05
6 *1883:A *1885:A 0
7 *256:28 *1885:A 0
*RES
1 *1883:Y *1885:A 44.1612 
*END

*D_NET *380 0.000245486
*CONN
*I *1886:A I *D sg13cmos5l_inv_1
*I *1885:Y O *D sg13cmos5l_inv_1
*CAP
1 *1886:A 0.000115015
2 *1885:Y 0.000115015
3 *1886:A *1888:A 0
4 *1886:A *1889:A 0
5 *1886:A *381:10 1.54556e-05
6 *1886:A *1083:39 0
7 *1885:A *1886:A 0
*RES
1 *1885:Y *1886:A 41.3802 
*END

*D_NET *381 0.000504999
*CONN
*I *1887:A I *D sg13cmos5l_inv_1
*I *1886:Y O *D sg13cmos5l_inv_1
*CAP
1 *1887:A 0
2 *1886:Y 0.000244772
3 *381:10 0.000244772
4 *381:10 *1888:A 0
5 *381:10 *1083:39 0
6 *381:10 *1084:30 0
7 *1687:A *381:10 0
8 *1886:A *381:10 1.54556e-05
*RES
1 *1886:Y *381:10 42.4926 
2 *381:10 *1887:A 40 
*END

*D_NET *382 0.00025738
*CONN
*I *1888:A I *D sg13cmos5l_inv_1
*I *1887:Y O *D sg13cmos5l_inv_1
*CAP
1 *1888:A 0.00012869
2 *1887:Y 0.00012869
3 *1888:A *1891:A 0
4 *1888:A *1083:39 0
5 *1886:A *1888:A 0
6 *381:10 *1888:A 0
*RES
1 *1887:Y *1888:A 41.3802 
*END

*D_NET *383 0.000481177
*CONN
*I *1889:A I *D sg13cmos5l_inv_1
*I *1888:Y O *D sg13cmos5l_inv_1
*CAP
1 *1889:A 0.000240589
2 *1888:Y 0.000240589
3 *1889:A *1891:A 0
4 *1889:A *1081:149 0
5 *1889:A *1083:39 0
6 *1688:A *1889:A 0
7 *1886:A *1889:A 0
*RES
1 *1888:Y *1889:A 42.4617 
*END

*D_NET *384 0.000446373
*CONN
*I *1890:A I *D sg13cmos5l_inv_1
*I *1889:Y O *D sg13cmos5l_inv_1
*CAP
1 *1890:A 0
2 *1889:Y 0.000132296
3 *384:8 0.000132296
4 *384:8 *386:14 0.000181781
5 *384:8 *1084:30 0
6 *20:8 *384:8 0
*RES
1 *1889:Y *384:8 41.5862 
2 *384:8 *1890:A 40 
*END

*D_NET *385 0.000237458
*CONN
*I *1891:A I *D sg13cmos5l_inv_1
*I *1890:Y O *D sg13cmos5l_inv_1
*CAP
1 *1891:A 0.000118729
2 *1890:Y 0.000118729
3 *1891:A *1083:39 0
4 *1888:A *1891:A 0
5 *1889:A *1891:A 0
*RES
1 *1890:Y *1891:A 41.3802 
*END

*D_NET *386 0.00131434
*CONN
*I *1537:A0 I *D sg13cmos5l_mux4_1
*I *1892:A I *D sg13cmos5l_inv_1
*I *1891:Y O *D sg13cmos5l_inv_1
*CAP
1 *1537:A0 0.000134006
2 *1892:A 0
3 *1891:Y 0
4 *386:14 0.000141617
5 *386:4 0.000275623
6 *1537:A0 *1081:53 0.000176614
7 *1537:A0 *1081:66 1.54118e-05
8 *1537:A0 *1081:149 0
9 *386:14 *1538:S1 0
10 *386:14 *1083:39 4.77534e-05
11 *386:14 *1084:30 0
12 *20:8 *386:14 0.000341534
13 *384:8 *386:14 0.000181781
*RES
1 *1891:Y *386:4 20 
2 *386:4 *386:14 42.2248 
3 *386:14 *1892:A 20 
4 *386:4 *1537:A0 21.4008 
*END

*D_NET *387 0.000427316
*CONN
*I *1893:A I *D sg13cmos5l_inv_1
*I *1892:Y O *D sg13cmos5l_inv_1
*CAP
1 *1893:A 0.000213658
2 *1892:Y 0.000213658
3 *1893:A *1896:A 0
4 *1893:A *1083:39 0
*RES
1 *1892:Y *1893:A 42.2145 
*END

*D_NET *388 0.000112161
*CONN
*I *1894:A I *D sg13cmos5l_inv_1
*I *1893:Y O *D sg13cmos5l_inv_1
*CAP
1 *1894:A 5.60806e-05
2 *1893:Y 5.60806e-05
3 *1667:A *1894:A 0
4 *1668:A *1894:A 0
*RES
1 *1893:Y *1894:A 40.5974 
*END

*D_NET *389 0.00123181
*CONN
*I *1895:A I *D sg13cmos5l_inv_1
*I *1884:Y O *D sg13cmos5l_inv_1
*CAP
1 *1895:A 0.000123805
2 *1884:Y 0.00043582
3 *389:12 0.000559624
4 *1895:A *1907:A 0
5 *1895:A *1088:20 0
6 *389:12 *423:8 0
7 *1596:A *1895:A 0
8 *1884:A *389:12 0.000112558
*RES
1 *1884:Y *389:12 43.8625 
2 *389:12 *1895:A 41.1845 
*END

*D_NET *390 0.000765317
*CONN
*I *1896:A I *D sg13cmos5l_inv_1
*I *1894:Y O *D sg13cmos5l_inv_1
*CAP
1 *1896:A 0.000382659
2 *1894:Y 0.000382659
3 *1896:A *1538:S1 0
4 *1896:A *1910:A 0
5 *1896:A *1080:31 0
6 *1896:A *1083:39 0
7 *1538:A3 *1896:A 0
8 *1667:A *1896:A 0
9 *1893:A *1896:A 0
*RES
1 *1894:Y *1896:A 43.6977 
*END

*D_NET *391 0.000105992
*CONN
*I *1897:A I *D sg13cmos5l_inv_1
*I *1896:Y O *D sg13cmos5l_inv_1
*CAP
1 *1897:A 5.29958e-05
2 *1896:Y 5.29958e-05
3 *1897:A *1910:A 0
*RES
1 *1896:Y *1897:A 40.5974 
*END

*D_NET *392 9.45957e-05
*CONN
*I *1898:A I *D sg13cmos5l_inv_1
*I *1897:Y O *D sg13cmos5l_inv_1
*CAP
1 *1898:A 4.72978e-05
2 *1897:Y 4.72978e-05
3 *1898:A *1908:A 0
*RES
1 *1897:Y *1898:A 40.5974 
*END

*D_NET *393 9.45957e-05
*CONN
*I *1899:A I *D sg13cmos5l_inv_1
*I *1898:Y O *D sg13cmos5l_inv_1
*CAP
1 *1899:A 4.72978e-05
2 *1898:Y 4.72978e-05
3 *1899:A *1905:A 0
4 *1899:A *1908:A 0
*RES
1 *1898:Y *1899:A 40.5974 
*END

*D_NET *394 0.000773454
*CONN
*I *1900:A I *D sg13cmos5l_inv_1
*I *1899:Y O *D sg13cmos5l_inv_1
*CAP
1 *1900:A 4.33444e-05
2 *1899:Y 0.000172988
3 *394:8 0.000216332
4 *394:8 *395:8 0.00034079
5 *394:8 *396:8 0
6 *394:8 *1081:53 0
7 *394:8 *1082:33 0
*RES
1 *1899:Y *394:8 42.3278 
2 *394:8 *1900:A 40.3193 
*END

*D_NET *395 0.000660354
*CONN
*I *1901:A I *D sg13cmos5l_inv_1
*I *1900:Y O *D sg13cmos5l_inv_1
*CAP
1 *1901:A 0
2 *1900:Y 0.000159782
3 *395:8 0.000159782
4 *395:8 *396:8 0
5 *395:8 *397:8 0
6 *395:8 *1082:33 0
7 *394:8 *395:8 0.00034079
*RES
1 *1900:Y *395:8 41.8334 
2 *395:8 *1901:A 40 
*END

*D_NET *396 0.000895709
*CONN
*I *1902:A I *D sg13cmos5l_inv_1
*I *1901:Y O *D sg13cmos5l_inv_1
*CAP
1 *1902:A 0.000247923
2 *1901:Y 0.000199932
3 *396:8 0.000447855
4 *396:8 *397:8 0
5 *27:32 *396:8 0
6 *394:8 *396:8 0
7 *395:8 *396:8 0
*RES
1 *1901:Y *396:8 41.8334 
2 *396:8 *1902:A 41.8334 
*END

*D_NET *397 0.000554837
*CONN
*I *1903:A I *D sg13cmos5l_inv_1
*I *1902:Y O *D sg13cmos5l_inv_1
*CAP
1 *1903:A 0
2 *1902:Y 0.000107188
3 *397:8 0.000107188
4 *27:32 *397:8 0.000340462
5 *395:8 *397:8 0
6 *396:8 *397:8 0
*RES
1 *1902:Y *397:8 41.5862 
2 *397:8 *1903:A 40 
*END

*D_NET *398 9.45957e-05
*CONN
*I *1904:A I *D sg13cmos5l_inv_1
*I *1903:Y O *D sg13cmos5l_inv_1
*CAP
1 *1904:A 4.72978e-05
2 *1903:Y 4.72978e-05
*RES
1 *1903:Y *1904:A 40.5974 
*END

*D_NET *399 9.45957e-05
*CONN
*I *1905:A I *D sg13cmos5l_inv_1
*I *1904:Y O *D sg13cmos5l_inv_1
*CAP
1 *1905:A 4.72978e-05
2 *1904:Y 4.72978e-05
3 *1899:A *1905:A 0
*RES
1 *1904:Y *1905:A 40.5974 
*END

*D_NET *400 0.00244846
*CONN
*I *1906:A I *D sg13cmos5l_inv_1
*I *1895:Y O *D sg13cmos5l_inv_1
*CAP
1 *1906:A 0.000166585
2 *1895:Y 0.000477885
3 *400:10 0.00064447
4 *1906:A *1530:A1 0
5 *400:10 *401:24 0.000872268
6 *1640:A *400:10 0
7 *1862:A *1906:A 0
8 *168:8 *400:10 0
9 *367:10 *400:10 0.000287256
*RES
1 *1895:Y *400:10 45.7989 
2 *400:10 *1906:A 41.4008 
*END

*D_NET *401 0.00242467
*CONN
*I *1529:A0 I *D sg13cmos5l_mux4_1
*I *1907:A I *D sg13cmos5l_inv_1
*I *1796:Y O *D sg13cmos5l_inv_1
*CAP
1 *1529:A0 8.19769e-05
2 *1907:A 0.000157231
3 *1796:Y 0.000581707
4 *401:24 0.000506453
5 *1529:A0 *1529:S0 1.54556e-05
6 *1529:A0 *1530:A1 0
7 *1907:A *1796:A 0
8 *1907:A *1088:20 0.000209582
9 *401:24 *1088:14 0
10 *1530:A0 *401:24 0
11 *1640:A *401:24 0
12 *1684:A *401:24 0
13 *1862:A *1529:A0 0
14 *1862:A *401:24 0
15 *1895:A *1907:A 0
16 *168:8 *401:24 0
17 *400:10 *401:24 0.000872268
*RES
1 *1796:Y *1907:A 41.751 
2 *1796:Y *401:24 45.2736 
3 *401:24 *1529:A0 40.7519 
*END

*D_NET *402 9.45957e-05
*CONN
*I *1908:A I *D sg13cmos5l_inv_1
*I *1905:Y O *D sg13cmos5l_inv_1
*CAP
1 *1908:A 4.72978e-05
2 *1905:Y 4.72978e-05
3 *1898:A *1908:A 0
4 *1899:A *1908:A 0
*RES
1 *1905:Y *1908:A 40.5974 
*END

*D_NET *403 0.000207556
*CONN
*I *1909:A I *D sg13cmos5l_inv_1
*I *1908:Y O *D sg13cmos5l_inv_1
*CAP
1 *1909:A 0
2 *1908:Y 3.96108e-05
3 *403:8 3.96108e-05
4 *27:32 *403:8 0.000128334
*RES
1 *1908:Y *403:8 40.5974 
2 *403:8 *1909:A 40 
*END

*D_NET *404 0.000554568
*CONN
*I *1910:A I *D sg13cmos5l_inv_1
*I *1909:Y O *D sg13cmos5l_inv_1
*CAP
1 *1910:A 0.000229372
2 *1909:Y 0.000229372
3 *1910:A *1911:A 9.58248e-05
4 *1910:A *1916:A 0
5 *1910:A *1080:45 0
6 *1910:A *1083:39 0
7 *1896:A *1910:A 0
8 *1897:A *1910:A 0
*RES
1 *1909:Y *1910:A 42.6677 
*END

*D_NET *405 0.00144655
*CONN
*I *1911:A I *D sg13cmos5l_inv_1
*I *1537:A1 I *D sg13cmos5l_mux4_1
*I *1910:Y O *D sg13cmos5l_inv_1
*CAP
1 *1911:A 0.000295782
2 *1537:A1 0
3 *1910:Y 0
4 *405:10 0.000379578
5 *405:4 0.000675361
6 *1911:A *1912:A 0
7 *1911:A *1913:A 0
8 *1911:A *1915:A 0
9 *1911:A *1916:A 0
10 *1911:A *1080:45 0
11 *1911:A *1083:39 0
12 *405:10 *1538:S1 0
13 *405:10 *1081:149 0
14 *1910:A *1911:A 9.58248e-05
15 *27:32 *405:10 0
*RES
1 *1910:Y *405:4 20 
2 *405:4 *405:10 43.811 
3 *405:10 *1537:A1 20 
4 *405:4 *1911:A 23.2507 
*END

*D_NET *406 0.000404268
*CONN
*I *1912:A I *D sg13cmos5l_inv_1
*I *1911:Y O *D sg13cmos5l_inv_1
*CAP
1 *1912:A 0.000202134
2 *1911:Y 0.000202134
3 *1912:A *1913:A 0
4 *1912:A *1914:A 0
5 *1912:A *1915:A 0
6 *1912:A *1083:39 0
7 *1911:A *1912:A 0
*RES
1 *1911:Y *1912:A 42.1218 
*END

*D_NET *407 0.000277176
*CONN
*I *1913:A I *D sg13cmos5l_inv_1
*I *1912:Y O *D sg13cmos5l_inv_1
*CAP
1 *1913:A 0.000119773
2 *1912:Y 0.000119773
3 *1913:A *1914:A 3.7631e-05
4 *1913:A *1080:45 0
5 *1913:A *1083:39 0
6 *1911:A *1913:A 0
7 *1912:A *1913:A 0
*RES
1 *1912:Y *1913:A 41.3802 
*END

*D_NET *408 0.000371017
*CONN
*I *1914:A I *D sg13cmos5l_inv_1
*I *1913:Y O *D sg13cmos5l_inv_1
*CAP
1 *1914:A 0.000166693
2 *1913:Y 0.000166693
3 *1914:A *1080:45 0
4 *1914:A *1083:39 0
5 *1912:A *1914:A 0
6 *1913:A *1914:A 3.7631e-05
*RES
1 *1913:Y *1914:A 41.854 
*END

*D_NET *409 9.79399e-05
*CONN
*I *1915:A I *D sg13cmos5l_inv_1
*I *1914:Y O *D sg13cmos5l_inv_1
*CAP
1 *1915:A 4.897e-05
2 *1914:Y 4.897e-05
3 *1915:A *1920:A 0
4 *1911:A *1915:A 0
5 *1912:A *1915:A 0
*RES
1 *1914:Y *1915:A 40.5974 
*END

*D_NET *410 9.45957e-05
*CONN
*I *1916:A I *D sg13cmos5l_inv_1
*I *1915:Y O *D sg13cmos5l_inv_1
*CAP
1 *1916:A 4.72978e-05
2 *1915:Y 4.72978e-05
3 *1916:A *1920:A 0
4 *1910:A *1916:A 0
5 *1911:A *1916:A 0
*RES
1 *1915:Y *1916:A 40.5974 
*END

*D_NET *411 0.000353154
*CONN
*I *1917:A I *D sg13cmos5l_inv_1
*I *1916:Y O *D sg13cmos5l_inv_1
*CAP
1 *1917:A 0.000176577
2 *1916:Y 0.000176577
3 *1917:A *1919:A 0
4 *1917:A *1080:45 0
5 *1917:A *1083:39 0
*RES
1 *1916:Y *1917:A 41.6171 
*END

*D_NET *412 0.000415572
*CONN
*I *1918:A I *D sg13cmos5l_inv_1
*I *1906:Y O *D sg13cmos5l_inv_1
*CAP
1 *1918:A 0.000207786
2 *1906:Y 0.000207786
3 *1918:A *1995:A 0
4 *1918:A *2017:A 0
5 *1918:A *2051:A 0
*RES
1 *1906:Y *1918:A 42.2454 
*END

*D_NET *413 0.000226804
*CONN
*I *1919:A I *D sg13cmos5l_inv_1
*I *1917:Y O *D sg13cmos5l_inv_1
*CAP
1 *1919:A 0.000113402
2 *1917:Y 0.000113402
3 *1919:A *1080:45 0
4 *1919:A *1083:39 0
5 *1917:A *1919:A 0
*RES
1 *1917:Y *1919:A 41.0106 
*END

*D_NET *414 9.45957e-05
*CONN
*I *1920:A I *D sg13cmos5l_inv_1
*I *1919:Y O *D sg13cmos5l_inv_1
*CAP
1 *1920:A 4.72978e-05
2 *1919:Y 4.72978e-05
3 *1920:A *2183:A 0
4 *1920:A *2185:A 0
5 *1915:A *1920:A 0
6 *1916:A *1920:A 0
*RES
1 *1919:Y *1920:A 40.5974 
*END

*D_NET *415 0.000102861
*CONN
*I *1921:A I *D sg13cmos5l_inv_1
*I *1920:Y O *D sg13cmos5l_inv_1
*CAP
1 *1921:A 0
2 *1920:Y 5.14306e-05
3 *415:8 5.14306e-05
4 *415:8 *1083:49 0
5 *415:8 *1085:12 0
6 *47:20 *415:8 0
*RES
1 *1920:Y *415:8 40.5974 
2 *415:8 *1921:A 40 
*END

*D_NET *416 0.000173134
*CONN
*I *1922:A I *D sg13cmos5l_inv_1
*I *1921:Y O *D sg13cmos5l_inv_1
*CAP
1 *1922:A 8.65668e-05
2 *1921:Y 8.65668e-05
3 *1922:A *2182:A 0
4 *1922:A *1081:86 0
5 *1922:A *1083:39 0
*RES
1 *1921:Y *1922:A 40.9167 
*END

*D_NET *417 9.50856e-05
*CONN
*I *1923:A I *D sg13cmos5l_inv_1
*I *1922:Y O *D sg13cmos5l_inv_1
*CAP
1 *1923:A 4.75428e-05
2 *1922:Y 4.75428e-05
3 *1923:A *1924:A 0
4 *1923:A *2181:A 0
5 *1923:A *2182:A 0
*RES
1 *1922:Y *1923:A 40.5974 
*END

*D_NET *418 0.000391288
*CONN
*I *1924:A I *D sg13cmos5l_inv_1
*I *1923:Y O *D sg13cmos5l_inv_1
*CAP
1 *1924:A 0.000195644
2 *1923:Y 0.000195644
3 *1924:A *1927:A 0
4 *1924:A *1932:A 0
5 *1924:A *1933:A 0
6 *1924:A *1081:86 0
7 *1923:A *1924:A 0
*RES
1 *1923:Y *1924:A 41.9673 
*END

*D_NET *419 0.000163794
*CONN
*I *1925:A I *D sg13cmos5l_inv_1
*I *1924:Y O *D sg13cmos5l_inv_1
*CAP
1 *1925:A 0
2 *1924:Y 8.18968e-05
3 *419:8 8.18968e-05
4 *419:8 *1085:12 0
5 *27:32 *419:8 0
*RES
1 *1924:Y *419:8 40.8446 
2 *419:8 *1925:A 40 
*END

*D_NET *420 0.000413339
*CONN
*I *1926:A I *D sg13cmos5l_inv_1
*I *1925:Y O *D sg13cmos5l_inv_1
*CAP
1 *1926:A 0.000206669
2 *1925:Y 0.000206669
3 *1926:A *1927:A 0
4 *1926:A *1931:A 0
5 *1926:A *1081:86 0
*RES
1 *1925:Y *1926:A 42.1012 
*END

*D_NET *421 0.000236225
*CONN
*I *1927:A I *D sg13cmos5l_inv_1
*I *1926:Y O *D sg13cmos5l_inv_1
*CAP
1 *1927:A 0.000118112
2 *1926:Y 0.000118112
3 *1927:A *1537:A2 0
4 *1927:A *1081:66 0
5 *1927:A *1081:86 0
6 *1924:A *1927:A 0
7 *1926:A *1927:A 0
*RES
1 *1926:Y *1927:A 41.3802 
*END

*D_NET *422 0.000473674
*CONN
*I *1928:A I *D sg13cmos5l_inv_1
*I *1537:A2 I *D sg13cmos5l_mux4_1
*I *1927:Y O *D sg13cmos5l_inv_1
*CAP
1 *1928:A 0
2 *1537:A2 0.000189539
3 *1927:Y 4.72978e-05
4 *422:6 0.000236837
5 *1537:A2 *1081:86 0
6 *1537:A2 *1081:149 0
7 *422:6 *1932:A 0
8 *1927:A *1537:A2 0
*RES
1 *1927:Y *422:6 20.5974 
2 *422:6 *1537:A2 22.0497 
3 *422:6 *1928:A 20 
*END

*D_NET *423 0.00142492
*CONN
*I *1929:A I *D sg13cmos5l_inv_1
*I *1918:Y O *D sg13cmos5l_inv_1
*CAP
1 *1929:A 0
2 *1918:Y 0.000382555
3 *423:8 0.000382555
4 *423:8 *434:10 0
5 *423:8 *1088:20 0.000659812
6 *389:12 *423:8 0
*RES
1 *1918:Y *423:8 45.047 
2 *423:8 *1929:A 40 
*END

*D_NET *424 0.00012456
*CONN
*I *1930:A I *D sg13cmos5l_inv_1
*I *1928:Y O *D sg13cmos5l_inv_1
*CAP
1 *1930:A 6.22801e-05
2 *1928:Y 6.22801e-05
3 *1930:A *1931:A 0
*RES
1 *1928:Y *1930:A 40.5974 
*END

*D_NET *425 0.000428327
*CONN
*I *1931:A I *D sg13cmos5l_inv_1
*I *1930:Y O *D sg13cmos5l_inv_1
*CAP
1 *1931:A 0.000214163
2 *1930:Y 0.000214163
3 *1931:A *1932:A 0
4 *1931:A *1933:A 0
5 *1931:A *1081:86 0
6 *1926:A *1931:A 0
7 *1930:A *1931:A 0
*RES
1 *1930:Y *1931:A 42.2454 
*END

*D_NET *426 0.000271498
*CONN
*I *1932:A I *D sg13cmos5l_inv_1
*I *1931:Y O *D sg13cmos5l_inv_1
*CAP
1 *1932:A 0.000135749
2 *1931:Y 0.000135749
3 *1932:A *1933:A 0
4 *1924:A *1932:A 0
5 *1931:A *1932:A 0
6 *422:6 *1932:A 0
*RES
1 *1931:Y *1932:A 41.3802 
*END

*D_NET *427 0.000719736
*CONN
*I *1933:A I *D sg13cmos5l_inv_1
*I *1932:Y O *D sg13cmos5l_inv_1
*CAP
1 *1933:A 0.00035214
2 *1932:Y 0.00035214
3 *1933:A *1934:A 1.54556e-05
4 *1933:A *1939:A 0
5 *1933:A *1081:86 0
6 *1924:A *1933:A 0
7 *1931:A *1933:A 0
8 *1932:A *1933:A 0
*RES
1 *1932:Y *1933:A 43.4093 
*END

*D_NET *428 0.000281796
*CONN
*I *1934:A I *D sg13cmos5l_inv_1
*I *1933:Y O *D sg13cmos5l_inv_1
*CAP
1 *1934:A 0.00013317
2 *1933:Y 0.00013317
3 *1934:A *1936:A 0
4 *1934:A *2178:A 0
5 *1934:A *2179:A 0
6 *1934:A *1081:86 0
7 *1933:A *1934:A 1.54556e-05
*RES
1 *1933:Y *1934:A 41.1954 
*END

*D_NET *429 0.000115599
*CONN
*I *1935:A I *D sg13cmos5l_inv_1
*I *1934:Y O *D sg13cmos5l_inv_1
*CAP
1 *1935:A 5.77994e-05
2 *1934:Y 5.77994e-05
3 *1935:A *2179:A 0
*RES
1 *1934:Y *1935:A 40.5974 
*END

*D_NET *430 0.000148755
*CONN
*I *1936:A I *D sg13cmos5l_inv_1
*I *1935:Y O *D sg13cmos5l_inv_1
*CAP
1 *1936:A 7.43773e-05
2 *1935:Y 7.43773e-05
3 *1934:A *1936:A 0
*RES
1 *1935:Y *1936:A 40.9167 
*END

*D_NET *431 9.45957e-05
*CONN
*I *1937:A I *D sg13cmos5l_inv_1
*I *1936:Y O *D sg13cmos5l_inv_1
*CAP
1 *1937:A 4.72978e-05
2 *1936:Y 4.72978e-05
*RES
1 *1936:Y *1937:A 40.5974 
*END

*D_NET *432 9.45957e-05
*CONN
*I *1938:A I *D sg13cmos5l_inv_1
*I *1937:Y O *D sg13cmos5l_inv_1
*CAP
1 *1938:A 4.72978e-05
2 *1937:Y 4.72978e-05
3 *1938:A *1941:A 0
*RES
1 *1937:Y *1938:A 40.5974 
*END

*D_NET *433 0.000385607
*CONN
*I *1939:A I *D sg13cmos5l_inv_1
*I *1938:Y O *D sg13cmos5l_inv_1
*CAP
1 *1939:A 0.000192804
2 *1938:Y 0.000192804
3 *1939:A *1941:A 0
4 *1939:A *1077:19 0
5 *1939:A *1085:12 0
6 *1933:A *1939:A 0
*RES
1 *1938:Y *1939:A 41.9673 
*END

*D_NET *434 0.00101608
*CONN
*I *1940:A I *D sg13cmos5l_inv_1
*I *1929:Y O *D sg13cmos5l_inv_1
*CAP
1 *1940:A 6.21478e-05
2 *1929:Y 0.000445894
3 *434:10 0.000508042
4 *434:10 *2129:A 0
5 *434:10 *2573:A 0
6 *434:10 *1088:20 0
7 *423:8 *434:10 0
*RES
1 *1929:Y *434:10 44.9955 
2 *434:10 *1940:A 40.5356 
*END

*D_NET *435 9.45957e-05
*CONN
*I *1941:A I *D sg13cmos5l_inv_1
*I *1939:Y O *D sg13cmos5l_inv_1
*CAP
1 *1941:A 4.72978e-05
2 *1939:Y 4.72978e-05
3 *1938:A *1941:A 0
4 *1939:A *1941:A 0
*RES
1 *1939:Y *1941:A 40.5974 
*END

*D_NET *436 0.000291491
*CONN
*I *1942:A I *D sg13cmos5l_inv_1
*I *1941:Y O *D sg13cmos5l_inv_1
*CAP
1 *1942:A 0
2 *1941:Y 0.000145746
3 *436:8 0.000145746
4 *436:8 *1085:12 0
5 *27:32 *436:8 0
*RES
1 *1941:Y *436:8 41.5862 
2 *436:8 *1942:A 40 
*END

*D_NET *437 0.000406335
*CONN
*I *1943:A I *D sg13cmos5l_inv_1
*I *1942:Y O *D sg13cmos5l_inv_1
*CAP
1 *1943:A 0.000203168
2 *1942:Y 0.000203168
3 *1943:A *1944:A 0
4 *1540:C *1943:A 0
*RES
1 *1942:Y *1943:A 42.1012 
*END

*D_NET *438 0.000226405
*CONN
*I *1944:A I *D sg13cmos5l_inv_1
*I *1943:Y O *D sg13cmos5l_inv_1
*CAP
1 *1944:A 0.000113202
2 *1943:Y 0.000113202
3 *1539:A0 *1944:A 0
4 *1540:C *1944:A 0
5 *1943:A *1944:A 0
*RES
1 *1943:Y *1944:A 41.3802 
*END

*D_NET *439 9.45957e-05
*CONN
*I *1945:A I *D sg13cmos5l_inv_1
*I *1944:Y O *D sg13cmos5l_inv_1
*CAP
1 *1945:A 4.72978e-05
2 *1944:Y 4.72978e-05
*RES
1 *1944:Y *1945:A 40.5974 
*END

*D_NET *440 0.00198757
*CONN
*I *1537:A3 I *D sg13cmos5l_mux4_1
*I *1946:A I *D sg13cmos5l_inv_1
*I *1945:Y O *D sg13cmos5l_inv_1
*CAP
1 *1537:A3 0
2 *1946:A 0
3 *1945:Y 0.000164061
4 *440:25 0.000424706
5 *440:14 0.00024426
6 *440:6 0.000833027
7 *440:14 *1078:73 0
8 *440:25 *1538:S1 0
9 *440:25 *1078:73 0
10 *1539:A1 *440:14 0
11 *1539:S *440:25 0
12 *1540:C *440:6 0
13 *27:32 *440:25 0
14 *55:20 *440:6 4.77425e-05
15 *55:20 *440:14 0.00027377
16 *192:10 *440:14 0
*RES
1 *1945:Y *440:6 21.6171 
2 *440:6 *440:14 42.4308 
3 *440:14 *1946:A 20 
4 *440:6 *440:25 44.0582 
5 *440:25 *1537:A3 20 
*END

*D_NET *441 0.000507426
*CONN
*I *1947:A I *D sg13cmos5l_inv_1
*I *1946:Y O *D sg13cmos5l_inv_1
*CAP
1 *1947:A 0.000153212
2 *1946:Y 6.04749e-05
3 *441:8 0.000213687
4 *1947:A *1948:A 0
5 *1947:A *1076:32 0
6 *1947:A *1084:30 8.00521e-05
7 *441:8 *1078:73 0
8 *1544:S *1947:A 0
9 *192:10 *441:8 0
*RES
1 *1946:Y *441:8 40.5974 
2 *441:8 *1947:A 41.4008 
*END

*D_NET *442 0.00021612
*CONN
*I *1948:A I *D sg13cmos5l_inv_1
*I *1947:Y O *D sg13cmos5l_inv_1
*CAP
1 *1948:A 0.00010806
2 *1947:Y 0.00010806
3 *1948:A *1541:B 0
4 *1948:A *1076:32 0
5 *1544:S *1948:A 0
6 *1947:A *1948:A 0
*RES
1 *1947:Y *1948:A 41.2669 
*END

*D_NET *443 0.00141057
*CONN
*I *1949:A I *D sg13cmos5l_inv_1
*I *1948:Y O *D sg13cmos5l_inv_1
*CAP
1 *1949:A 5.08741e-05
2 *1948:Y 0.000525498
3 *443:12 0.000576372
4 *443:12 *1541:B 0
5 *443:12 *1076:32 0.000177739
6 *1543:A2 *443:12 0
7 *1544:A1 *1949:A 8.00842e-05
8 *1544:S *443:12 0
9 *1697:A *443:12 0
10 *193:10 *443:12 0
11 *197:8 *443:12 0
*RES
1 *1948:Y *443:12 45.0676 
2 *443:12 *1949:A 40.5356 
*END

*D_NET *444 0.000399188
*CONN
*I *1950:A I *D sg13cmos5l_inv_1
*I *1949:Y O *D sg13cmos5l_inv_1
*CAP
1 *1950:A 0.000199594
2 *1949:Y 0.000199594
3 *1544:A1 *1950:A 0
4 *1546:A2 *1950:A 0
5 *1716:A *1950:A 0
6 *57:16 *1950:A 0
*RES
1 *1949:Y *1950:A 42.2145 
*END

*D_NET *445 0.0002326
*CONN
*I *1951:A I *D sg13cmos5l_inv_1
*I *1940:Y O *D sg13cmos5l_inv_1
*CAP
1 *1951:A 0
2 *1940:Y 0.0001163
3 *445:8 0.0001163
4 *445:8 *1088:20 0
*RES
1 *1940:Y *445:8 41.339 
2 *445:8 *1951:A 40 
*END

*D_NET *446 0.000639636
*CONN
*I *1952:A I *D sg13cmos5l_inv_1
*I *1950:Y O *D sg13cmos5l_inv_1
*CAP
1 *1952:A 0
2 *1950:Y 8.42183e-05
3 *446:8 8.42183e-05
4 *24:12 *446:8 0.000342036
5 *180:10 *446:8 0.000129163
6 *198:8 *446:8 0
*RES
1 *1950:Y *446:8 41.5862 
2 *446:8 *1952:A 40 
*END

*D_NET *447 9.45957e-05
*CONN
*I *1953:A I *D sg13cmos5l_inv_1
*I *1952:Y O *D sg13cmos5l_inv_1
*CAP
1 *1953:A 4.72978e-05
2 *1952:Y 4.72978e-05
3 *1706:A *1953:A 0
*RES
1 *1952:Y *1953:A 40.5974 
*END

*D_NET *448 0.000346492
*CONN
*I *1954:A I *D sg13cmos5l_inv_1
*I *1953:Y O *D sg13cmos5l_inv_1
*CAP
1 *1954:A 0.000173246
2 *1953:Y 0.000173246
3 *1954:A *2037:A 0
4 *1954:A *2038:A 0
5 *51:24 *1954:A 0
*RES
1 *1953:Y *1954:A 41.8746 
*END

*D_NET *449 0.000621058
*CONN
*I *1955:A I *D sg13cmos5l_inv_1
*I *1954:Y O *D sg13cmos5l_inv_1
*CAP
1 *1955:A 0.000178776
2 *1954:Y 0.000178776
3 *1955:A *450:10 0
4 *51:24 *1955:A 0.000263505
*RES
1 *1954:Y *1955:A 41.9673 
*END

*D_NET *450 0.00219993
*CONN
*I *1956:A I *D sg13cmos5l_inv_1
*I *1955:Y O *D sg13cmos5l_inv_1
*CAP
1 *1956:A 0.000147021
2 *1955:Y 0.000533751
3 *450:10 0.000680771
4 *1956:A *1957:A 0.00020901
5 *1956:A *1958:A 0
6 *450:10 *452:10 0
7 *450:10 *522:12 0.000288173
8 *450:10 *526:8 0.000341204
9 *450:10 *527:8 0
10 *1955:A *450:10 0
11 *24:12 *450:10 0
12 *331:25 *450:10 0
*RES
1 *1955:Y *450:10 46.3551 
2 *450:10 *1956:A 41.4008 
*END

*D_NET *451 0.00131987
*CONN
*I *1957:A I *D sg13cmos5l_inv_1
*I *1956:Y O *D sg13cmos5l_inv_1
*CAP
1 *1957:A 0.000384272
2 *1956:Y 0.000384272
3 *1957:A *1958:A 0
4 *1957:A *1959:A 0
5 *1957:A *2025:A 0.000262098
6 *1957:A *2027:A 0
7 *1957:A *2028:A 0
8 *1957:A *2030:A 0
9 *1957:A *2069:A 0
10 *1957:A *525:10 8.0216e-05
11 *1957:A *1078:69 0
12 *1956:A *1957:A 0.00020901
*RES
1 *1956:Y *1957:A 44.4908 
*END

*D_NET *452 0.00138175
*CONN
*I *1958:A I *D sg13cmos5l_inv_1
*I *1957:Y O *D sg13cmos5l_inv_1
*CAP
1 *1958:A 0.000268927
2 *1957:Y 0.000149452
3 *452:10 0.000418379
4 *1958:A *1542:S1 0
5 *1958:A *1960:A 0
6 *1958:A *2020:A 0
7 *1958:A *2023:A 2.21754e-05
8 *1958:A *2025:A 0
9 *1958:A *2026:A 0
10 *452:10 *518:8 0.000341119
11 *452:10 *521:8 0.000181694
12 *1956:A *1958:A 0
13 *1957:A *1958:A 0
14 *331:25 *452:10 0
15 *450:10 *452:10 0
*RES
1 *1957:Y *452:10 42.369 
2 *452:10 *1958:A 42.7501 
*END

*D_NET *453 0.000291019
*CONN
*I *1959:A I *D sg13cmos5l_inv_1
*I *1958:Y O *D sg13cmos5l_inv_1
*CAP
1 *1959:A 0.00014551
2 *1958:Y 0.00014551
3 *1959:A *1542:S1 0
4 *1959:A *1960:A 0
5 *1959:A *2034:A 0
6 *1957:A *1959:A 0
*RES
1 *1958:Y *1959:A 41.4008 
*END

*D_NET *454 0.00024326
*CONN
*I *1960:A I *D sg13cmos5l_inv_1
*I *1959:Y O *D sg13cmos5l_inv_1
*CAP
1 *1960:A 0.00012163
2 *1959:Y 0.00012163
3 *1960:A *1510:A0 0
4 *1960:A *1542:S1 0
5 *1960:A *564:8 0
6 *1958:A *1960:A 0
7 *1959:A *1960:A 0
*RES
1 *1959:Y *1960:A 41.3802 
*END

*D_NET *455 0.00213159
*CONN
*I *1558:A I *D sg13cmos5l_buf_1
*I *1961:A I *D sg13cmos5l_inv_1
*I *1960:Y O *D sg13cmos5l_inv_1
*CAP
1 *1558:A 0
2 *1961:A 4.70602e-05
3 *1960:Y 5.60708e-05
4 *455:23 0.000922552
5 *455:8 0.00102568
6 *1961:A *1542:S1 8.02267e-05
7 *1961:A *1963:A 0
8 *1961:A *1076:72 0
9 *455:23 *1542:A0 0
10 *455:23 *2076:A 0
11 *455:23 *458:8 0
12 *455:23 *459:8 0
13 *455:23 *468:8 0
14 *455:23 *475:8 0
15 *455:23 *564:16 0
16 *455:23 *1076:62 0
17 *24:12 *455:8 0
*RES
1 *1960:Y *455:8 40.5974 
2 *455:8 *1961:A 40.5356 
3 *455:8 *455:23 30.3721 
4 *455:23 *1558:A 20 
*END

*D_NET *456 9.45957e-05
*CONN
*I *1962:A I *D sg13cmos5l_inv_1
*I *1951:Y O *D sg13cmos5l_inv_1
*CAP
1 *1962:A 4.72978e-05
2 *1951:Y 4.72978e-05
*RES
1 *1951:Y *1962:A 40.5974 
*END

*D_NET *457 0.000160704
*CONN
*I *1963:A I *D sg13cmos5l_inv_1
*I *1961:Y O *D sg13cmos5l_inv_1
*CAP
1 *1963:A 8.03518e-05
2 *1961:Y 8.03518e-05
3 *1963:A *1542:S1 0
4 *1963:A *1076:72 0
5 *1961:A *1963:A 0
*RES
1 *1961:Y *1963:A 40.9167 
*END

*D_NET *458 0.00106688
*CONN
*I *1542:A0 I *D sg13cmos5l_mux4_1
*I *1964:A I *D sg13cmos5l_inv_1
*I *1963:Y O *D sg13cmos5l_inv_1
*CAP
1 *1542:A0 0.00037338
2 *1964:A 5.37208e-05
3 *1963:Y 5.85085e-05
4 *458:8 0.00048561
5 *1542:A0 *1981:A 0
6 *1542:A0 *459:8 0
7 *1542:A0 *1082:63 1.54008e-05
8 *1542:A0 *1082:79 0
9 *1964:A *1076:72 8.02598e-05
10 *1964:A *1082:79 0
11 *455:23 *1542:A0 0
12 *455:23 *458:8 0
*RES
1 *1963:Y *458:8 40.5974 
2 *458:8 *1964:A 40.5356 
3 *458:8 *1542:A0 43.9758 
*END

*D_NET *459 0.000161024
*CONN
*I *1965:A I *D sg13cmos5l_inv_1
*I *1964:Y O *D sg13cmos5l_inv_1
*CAP
1 *1965:A 0
2 *1964:Y 8.05122e-05
3 *459:8 8.05122e-05
4 *1542:A0 *459:8 0
5 *455:23 *459:8 0
*RES
1 *1964:Y *459:8 40.5974 
2 *459:8 *1965:A 40 
*END

*D_NET *460 9.45957e-05
*CONN
*I *1966:A I *D sg13cmos5l_inv_1
*I *1965:Y O *D sg13cmos5l_inv_1
*CAP
1 *1966:A 4.72978e-05
2 *1965:Y 4.72978e-05
*RES
1 *1965:Y *1966:A 40.5974 
*END

*D_NET *461 9.45957e-05
*CONN
*I *1967:A I *D sg13cmos5l_inv_1
*I *1966:Y O *D sg13cmos5l_inv_1
*CAP
1 *1967:A 4.72978e-05
2 *1966:Y 4.72978e-05
*RES
1 *1966:Y *1967:A 40.5974 
*END

*D_NET *462 9.45957e-05
*CONN
*I *1968:A I *D sg13cmos5l_inv_1
*I *1967:Y O *D sg13cmos5l_inv_1
*CAP
1 *1968:A 4.72978e-05
2 *1967:Y 4.72978e-05
3 *1968:A *2104:A 0
*RES
1 *1967:Y *1968:A 40.5974 
*END

*D_NET *463 9.45957e-05
*CONN
*I *1969:A I *D sg13cmos5l_inv_1
*I *1968:Y O *D sg13cmos5l_inv_1
*CAP
1 *1969:A 4.72978e-05
2 *1968:Y 4.72978e-05
3 *1969:A *2071:A 0
*RES
1 *1968:Y *1969:A 40.5974 
*END

*D_NET *464 9.45957e-05
*CONN
*I *1970:A I *D sg13cmos5l_inv_1
*I *1969:Y O *D sg13cmos5l_inv_1
*CAP
1 *1970:A 4.72978e-05
2 *1969:Y 4.72978e-05
3 *1970:A *2071:A 0
4 *1970:A *2072:A 0
*RES
1 *1969:Y *1970:A 40.5974 
*END

*D_NET *465 9.45957e-05
*CONN
*I *1971:A I *D sg13cmos5l_inv_1
*I *1970:Y O *D sg13cmos5l_inv_1
*CAP
1 *1971:A 4.72978e-05
2 *1970:Y 4.72978e-05
3 *1971:A *1980:A 0
4 *1971:A *2072:A 0
5 *1971:A *2074:A 0
*RES
1 *1970:Y *1971:A 40.5974 
*END

*D_NET *466 0.00028308
*CONN
*I *1972:A I *D sg13cmos5l_inv_1
*I *1971:Y O *D sg13cmos5l_inv_1
*CAP
1 *1972:A 0.00014154
2 *1971:Y 0.00014154
3 *1972:A *1974:A 0
4 *1972:A *1976:A 0
5 *1972:A *1979:A 0
6 *1972:A *1980:A 0
*RES
1 *1971:Y *1972:A 41.3725 
*END

*D_NET *467 0.00023069
*CONN
*I *1973:A I *D sg13cmos5l_inv_1
*I *1962:Y O *D sg13cmos5l_inv_1
*CAP
1 *1973:A 0
2 *1962:Y 0.000115345
3 *467:8 0.000115345
4 *467:8 *1088:20 0
*RES
1 *1962:Y *467:8 41.339 
2 *467:8 *1973:A 40 
*END

*D_NET *468 0.000767222
*CONN
*I *1974:A I *D sg13cmos5l_inv_1
*I *1972:Y O *D sg13cmos5l_inv_1
*CAP
1 *1974:A 0.000157453
2 *1972:Y 0.000153775
3 *468:8 0.000311227
4 *1974:A *1976:A 0.000144767
5 *1974:A *2075:A 0
6 *1972:A *1974:A 0
7 *455:23 *468:8 0
*RES
1 *1972:Y *468:8 41.8334 
2 *468:8 *1974:A 41.751 
*END

*D_NET *469 0.00012456
*CONN
*I *1975:A I *D sg13cmos5l_inv_1
*I *1974:Y O *D sg13cmos5l_inv_1
*CAP
1 *1975:A 6.22801e-05
2 *1974:Y 6.22801e-05
3 *1975:A *1976:A 0
*RES
1 *1974:Y *1975:A 40.5974 
*END

*D_NET *470 0.000599016
*CONN
*I *1976:A I *D sg13cmos5l_inv_1
*I *1975:Y O *D sg13cmos5l_inv_1
*CAP
1 *1976:A 0.000227124
2 *1975:Y 0.000227124
3 *1976:A *1979:A 0
4 *1972:A *1976:A 0
5 *1974:A *1976:A 0.000144767
6 *1975:A *1976:A 0
*RES
1 *1975:Y *1976:A 42.4926 
*END

*D_NET *471 0.000410681
*CONN
*I *1977:A I *D sg13cmos5l_inv_1
*I *1976:Y O *D sg13cmos5l_inv_1
*CAP
1 *1977:A 0.000181384
2 *1976:Y 0.000181384
3 *1977:A *1979:A 0
4 *1977:A *2011:A 0
5 *1977:A *2012:A 0
6 *1977:A *2013:A 0
7 *1977:A *2582:A 0
8 *1557:A *1977:A 4.79124e-05
*RES
1 *1976:Y *1977:A 41.9673 
*END

*D_NET *472 0.000102278
*CONN
*I *1978:A I *D sg13cmos5l_inv_1
*I *1977:Y O *D sg13cmos5l_inv_1
*CAP
1 *1978:A 5.1139e-05
2 *1977:Y 5.1139e-05
3 *1978:A *1979:A 0
4 *1978:A *2012:A 0
*RES
1 *1977:Y *1978:A 40.5974 
*END

*D_NET *473 0.00041039
*CONN
*I *1979:A I *D sg13cmos5l_inv_1
*I *1978:Y O *D sg13cmos5l_inv_1
*CAP
1 *1979:A 0.000205195
2 *1978:Y 0.000205195
3 *1979:A *1980:A 0
4 *1979:A *2013:A 0
5 *1979:A *2582:A 0
6 *1972:A *1979:A 0
7 *1976:A *1979:A 0
8 *1977:A *1979:A 0
9 *1978:A *1979:A 0
*RES
1 *1978:Y *1979:A 42.2145 
*END

*D_NET *474 0.000328127
*CONN
*I *1980:A I *D sg13cmos5l_inv_1
*I *1979:Y O *D sg13cmos5l_inv_1
*CAP
1 *1980:A 0.000164063
2 *1979:Y 0.000164063
3 *1971:A *1980:A 0
4 *1972:A *1980:A 0
5 *1979:A *1980:A 0
*RES
1 *1979:Y *1980:A 42.0806 
*END

*D_NET *475 0.00192909
*CONN
*I *1542:A1 I *D sg13cmos5l_mux4_1
*I *1981:A I *D sg13cmos5l_inv_1
*I *1980:Y O *D sg13cmos5l_inv_1
*CAP
1 *1542:A1 0
2 *1981:A 0.000333263
3 *1980:Y 0.000215626
4 *475:8 0.000548889
5 *1981:A *2019:A 0
6 *1981:A *2020:A 0
7 *1981:A *476:8 0
8 *1981:A *1076:72 0.000307166
9 *1981:A *1082:79 0.000235228
10 *475:8 *1082:79 0.000288917
11 *1542:A0 *1981:A 0
12 *455:23 *475:8 0
*RES
1 *1980:Y *475:8 43.0694 
2 *475:8 *1981:A 44.1303 
3 *475:8 *1542:A1 40 
*END

*D_NET *476 0.000709375
*CONN
*I *1982:A I *D sg13cmos5l_inv_1
*I *1981:Y O *D sg13cmos5l_inv_1
*CAP
1 *1982:A 0.000178291
2 *1981:Y 0.000176397
3 *476:8 0.000354688
4 *1981:A *476:8 0
5 *331:25 *476:8 0
*RES
1 *1981:Y *476:8 41.5862 
2 *476:8 *1982:A 41.4008 
*END

*D_NET *477 0.000194801
*CONN
*I *1983:A I *D sg13cmos5l_inv_1
*I *1982:Y O *D sg13cmos5l_inv_1
*CAP
1 *1983:A 0
2 *1982:Y 9.74003e-05
3 *477:8 9.74003e-05
4 *477:8 *510:10 0
5 *207:25 *477:8 0
*RES
1 *1982:Y *477:8 40.8446 
2 *477:8 *1983:A 40 
*END

*D_NET *478 0.00024014
*CONN
*I *1984:A I *D sg13cmos5l_inv_1
*I *1973:Y O *D sg13cmos5l_inv_1
*CAP
1 *1984:A 0.00011237
2 *1973:Y 0.00011237
3 *1984:A *1995:A 1.54008e-05
4 *1984:A *2062:A 0
5 *1984:A *2084:A 0
*RES
1 *1973:Y *1984:A 41.3802 
*END

*D_NET *479 9.45957e-05
*CONN
*I *1985:A I *D sg13cmos5l_inv_1
*I *1983:Y O *D sg13cmos5l_inv_1
*CAP
1 *1985:A 4.72978e-05
2 *1983:Y 4.72978e-05
*RES
1 *1983:Y *1985:A 40.5974 
*END

*D_NET *480 0.0004231
*CONN
*I *1986:A I *D sg13cmos5l_inv_1
*I *1985:Y O *D sg13cmos5l_inv_1
*CAP
1 *1986:A 0
2 *1985:Y 0.000147427
3 *480:8 0.000147427
4 *480:8 *2016:A 0
5 *480:8 *481:8 0.000128247
6 *480:8 *513:12 0
7 *207:25 *480:8 0
*RES
1 *1985:Y *480:8 41.339 
2 *480:8 *1986:A 40 
*END

*D_NET *481 0.000508228
*CONN
*I *1987:A I *D sg13cmos5l_inv_1
*I *1986:Y O *D sg13cmos5l_inv_1
*CAP
1 *1987:A 3.34444e-05
2 *1986:Y 4.18711e-05
3 *481:8 7.53155e-05
4 *1987:A *1076:80 4.77425e-05
5 *481:8 *2016:A 0.000181608
6 *481:8 *513:12 0
7 *480:8 *481:8 0.000128247
*RES
1 *1986:Y *481:8 40.8446 
2 *481:8 *1987:A 40.3193 
*END

*D_NET *482 0.000832991
*CONN
*I *1988:A I *D sg13cmos5l_inv_1
*I *1987:Y O *D sg13cmos5l_inv_1
*CAP
1 *1988:A 0
2 *1987:Y 0.000328544
3 *482:10 0.000328544
4 *482:10 *1990:A 4.77425e-05
5 *482:10 *484:8 0.00012816
6 *482:10 *1076:80 0
7 *51:14 *482:10 0
8 *51:24 *482:10 0
*RES
1 *1987:Y *482:10 43.2033 
2 *482:10 *1988:A 40 
*END

*D_NET *483 0.000241827
*CONN
*I *1989:A I *D sg13cmos5l_inv_1
*I *1988:Y O *D sg13cmos5l_inv_1
*CAP
1 *1989:A 0.000120913
2 *1988:Y 0.000120913
3 *1989:A *513:12 0
4 *1989:A *1076:80 0
5 *1807:A *1989:A 0
6 *1851:A *1989:A 0
*RES
1 *1988:Y *1989:A 41.3802 
*END

*D_NET *484 0.000358948
*CONN
*I *1990:A I *D sg13cmos5l_inv_1
*I *1989:Y O *D sg13cmos5l_inv_1
*CAP
1 *1990:A 2.60565e-05
2 *1989:Y 4.15946e-05
3 *484:8 6.76511e-05
4 *1990:A *1076:80 4.77425e-05
5 *51:24 *484:8 0
6 *482:10 *1990:A 4.77425e-05
7 *482:10 *484:8 0.00012816
*RES
1 *1989:Y *484:8 40.5974 
2 *484:8 *1990:A 40.3193 
*END

*D_NET *485 0.00051553
*CONN
*I *1991:A I *D sg13cmos5l_inv_1
*I *1990:Y O *D sg13cmos5l_inv_1
*CAP
1 *1991:A 0.000152837
2 *1990:Y 0.000152837
3 *1991:A *1992:A 0
4 *1991:A *1076:80 0.000209856
5 *51:14 *1991:A 0
*RES
1 *1990:Y *1991:A 41.751 
*END

*D_NET *486 0.000264727
*CONN
*I *1992:A I *D sg13cmos5l_inv_1
*I *1991:Y O *D sg13cmos5l_inv_1
*CAP
1 *1992:A 0.000132363
2 *1991:Y 0.000132363
3 *1992:A *1076:80 0
4 *1991:A *1992:A 0
5 *51:14 *1992:A 0
*RES
1 *1991:Y *1992:A 41.3802 
*END

*D_NET *487 0.000596276
*CONN
*I *1993:A I *D sg13cmos5l_inv_1
*I *1992:Y O *D sg13cmos5l_inv_1
*CAP
1 *1993:A 0.000119402
2 *1992:Y 0.000178736
3 *487:10 0.000298138
4 *1993:A *1997:A 0
5 *1993:A *1082:63 0
6 *487:10 *490:8 0
7 *487:10 *900:12 0
8 *487:10 *1082:48 0
9 *51:14 *1993:A 0
*RES
1 *1992:Y *487:10 42.1527 
2 *487:10 *1993:A 41.1845 
*END

*D_NET *488 9.45957e-05
*CONN
*I *1994:A I *D sg13cmos5l_inv_1
*I *1993:Y O *D sg13cmos5l_inv_1
*CAP
1 *1994:A 4.72978e-05
2 *1993:Y 4.72978e-05
3 *1994:A *2417:A 0
4 *1994:A *2428:A 0
*RES
1 *1993:Y *1994:A 40.5974 
*END

*D_NET *489 0.000497601
*CONN
*I *1995:A I *D sg13cmos5l_inv_1
*I *1984:Y O *D sg13cmos5l_inv_1
*CAP
1 *1995:A 0.0002411
2 *1984:Y 0.0002411
3 *1995:A *2006:A 0
4 *1995:A *2051:A 0
5 *1995:A *2062:A 0
6 *1995:A *2073:A 0
7 *1918:A *1995:A 0
8 *1984:A *1995:A 1.54008e-05
*RES
1 *1984:Y *1995:A 42.7192 
*END

*D_NET *490 0.000406032
*CONN
*I *1996:A I *D sg13cmos5l_inv_1
*I *1994:Y O *D sg13cmos5l_inv_1
*CAP
1 *1996:A 0
2 *1994:Y 0.000203016
3 *490:8 0.000203016
4 *490:8 *492:8 0
5 *490:8 *900:12 0
6 *207:25 *490:8 0
7 *487:10 *490:8 0
*RES
1 *1994:Y *490:8 42.3278 
2 *490:8 *1996:A 40 
*END

*D_NET *491 0.000239952
*CONN
*I *1997:A I *D sg13cmos5l_inv_1
*I *1996:Y O *D sg13cmos5l_inv_1
*CAP
1 *1997:A 0.000119976
2 *1996:Y 0.000119976
3 *1993:A *1997:A 0
4 *51:14 *1997:A 0
*RES
1 *1996:Y *1997:A 41.3802 
*END

*D_NET *492 0.000545722
*CONN
*I *1998:A I *D sg13cmos5l_inv_1
*I *1997:Y O *D sg13cmos5l_inv_1
*CAP
1 *1998:A 0.000165426
2 *1997:Y 0.000107436
3 *492:8 0.000272861
4 *1998:A *1999:A 0
5 *1998:A *2019:A 0
6 *1998:A *1082:63 0
7 *51:14 *1998:A 0
8 *207:25 *492:8 0
9 *490:8 *492:8 0
*RES
1 *1997:Y *492:8 41.0918 
2 *492:8 *1998:A 41.6171 
*END

*D_NET *493 0.000981834
*CONN
*I *1999:A I *D sg13cmos5l_inv_1
*I *1542:A2 I *D sg13cmos5l_mux4_1
*I *1998:Y O *D sg13cmos5l_inv_1
*CAP
1 *1999:A 0.000105954
2 *1542:A2 0.000384963
3 *1998:Y 0
4 *493:4 0.000490917
5 *1542:A2 *1542:A3 0
6 *1542:A2 *1082:63 0
7 *1999:A *1082:63 0
8 *1998:A *1999:A 0
*RES
1 *1998:Y *493:4 20 
2 *493:4 *1542:A2 23.9449 
3 *493:4 *1999:A 21.133 
*END

*D_NET *494 0.000145151
*CONN
*I *2000:A I *D sg13cmos5l_inv_1
*I *1999:Y O *D sg13cmos5l_inv_1
*CAP
1 *2000:A 0
2 *1999:Y 7.25757e-05
3 *494:8 7.25757e-05
4 *494:8 *510:10 0
5 *207:25 *494:8 0
*RES
1 *1999:Y *494:8 40.5974 
2 *494:8 *2000:A 40 
*END

*D_NET *495 9.45957e-05
*CONN
*I *2001:A I *D sg13cmos5l_inv_1
*I *2000:Y O *D sg13cmos5l_inv_1
*CAP
1 *2001:A 4.72978e-05
2 *2000:Y 4.72978e-05
3 *2001:A *2015:A 0
*RES
1 *2000:Y *2001:A 40.5974 
*END

*D_NET *496 0.000107701
*CONN
*I *2002:A I *D sg13cmos5l_inv_1
*I *2001:Y O *D sg13cmos5l_inv_1
*CAP
1 *2002:A 5.38503e-05
2 *2001:Y 5.38503e-05
3 *2002:A *2003:A 0
4 *2002:A *2014:A 0
*RES
1 *2001:Y *2002:A 40.5974 
*END

*D_NET *497 0.000456319
*CONN
*I *2003:A I *D sg13cmos5l_inv_1
*I *2002:Y O *D sg13cmos5l_inv_1
*CAP
1 *2003:A 0.00022816
2 *2002:Y 0.00022816
3 *2003:A *2004:A 0
4 *2003:A *2005:A 0
5 *2003:A *2013:A 0
6 *2003:A *2581:A 0
7 *2003:A *1082:63 0
8 *2002:A *2003:A 0
*RES
1 *2002:Y *2003:A 42.4617 
*END

*D_NET *498 0.000223514
*CONN
*I *2004:A I *D sg13cmos5l_inv_1
*I *2003:Y O *D sg13cmos5l_inv_1
*CAP
1 *2004:A 0.000111757
2 *2003:Y 0.000111757
3 *2004:A *2007:A 0
4 *2004:A *2450:A 0
5 *2004:A *2461:A 0
6 *2004:A *1082:63 0
7 osc_tap[1] *2004:A 0
8 *2003:A *2004:A 0
*RES
1 *2003:Y *2004:A 41.3802 
*END

*D_NET *499 9.45957e-05
*CONN
*I *2005:A I *D sg13cmos5l_inv_1
*I *2004:Y O *D sg13cmos5l_inv_1
*CAP
1 *2005:A 4.72978e-05
2 *2004:Y 4.72978e-05
3 *2005:A *2473:A 0
4 *2003:A *2005:A 0
*RES
1 *2004:Y *2005:A 40.5974 
*END

*D_NET *500 0.00012456
*CONN
*I *2006:A I *D sg13cmos5l_inv_1
*I *1995:Y O *D sg13cmos5l_inv_1
*CAP
1 *2006:A 6.22801e-05
2 *1995:Y 6.22801e-05
3 *2006:A *2017:A 0
4 *1995:A *2006:A 0
*RES
1 *1995:Y *2006:A 40.5974 
*END

*D_NET *501 0.000421478
*CONN
*I *2007:A I *D sg13cmos5l_inv_1
*I *2005:Y O *D sg13cmos5l_inv_1
*CAP
1 *2007:A 0.000210739
2 *2005:Y 0.000210739
3 *2007:A *2010:A 0
4 *2007:A *2581:A 0
5 osc_tap[1] *2007:A 0
6 *2004:A *2007:A 0
*RES
1 *2005:Y *2007:A 42.2454 
*END

*D_NET *502 0.000232244
*CONN
*I *2008:A I *D sg13cmos5l_inv_1
*I *2007:Y O *D sg13cmos5l_inv_1
*CAP
1 *2008:A 0
2 *2007:Y 0.000116122
3 *502:8 0.000116122
4 osc_tap[1] *502:8 0
*RES
1 *2007:Y *502:8 41.339 
2 *502:8 *2008:A 40 
*END

*D_NET *503 0.000240776
*CONN
*I *2009:A I *D sg13cmos5l_inv_1
*I *2008:Y O *D sg13cmos5l_inv_1
*CAP
1 *2009:A 0.000120388
2 *2008:Y 0.000120388
3 *2009:A *2010:A 0
*RES
1 *2008:Y *2009:A 41.3802 
*END

*D_NET *504 0.00122238
*CONN
*I *2010:A I *D sg13cmos5l_inv_1
*I *2009:Y O *D sg13cmos5l_inv_1
*CAP
1 *2010:A 0.000506326
2 *2009:Y 0.000506326
3 *2010:A *2011:A 0
4 *2010:A *2581:A 0
5 osc_tap[1] *2010:A 0
6 *2007:A *2010:A 0
7 *2009:A *2010:A 0
8 *207:25 *2010:A 0.00020973
*RES
1 *2009:Y *2010:A 45.5105 
*END

*D_NET *505 0.000222678
*CONN
*I *2011:A I *D sg13cmos5l_inv_1
*I *2010:Y O *D sg13cmos5l_inv_1
*CAP
1 *2011:A 0.000111339
2 *2010:Y 0.000111339
3 *2011:A *2013:A 0
4 *2011:A *2581:A 0
5 *1977:A *2011:A 0
6 *2010:A *2011:A 0
*RES
1 *2010:Y *2011:A 41.3802 
*END

*D_NET *506 0.000133739
*CONN
*I *2012:A I *D sg13cmos5l_inv_1
*I *2011:Y O *D sg13cmos5l_inv_1
*CAP
1 *2012:A 6.68694e-05
2 *2011:Y 6.68694e-05
3 *2012:A *2581:A 0
4 *1977:A *2012:A 0
5 *1978:A *2012:A 0
*RES
1 *2011:Y *2012:A 40.8446 
*END

*D_NET *507 0.000476144
*CONN
*I *2013:A I *D sg13cmos5l_inv_1
*I *2012:Y O *D sg13cmos5l_inv_1
*CAP
1 *2013:A 0.000238072
2 *2012:Y 0.000238072
3 *2013:A *510:10 0
4 *2013:A *1082:63 0
5 *1557:A *2013:A 0
6 *1977:A *2013:A 0
7 *1979:A *2013:A 0
8 *2003:A *2013:A 0
9 *2011:A *2013:A 0
*RES
1 *2012:Y *2013:A 42.4926 
*END

*D_NET *508 9.45957e-05
*CONN
*I *2014:A I *D sg13cmos5l_inv_1
*I *2013:Y O *D sg13cmos5l_inv_1
*CAP
1 *2014:A 4.72978e-05
2 *2013:Y 4.72978e-05
3 *2002:A *2014:A 0
*RES
1 *2013:Y *2014:A 40.5974 
*END

*D_NET *509 9.45957e-05
*CONN
*I *2015:A I *D sg13cmos5l_inv_1
*I *2014:Y O *D sg13cmos5l_inv_1
*CAP
1 *2015:A 4.72978e-05
2 *2014:Y 4.72978e-05
3 *2001:A *2015:A 0
*RES
1 *2014:Y *2015:A 40.5974 
*END

*D_NET *510 0.00348485
*CONN
*I *1542:A3 I *D sg13cmos5l_mux4_1
*I *2016:A I *D sg13cmos5l_inv_1
*I *2015:Y O *D sg13cmos5l_inv_1
*CAP
1 *1542:A3 0.00032786
2 *2016:A 0.000336471
3 *2015:Y 0.000470785
4 *510:10 0.00113512
5 *1542:A3 *1076:72 0.000499817
6 *1542:A3 *1082:79 0
7 *2016:A *2021:A 4.82988e-05
8 *2016:A *513:12 0
9 *2016:A *1076:72 0.000341535
10 *2016:A *1076:80 0
11 *510:10 *1082:63 0.000143358
12 *1542:A2 *1542:A3 0
13 *2013:A *510:10 0
14 *207:25 *2016:A 0
15 *207:25 *510:10 0
16 *331:25 *2016:A 0
17 *331:25 *510:10 0
18 *477:8 *510:10 0
19 *480:8 *2016:A 0
20 *481:8 *2016:A 0.000181608
21 *494:8 *510:10 0
*RES
1 *2015:Y *510:10 44.0376 
2 *510:10 *2016:A 44.205 
3 *510:10 *1542:A3 43.5638 
*END

*D_NET *511 0.000445692
*CONN
*I *2017:A I *D sg13cmos5l_inv_1
*I *2006:Y O *D sg13cmos5l_inv_1
*CAP
1 *2017:A 0.000222846
2 *2006:Y 0.000222846
3 *2017:A *2051:A 0
4 *1581:A *2017:A 0
5 *1918:A *2017:A 0
6 *2006:A *2017:A 0
*RES
1 *2006:Y *2017:A 42.2454 
*END

*D_NET *512 0.000107701
*CONN
*I *2018:A I *D sg13cmos5l_inv_1
*I *1907:Y O *D sg13cmos5l_inv_1
*CAP
1 *2018:A 5.38503e-05
2 *1907:Y 5.38503e-05
3 *2018:A *2129:A 0
*RES
1 *1907:Y *2018:A 40.5974 
*END

*D_NET *513 0.00143455
*CONN
*I *2019:A I *D sg13cmos5l_inv_1
*I *2016:Y O *D sg13cmos5l_inv_1
*CAP
1 *2019:A 0.000308308
2 *2016:Y 0.000200552
3 *513:12 0.00050886
4 *2019:A *2020:A 0
5 *2019:A *2021:A 0
6 *2019:A *2023:A 0
7 *2019:A *1076:72 0
8 *2019:A *1076:80 0
9 *513:12 *2021:A 2.21754e-05
10 *513:12 *1076:80 0
11 *1981:A *2019:A 0
12 *1989:A *513:12 0
13 *1998:A *2019:A 0
14 *2016:A *513:12 0
15 *207:25 *513:12 0.000394653
16 *331:25 *513:12 0
17 *480:8 *513:12 0
18 *481:8 *513:12 0
*RES
1 *2016:Y *513:12 42.5029 
2 *513:12 *2019:A 42.8634 
*END

*D_NET *514 0.00023779
*CONN
*I *2020:A I *D sg13cmos5l_inv_1
*I *2019:Y O *D sg13cmos5l_inv_1
*CAP
1 *2020:A 0.000118895
2 *2019:Y 0.000118895
3 *2020:A *1542:S1 0
4 *2020:A *2023:A 0
5 *2020:A *2025:A 0
6 *1958:A *2020:A 0
7 *1981:A *2020:A 0
8 *2019:A *2020:A 0
*RES
1 *2019:Y *2020:A 41.3802 
*END

*D_NET *515 0.000989978
*CONN
*I *2021:A I *D sg13cmos5l_inv_1
*I *2020:Y O *D sg13cmos5l_inv_1
*CAP
1 *2021:A 0.000435885
2 *2020:Y 0.000435885
3 *2021:A *2022:A 0
4 *2021:A *2023:A 4.77346e-05
5 *2021:A *2025:A 0
6 *2021:A *2026:A 0
7 *2021:A *1076:80 0
8 *1795:A *2021:A 0
9 *1818:A *2021:A 0
10 *2016:A *2021:A 4.82988e-05
11 *2019:A *2021:A 0
12 *513:12 *2021:A 2.21754e-05
*RES
1 *2020:Y *2021:A 44.9646 
*END

*D_NET *516 0.000250087
*CONN
*I *2022:A I *D sg13cmos5l_inv_1
*I *2021:Y O *D sg13cmos5l_inv_1
*CAP
1 *2022:A 0.000125043
2 *2021:Y 0.000125043
3 *2022:A *2023:A 0
4 *2022:A *2025:A 0
5 *2022:A *2026:A 0
6 *2021:A *2022:A 0
*RES
1 *2021:Y *2022:A 41.3802 
*END

*D_NET *517 0.000495254
*CONN
*I *2023:A I *D sg13cmos5l_inv_1
*I *2022:Y O *D sg13cmos5l_inv_1
*CAP
1 *2023:A 0.000212672
2 *2022:Y 0.000212672
3 *2023:A *2025:A 0
4 *2023:A *2026:A 0
5 *1958:A *2023:A 2.21754e-05
6 *2019:A *2023:A 0
7 *2020:A *2023:A 0
8 *2021:A *2023:A 4.77346e-05
9 *2022:A *2023:A 0
*RES
1 *2022:Y *2023:A 42.0132 
*END

*D_NET *518 0.00125915
*CONN
*I *2024:A I *D sg13cmos5l_inv_1
*I *2023:Y O *D sg13cmos5l_inv_1
*CAP
1 *2024:A 0.000135583
2 *2023:Y 0.000219279
3 *518:8 0.000354862
4 *2024:A *2025:A 0.000208304
5 *2024:A *1078:69 0
6 *331:25 *518:8 0
7 *452:10 *518:8 0.000341119
*RES
1 *2023:Y *518:8 42.3278 
2 *518:8 *2024:A 41.4008 
*END

*D_NET *519 0.00133072
*CONN
*I *2025:A I *D sg13cmos5l_inv_1
*I *2024:Y O *D sg13cmos5l_inv_1
*CAP
1 *2025:A 0.000430161
2 *2024:Y 0.000430161
3 *2025:A *2026:A 0
4 *2025:A *2027:A 0
5 *2025:A *1078:51 0
6 *2025:A *1078:69 0
7 *1784:A *2025:A 0
8 *1957:A *2025:A 0.000262098
9 *1958:A *2025:A 0
10 *2020:A *2025:A 0
11 *2021:A *2025:A 0
12 *2022:A *2025:A 0
13 *2023:A *2025:A 0
14 *2024:A *2025:A 0.000208304
15 *207:8 *2025:A 0
*RES
1 *2024:Y *2025:A 44.9234 
*END

*D_NET *520 0.00027556
*CONN
*I *2026:A I *D sg13cmos5l_inv_1
*I *2025:Y O *D sg13cmos5l_inv_1
*CAP
1 *2026:A 0.00013778
2 *2025:Y 0.00013778
3 *1958:A *2026:A 0
4 *2021:A *2026:A 0
5 *2022:A *2026:A 0
6 *2023:A *2026:A 0
7 *2025:A *2026:A 0
*RES
1 *2025:Y *2026:A 41.3802 
*END

*D_NET *521 0.000505323
*CONN
*I *2027:A I *D sg13cmos5l_inv_1
*I *2026:Y O *D sg13cmos5l_inv_1
*CAP
1 *2027:A 3.95288e-05
2 *2026:Y 7.34261e-05
3 *521:8 0.000112955
4 *2027:A *522:12 2.21754e-05
5 *2027:A *1078:69 0
6 *521:8 *525:10 7.55443e-05
7 *1957:A *2027:A 0
8 *2025:A *2027:A 0
9 *452:10 *521:8 0.000181694
*RES
1 *2026:Y *521:8 41.0918 
2 *521:8 *2027:A 40.4815 
*END

*D_NET *522 0.00112359
*CONN
*I *2028:A I *D sg13cmos5l_inv_1
*I *2027:Y O *D sg13cmos5l_inv_1
*CAP
1 *2028:A 0.000136509
2 *2027:Y 0.000230453
3 *522:12 0.000366962
4 *2028:A *2030:A 0
5 *2028:A *2032:A 0
6 *2028:A *525:10 0
7 *522:12 *2032:A 7.93152e-05
8 *522:12 *525:10 0
9 *1957:A *2028:A 0
10 *2027:A *522:12 2.21754e-05
11 *24:12 *522:12 0
12 *450:10 *522:12 0.000288173
*RES
1 *2027:Y *522:12 42.6574 
2 *522:12 *2028:A 41.1845 
*END

*D_NET *523 0.000125689
*CONN
*I *2029:A I *D sg13cmos5l_inv_1
*I *2017:Y O *D sg13cmos5l_inv_1
*CAP
1 *2029:A 6.28446e-05
2 *2017:Y 6.28446e-05
3 *2029:A *2062:A 0
*RES
1 *2017:Y *2029:A 40.5974 
*END

*D_NET *524 0.000260978
*CONN
*I *2030:A I *D sg13cmos5l_inv_1
*I *2028:Y O *D sg13cmos5l_inv_1
*CAP
1 *2030:A 0.000122788
2 *2028:Y 0.000122788
3 *2030:A *2034:A 1.54008e-05
4 *2030:A *2067:A 0
5 *2030:A *2069:A 0
6 *1957:A *2030:A 0
7 *2028:A *2030:A 0
*RES
1 *2028:Y *2030:A 41.3802 
*END

*D_NET *525 0.000993769
*CONN
*I *2031:A I *D sg13cmos5l_inv_1
*I *2030:Y O *D sg13cmos5l_inv_1
*CAP
1 *2031:A 3.96154e-05
2 *2030:Y 0.000379389
3 *525:10 0.000419004
4 *525:10 *2032:A 0
5 *1957:A *525:10 8.0216e-05
6 *2028:A *525:10 0
7 *331:25 *525:10 0
8 *521:8 *525:10 7.55443e-05
9 *522:12 *525:10 0
*RES
1 *2030:Y *525:10 43.4814 
2 *525:10 *2031:A 40.3193 
*END

*D_NET *526 0.00121482
*CONN
*I *2032:A I *D sg13cmos5l_inv_1
*I *2031:Y O *D sg13cmos5l_inv_1
*CAP
1 *2032:A 0.000143825
2 *2031:Y 0.000132714
3 *526:8 0.000276539
4 *2032:A *1078:69 0.00024122
5 *2028:A *2032:A 0
6 *450:10 *526:8 0.000341204
7 *522:12 *2032:A 7.93152e-05
8 *525:10 *2032:A 0
*RES
1 *2031:Y *526:8 41.5862 
2 *526:8 *2032:A 41.6171 
*END

*D_NET *527 0.000552844
*CONN
*I *2033:A I *D sg13cmos5l_inv_1
*I *2032:Y O *D sg13cmos5l_inv_1
*CAP
1 *2033:A 0
2 *2032:Y 0.000105984
3 *527:8 0.000105984
4 *24:12 *527:8 0.000340877
5 *450:10 *527:8 0
*RES
1 *2032:Y *527:8 41.5862 
2 *527:8 *2033:A 40 
*END

*D_NET *528 0.00116759
*CONN
*I *2034:A I *D sg13cmos5l_inv_1
*I *2033:Y O *D sg13cmos5l_inv_1
*CAP
1 *2034:A 0.000161451
2 *2033:Y 0.000163873
3 *528:8 0.000325324
4 *2034:A *1078:69 0
5 *2034:A *1078:103 0
6 *528:8 *2035:A 0
7 *528:8 *1078:73 0
8 *1959:A *2034:A 0
9 *2030:A *2034:A 1.54008e-05
10 *24:12 *528:8 0.000501546
*RES
1 *2033:Y *528:8 42.3278 
2 *528:8 *2034:A 40.38 
*END

*D_NET *529 0.00306029
*CONN
*I *1510:A0 I *D sg13cmos5l_mux4_1
*I *2035:A I *D sg13cmos5l_inv_1
*I *2034:Y O *D sg13cmos5l_inv_1
*CAP
1 *1510:A0 0.000357579
2 *2035:A 0.000531828
3 *2034:Y 0
4 *529:6 0.000889407
5 *1510:A0 *1542:S1 0
6 *1510:A0 *562:8 0
7 *1510:A0 *564:8 0
8 *1510:A0 *1076:62 0
9 *1510:A0 *1078:103 0.000242292
10 *2035:A *530:8 0
11 *2035:A *560:8 0
12 *2035:A *562:8 0
13 *2035:A *1076:62 0
14 *2035:A *1078:73 0.00103918
15 *1960:A *1510:A0 0
16 *24:12 *1510:A0 0
17 *57:16 *2035:A 0
18 *528:8 *2035:A 0
*RES
1 *2034:Y *529:6 40 
2 *529:6 *2035:A 46.5714 
3 *529:6 *1510:A0 43.8934 
*END

*D_NET *530 0.000343492
*CONN
*I *2036:A I *D sg13cmos5l_inv_1
*I *2035:Y O *D sg13cmos5l_inv_1
*CAP
1 *2036:A 0
2 *2035:Y 0.000171746
3 *530:8 0.000171746
4 *530:8 *1076:62 0
5 *2035:A *530:8 0
*RES
1 *2035:Y *530:8 41.5862 
2 *530:8 *2036:A 40 
*END

*D_NET *531 0.000260372
*CONN
*I *2037:A I *D sg13cmos5l_inv_1
*I *2036:Y O *D sg13cmos5l_inv_1
*CAP
1 *2037:A 0.000130186
2 *2036:Y 0.000130186
3 *2037:A *2038:A 0
4 *1954:A *2037:A 0
*RES
1 *2036:Y *2037:A 41.3802 
*END

*D_NET *532 0.000393624
*CONN
*I *2038:A I *D sg13cmos5l_inv_1
*I *2037:Y O *D sg13cmos5l_inv_1
*CAP
1 *2038:A 0.000196812
2 *2037:Y 0.000196812
3 *2038:A *2039:A 0
4 *2038:A *2061:A 0
5 *1954:A *2038:A 0
6 *2037:A *2038:A 0
7 *51:24 *2038:A 0
*RES
1 *2037:Y *2038:A 42.2145 
*END

*D_NET *533 9.50856e-05
*CONN
*I *2039:A I *D sg13cmos5l_inv_1
*I *2038:Y O *D sg13cmos5l_inv_1
*CAP
1 *2039:A 4.75428e-05
2 *2038:Y 4.75428e-05
3 *2039:A *2061:A 0
4 *2038:A *2039:A 0
*RES
1 *2038:Y *2039:A 40.5974 
*END

*D_NET *534 0.00124372
*CONN
*I *2040:A I *D sg13cmos5l_inv_1
*I *1530:A1 I *D sg13cmos5l_mux4_1
*I *2029:Y O *D sg13cmos5l_inv_1
*CAP
1 *2040:A 0.000130733
2 *1530:A1 0.000467232
3 *2029:Y 0
4 *534:4 0.000597964
5 *1530:A1 *1529:S0 0
6 *1530:A1 *711:16 4.77921e-05
7 *2040:A *2051:A 0
8 *1529:A0 *1530:A1 0
9 *1529:A1 *1530:A1 0
10 *1581:A *1530:A1 0
11 *1906:A *1530:A1 0
12 *356:10 *1530:A1 0
*RES
1 *2029:Y *534:4 20 
2 *534:4 *1530:A1 24.5423 
3 *534:4 *2040:A 21.3493 
*END

*D_NET *535 9.45957e-05
*CONN
*I *2041:A I *D sg13cmos5l_inv_1
*I *2039:Y O *D sg13cmos5l_inv_1
*CAP
1 *2041:A 4.72978e-05
2 *2039:Y 4.72978e-05
*RES
1 *2039:Y *2041:A 40.5974 
*END

*D_NET *536 0.00012456
*CONN
*I *2042:A I *D sg13cmos5l_inv_1
*I *2041:Y O *D sg13cmos5l_inv_1
*CAP
1 *2042:A 6.22801e-05
2 *2041:Y 6.22801e-05
3 *2042:A *2043:A 0
*RES
1 *2041:Y *2042:A 40.5974 
*END

*D_NET *537 0.000450772
*CONN
*I *2043:A I *D sg13cmos5l_inv_1
*I *2042:Y O *D sg13cmos5l_inv_1
*CAP
1 *2043:A 0.000225386
2 *2042:Y 0.000225386
3 *2043:A *2045:A 0
4 *2043:A *2046:A 0
5 *2043:A *2061:A 0
6 *2042:A *2043:A 0
7 *57:16 *2043:A 0
*RES
1 *2042:Y *2043:A 41.603 
*END

*D_NET *538 0.000542495
*CONN
*I *2044:A I *D sg13cmos5l_inv_1
*I *2043:Y O *D sg13cmos5l_inv_1
*CAP
1 *2044:A 0
2 *2043:Y 0.000100187
3 *538:8 0.000100187
4 *51:32 *538:8 0.000342122
*RES
1 *2043:Y *538:8 41.5862 
2 *538:8 *2044:A 40 
*END

*D_NET *539 0.000236525
*CONN
*I *2045:A I *D sg13cmos5l_inv_1
*I *2044:Y O *D sg13cmos5l_inv_1
*CAP
1 *2045:A 0.000118262
2 *2044:Y 0.000118262
3 *2045:A *2047:A 0
4 *2045:A *2048:A 0
5 *2043:A *2045:A 0
6 *57:16 *2045:A 0
*RES
1 *2044:Y *2045:A 41.3802 
*END

*D_NET *540 0.000350746
*CONN
*I *2046:A I *D sg13cmos5l_inv_1
*I *2045:Y O *D sg13cmos5l_inv_1
*CAP
1 *2046:A 0.000175373
2 *2045:Y 0.000175373
3 *2046:A *2047:A 0
4 *2046:A *2056:A 0
5 *2046:A *2059:A 0
6 *2043:A *2046:A 0
7 *57:16 *2046:A 0
*RES
1 *2045:Y *2046:A 41.9673 
*END

*D_NET *541 0.000236503
*CONN
*I *2047:A I *D sg13cmos5l_inv_1
*I *2046:Y O *D sg13cmos5l_inv_1
*CAP
1 *2047:A 0.000118251
2 *2046:Y 0.000118251
3 *2047:A *2048:A 0
4 *2047:A *2049:A 0
5 *2047:A *2050:A 0
6 *2047:A *2056:A 0
7 *2045:A *2047:A 0
8 *2046:A *2047:A 0
9 *57:16 *2047:A 0
*RES
1 *2046:Y *2047:A 41.0986 
*END

*D_NET *542 0.000427168
*CONN
*I *2048:A I *D sg13cmos5l_inv_1
*I *2047:Y O *D sg13cmos5l_inv_1
*CAP
1 *2048:A 0.000213584
2 *2047:Y 0.000213584
3 *2048:A *2049:A 0
4 *2048:A *2056:A 0
5 *2048:A *2165:A 0
6 *2048:A *2166:A 0
7 *2045:A *2048:A 0
8 *2047:A *2048:A 0
9 *57:16 *2048:A 0
*RES
1 *2047:Y *2048:A 42.3484 
*END

*D_NET *543 0.000247851
*CONN
*I *2049:A I *D sg13cmos5l_inv_1
*I *2048:Y O *D sg13cmos5l_inv_1
*CAP
1 *2049:A 0.000123925
2 *2048:Y 0.000123925
3 *2049:A *2055:A 0
4 *2049:A *2056:A 0
5 *2047:A *2049:A 0
6 *2048:A *2049:A 0
*RES
1 *2048:Y *2049:A 41.3802 
*END

*D_NET *544 9.47398e-05
*CONN
*I *2050:A I *D sg13cmos5l_inv_1
*I *2049:Y O *D sg13cmos5l_inv_1
*CAP
1 *2050:A 4.73699e-05
2 *2049:Y 4.73699e-05
3 *2050:A *2164:A 0
4 *2050:A *2165:A 0
5 *2047:A *2050:A 0
*RES
1 *2049:Y *2050:A 40.5974 
*END

*D_NET *545 0.000416516
*CONN
*I *2051:A I *D sg13cmos5l_inv_1
*I *2040:Y O *D sg13cmos5l_inv_1
*CAP
1 *2051:A 0.000208258
2 *2040:Y 0.000208258
3 *2051:A *2062:A 0
4 *1581:A *2051:A 0
5 *1918:A *2051:A 0
6 *1995:A *2051:A 0
7 *2017:A *2051:A 0
8 *2040:A *2051:A 0
*RES
1 *2040:Y *2051:A 42.1636 
*END

*D_NET *546 0.000119159
*CONN
*I *2052:A I *D sg13cmos5l_inv_1
*I *2050:Y O *D sg13cmos5l_inv_1
*CAP
1 *2052:A 5.95793e-05
2 *2050:Y 5.95793e-05
3 *2052:A *2053:A 0
*RES
1 *2050:Y *2052:A 40.5974 
*END

*D_NET *547 0.00238825
*CONN
*I *1512:A0 I *D sg13cmos5l_mux4_1
*I *2053:A I *D sg13cmos5l_inv_1
*I *2052:Y O *D sg13cmos5l_inv_1
*CAP
1 *1512:A0 0
2 *2053:A 0.000243488
3 *2052:Y 3.33605e-05
4 *547:25 0.000596719
5 *547:6 0.000873568
6 *2053:A *2054:A 0
7 *2053:A *2055:A 0
8 *547:25 *1512:S0 1.54008e-05
9 *547:25 *1512:A2 7.56299e-05
10 *547:25 *1512:A3 0
11 *547:25 *2123:A 0.000341205
12 *547:25 *2159:A 0
13 *547:25 *653:8 0
14 *547:25 *1080:131 0.000208879
15 *2052:A *2053:A 0
16 *34:12 *547:25 0
*RES
1 *2052:Y *547:6 20.3193 
2 *547:6 *2053:A 22.5956 
3 *547:6 *547:25 46.2006 
4 *547:25 *1512:A0 20 
*END

*D_NET *548 0.000251071
*CONN
*I *2054:A I *D sg13cmos5l_inv_1
*I *2053:Y O *D sg13cmos5l_inv_1
*CAP
1 *2054:A 0.000125536
2 *2053:Y 0.000125536
3 *2054:A *2161:A 0
4 *2053:A *2054:A 0
*RES
1 *2053:Y *2054:A 41.3802 
*END

*D_NET *549 0.000343007
*CONN
*I *2055:A I *D sg13cmos5l_inv_1
*I *2054:Y O *D sg13cmos5l_inv_1
*CAP
1 *2055:A 0.000171504
2 *2054:Y 0.000171504
3 *2049:A *2055:A 0
4 *2053:A *2055:A 0
*RES
1 *2054:Y *2055:A 41.6171 
*END

*D_NET *550 0.000585044
*CONN
*I *2056:A I *D sg13cmos5l_inv_1
*I *2055:Y O *D sg13cmos5l_inv_1
*CAP
1 *2056:A 0.000292522
2 *2055:Y 0.000292522
3 *2056:A *2058:A 0
4 *2056:A *2059:A 0
5 *2046:A *2056:A 0
6 *2047:A *2056:A 0
7 *2048:A *2056:A 0
8 *2049:A *2056:A 0
*RES
1 *2055:Y *2056:A 42.8428 
*END

*D_NET *551 0.00026911
*CONN
*I *2057:A I *D sg13cmos5l_inv_1
*I *2056:Y O *D sg13cmos5l_inv_1
*CAP
1 *2057:A 0
2 *2056:Y 0.000134555
3 *551:8 0.000134555
4 *551:8 *1086:64 0
5 *51:32 *551:8 0
*RES
1 *2056:Y *551:8 41.5862 
2 *551:8 *2057:A 40 
*END

*D_NET *552 0.000266352
*CONN
*I *2058:A I *D sg13cmos5l_inv_1
*I *2057:Y O *D sg13cmos5l_inv_1
*CAP
1 *2058:A 0.000133176
2 *2057:Y 0.000133176
3 *2058:A *2059:A 0
4 *2056:A *2058:A 0
*RES
1 *2057:Y *2058:A 41.3802 
*END

*D_NET *553 0.000436739
*CONN
*I *2059:A I *D sg13cmos5l_inv_1
*I *2058:Y O *D sg13cmos5l_inv_1
*CAP
1 *2059:A 0.000213166
2 *2058:Y 0.000213166
3 *2059:A *2060:A 1.04068e-05
4 *2059:A *2061:A 0
5 *2046:A *2059:A 0
6 *2056:A *2059:A 0
7 *2058:A *2059:A 0
*RES
1 *2058:Y *2059:A 42.4282 
*END

*D_NET *554 0.000403515
*CONN
*I *2060:A I *D sg13cmos5l_inv_1
*I *2059:Y O *D sg13cmos5l_inv_1
*CAP
1 *2060:A 0.000105635
2 *2059:Y 0.000105635
3 *2060:A *2061:A 0.000181839
4 *2059:A *2060:A 1.04068e-05
*RES
1 *2059:Y *2060:A 41.4832 
*END

*D_NET *555 0.000628267
*CONN
*I *2061:A I *D sg13cmos5l_inv_1
*I *2060:Y O *D sg13cmos5l_inv_1
*CAP
1 *2061:A 0.000223214
2 *2060:Y 0.000223214
3 *2038:A *2061:A 0
4 *2039:A *2061:A 0
5 *2043:A *2061:A 0
6 *2059:A *2061:A 0
7 *2060:A *2061:A 0.000181839
8 *51:24 *2061:A 0
*RES
1 *2060:Y *2061:A 42.4926 
*END

*D_NET *556 0.000240103
*CONN
*I *2062:A I *D sg13cmos5l_inv_1
*I *2051:Y O *D sg13cmos5l_inv_1
*CAP
1 *2062:A 0.000120051
2 *2051:Y 0.000120051
3 *2062:A *2084:A 0
4 *2062:A *2162:A 0
5 *1581:A *2062:A 0
6 *1984:A *2062:A 0
7 *1995:A *2062:A 0
8 *2029:A *2062:A 0
9 *2051:A *2062:A 0
*RES
1 *2051:Y *2062:A 41.3802 
*END

*D_NET *557 0.000447356
*CONN
*I *2063:A I *D sg13cmos5l_inv_1
*I *2061:Y O *D sg13cmos5l_inv_1
*CAP
1 *2063:A 3.82319e-05
2 *2061:Y 0.000185446
3 *557:8 0.000223678
4 *557:8 *1076:62 0
5 *51:32 *557:8 0
*RES
1 *2061:Y *557:8 41.8334 
2 *557:8 *2063:A 40.3193 
*END

*D_NET *558 0.000260393
*CONN
*I *2064:A I *D sg13cmos5l_inv_1
*I *2063:Y O *D sg13cmos5l_inv_1
*CAP
1 *2064:A 0
2 *2063:Y 0.000130196
3 *558:8 0.000130196
4 *558:8 *559:8 0
*RES
1 *2063:Y *558:8 41.339 
2 *558:8 *2064:A 40 
*END

*D_NET *559 0.000982188
*CONN
*I *2065:A I *D sg13cmos5l_inv_1
*I *2064:Y O *D sg13cmos5l_inv_1
*CAP
1 *2065:A 0.000206934
2 *2064:Y 0.000113558
3 *559:8 0.000320491
4 *559:8 *1076:62 0.000341205
5 *558:8 *559:8 0
*RES
1 *2064:Y *559:8 41.5862 
2 *559:8 *2065:A 41.6171 
*END

*D_NET *560 0.00150685
*CONN
*I *2066:A I *D sg13cmos5l_inv_1
*I *2065:Y O *D sg13cmos5l_inv_1
*CAP
1 *2066:A 0.000236789
2 *2065:Y 0.000257652
3 *560:8 0.00049444
4 *2066:A *2067:A 0.000177263
5 *2066:A *2116:A 0
6 *2066:A *2118:A 0
7 *2066:A *1078:103 0
8 *560:8 *562:8 0
9 *560:8 *1076:62 0
10 *560:8 *1078:103 0.000340704
11 *2035:A *560:8 0
*RES
1 *2065:Y *560:8 42.8222 
2 *560:8 *2066:A 42.4308 
*END

*D_NET *561 0.000642757
*CONN
*I *2067:A I *D sg13cmos5l_inv_1
*I *2066:Y O *D sg13cmos5l_inv_1
*CAP
1 *2067:A 0.000232747
2 *2066:Y 0.000232747
3 *2067:A *1078:103 0
4 *2030:A *2067:A 0
5 *2066:A *2067:A 0.000177263
*RES
1 *2066:Y *2067:A 42.5647 
*END

*D_NET *562 0.000423399
*CONN
*I *2068:A I *D sg13cmos5l_inv_1
*I *2067:Y O *D sg13cmos5l_inv_1
*CAP
1 *2068:A 0
2 *2067:Y 0.000211699
3 *562:8 0.000211699
4 *562:8 *1078:103 0
5 *1510:A0 *562:8 0
6 *2035:A *562:8 0
7 *560:8 *562:8 0
*RES
1 *2067:Y *562:8 41.5862 
2 *562:8 *2068:A 40 
*END

*D_NET *563 0.000102732
*CONN
*I *2069:A I *D sg13cmos5l_inv_1
*I *2068:Y O *D sg13cmos5l_inv_1
*CAP
1 *2069:A 5.13658e-05
2 *2068:Y 5.13658e-05
3 *1957:A *2069:A 0
4 *2030:A *2069:A 0
*RES
1 *2068:Y *2069:A 40.5974 
*END

*D_NET *564 0.00235064
*CONN
*I *1510:A1 I *D sg13cmos5l_mux4_1
*I *2070:A I *D sg13cmos5l_inv_1
*I *2069:Y O *D sg13cmos5l_inv_1
*CAP
1 *1510:A1 0
2 *2070:A 0
3 *2069:Y 0.000196057
4 *564:16 0.000434901
5 *564:8 0.000630958
6 *564:8 *1542:S1 0
7 *564:8 *2114:A 0
8 *564:16 *1510:A2 0.000768038
9 *564:16 *599:8 0.000320681
10 *564:16 *1076:62 0
11 *564:16 *1080:131 0
12 *1510:A0 *564:8 0
13 *1960:A *564:8 0
14 *455:23 *564:16 0
*RES
1 *2069:Y *564:8 21.9982 
2 *564:8 *564:16 46.3551 
3 *564:16 *2070:A 20 
4 *564:8 *1510:A1 20 
*END

*D_NET *565 0.000133739
*CONN
*I *2071:A I *D sg13cmos5l_inv_1
*I *2070:Y O *D sg13cmos5l_inv_1
*CAP
1 *2071:A 6.68694e-05
2 *2070:Y 6.68694e-05
3 *2071:A *2103:A 0
4 *1969:A *2071:A 0
5 *1970:A *2071:A 0
*RES
1 *2070:Y *2071:A 40.8446 
*END

*D_NET *566 0.000133739
*CONN
*I *2072:A I *D sg13cmos5l_inv_1
*I *2071:Y O *D sg13cmos5l_inv_1
*CAP
1 *2072:A 6.68694e-05
2 *2071:Y 6.68694e-05
3 *2072:A *2101:A 0
4 *1970:A *2072:A 0
5 *1971:A *2072:A 0
*RES
1 *2071:Y *2072:A 40.8446 
*END

*D_NET *567 0.000300561
*CONN
*I *2073:A I *D sg13cmos5l_inv_1
*I *2062:Y O *D sg13cmos5l_inv_1
*CAP
1 *2073:A 0.000150281
2 *2062:Y 0.000150281
3 *2073:A *2084:A 0
4 *2073:A *2162:A 0
5 *1995:A *2073:A 0
*RES
1 *2062:Y *2073:A 41.6171 
*END

*D_NET *568 9.45957e-05
*CONN
*I *2074:A I *D sg13cmos5l_inv_1
*I *2072:Y O *D sg13cmos5l_inv_1
*CAP
1 *2074:A 4.72978e-05
2 *2072:Y 4.72978e-05
3 *2074:A *2101:A 0
4 *1971:A *2074:A 0
*RES
1 *2072:Y *2074:A 40.5974 
*END

*D_NET *569 0.000533414
*CONN
*I *2075:A I *D sg13cmos5l_inv_1
*I *2074:Y O *D sg13cmos5l_inv_1
*CAP
1 *2075:A 0.000194181
2 *2074:Y 0.000194181
3 *2075:A *2076:A 0.000145053
4 *1974:A *2075:A 0
*RES
1 *2074:Y *2075:A 42.2145 
*END

*D_NET *570 0.000459093
*CONN
*I *2076:A I *D sg13cmos5l_inv_1
*I *2075:Y O *D sg13cmos5l_inv_1
*CAP
1 *2076:A 0.00015702
2 *2075:Y 0.00015702
3 *2075:A *2076:A 0.000145053
4 *455:23 *2076:A 0
*RES
1 *2075:Y *2076:A 41.6171 
*END

*D_NET *571 0.000264182
*CONN
*I *2077:A I *D sg13cmos5l_inv_1
*I *2076:Y O *D sg13cmos5l_inv_1
*CAP
1 *2077:A 0.000132091
2 *2076:Y 0.000132091
3 *2077:A *2078:A 0
4 *2077:A *2583:A 0
*RES
1 *2076:Y *2077:A 41.4008 
*END

*D_NET *572 0.000338937
*CONN
*I *2078:A I *D sg13cmos5l_inv_1
*I *2077:Y O *D sg13cmos5l_inv_1
*CAP
1 *2078:A 0.00010516
2 *2077:Y 0.00010516
3 *2078:A *2079:A 0.000128618
4 *2078:A *2080:A 0
5 *2078:A *2100:A 0
6 *2078:A *2583:A 0
7 *2077:A *2078:A 0
*RES
1 *2077:Y *2078:A 41.3802 
*END

*D_NET *573 0.000532967
*CONN
*I *2079:A I *D sg13cmos5l_inv_1
*I *2078:Y O *D sg13cmos5l_inv_1
*CAP
1 *2079:A 0.000202175
2 *2078:Y 0.000202175
3 *2079:A *2080:A 0
4 *2079:A *2081:A 0
5 *2079:A *2098:A 0
6 *2079:A *2100:A 0
7 *2078:A *2079:A 0.000128618
*RES
1 *2078:Y *2079:A 42.4617 
*END

*D_NET *574 0.000238916
*CONN
*I *2080:A I *D sg13cmos5l_inv_1
*I *2079:Y O *D sg13cmos5l_inv_1
*CAP
1 *2080:A 0.00011173
2 *2079:Y 0.00011173
3 *2080:A *2082:A 1.54556e-05
4 *2080:A *2083:A 0
5 *2080:A *2096:A 0
6 *2080:A *2098:A 0
7 *2078:A *2080:A 0
8 *2079:A *2080:A 0
*RES
1 *2079:Y *2080:A 41.3802 
*END

*D_NET *575 0.00012456
*CONN
*I *2081:A I *D sg13cmos5l_inv_1
*I *2080:Y O *D sg13cmos5l_inv_1
*CAP
1 *2081:A 6.22801e-05
2 *2080:Y 6.22801e-05
3 *2081:A *2082:A 0
4 *2079:A *2081:A 0
*RES
1 *2080:Y *2081:A 40.5974 
*END

*D_NET *576 0.000445244
*CONN
*I *2082:A I *D sg13cmos5l_inv_1
*I *2081:Y O *D sg13cmos5l_inv_1
*CAP
1 *2082:A 0.000214894
2 *2081:Y 0.000214894
3 *2082:A *2083:A 0
4 *2082:A *2096:A 0
5 *2082:A *2098:A 0
6 *2080:A *2082:A 1.54556e-05
7 *2081:A *2082:A 0
*RES
1 *2081:Y *2082:A 42.2454 
*END

*D_NET *577 0.000223024
*CONN
*I *2083:A I *D sg13cmos5l_inv_1
*I *2082:Y O *D sg13cmos5l_inv_1
*CAP
1 *2083:A 0.000111512
2 *2082:Y 0.000111512
3 *2083:A *2584:A 0
4 *2080:A *2083:A 0
5 *2082:A *2083:A 0
*RES
1 *2082:Y *2083:A 41.3802 
*END

*D_NET *578 0.000223737
*CONN
*I *2084:A I *D sg13cmos5l_inv_1
*I *2073:Y O *D sg13cmos5l_inv_1
*CAP
1 *2084:A 0.000111869
2 *2073:Y 0.000111869
3 *1984:A *2084:A 0
4 *2062:A *2084:A 0
5 *2073:A *2084:A 0
*RES
1 *2073:Y *2084:A 41.3802 
*END

*D_NET *579 0.00132955
*CONN
*I *2085:A I *D sg13cmos5l_inv_1
*I *2083:Y O *D sg13cmos5l_inv_1
*CAP
1 *2085:A 0.000427009
2 *2083:Y 0.000427009
3 *2085:A *1559:A 0.000475536
4 *2085:A *2086:A 0
5 *2085:A *2087:A 0
6 *2085:A *2584:A 0
7 *2085:A *2585:A 0
*RES
1 *2083:Y *2085:A 44.7895 
*END

*D_NET *580 0.00114171
*CONN
*I *1559:A I *D sg13cmos5l_buf_1
*I *2086:A I *D sg13cmos5l_inv_1
*I *2085:Y O *D sg13cmos5l_inv_1
*CAP
1 *1559:A 0.000239167
2 *2086:A 9.3918e-05
3 *2085:Y 0
4 *580:4 0.000333085
5 *1559:A *2087:A 0
6 *1559:A *2584:A 0
7 *2086:A *2087:A 0
8 *2086:A *2090:A 0
9 *2086:A *2092:A 0
10 *2086:A *2584:A 0
11 *2085:A *1559:A 0.000475536
12 *2085:A *2086:A 0
*RES
1 *2085:Y *580:4 20 
2 *580:4 *2086:A 21.133 
3 *580:4 *1559:A 22.9561 
*END

*D_NET *581 0.000631205
*CONN
*I *2087:A I *D sg13cmos5l_inv_1
*I *2086:Y O *D sg13cmos5l_inv_1
*CAP
1 *2087:A 0.000259573
2 *2086:Y 0.000259573
3 *2087:A *2433:A 0
4 *2087:A *2434:A 0
5 *2087:A *2437:A 0
6 *2087:A *2585:A 0
7 *2087:A *582:10 0.000112058
8 *1559:A *2087:A 0
9 *2085:A *2087:A 0
10 *2086:A *2087:A 0
*RES
1 *2086:Y *2087:A 42.7089 
*END

*D_NET *582 0.00411394
*CONN
*I *2088:A I *D sg13cmos5l_inv_1
*I *1512:A1 I *D sg13cmos5l_mux4_1
*I *2087:Y O *D sg13cmos5l_inv_1
*CAP
1 *2088:A 0
2 *1512:A1 0
3 *2087:Y 0.00054887
4 *582:22 0.000876833
5 *582:14 0.00119067
6 *582:10 0.000862703
7 *582:10 *2585:A 0
8 *582:10 *705:21 0
9 *582:14 *2090:A 0
10 *582:14 *2146:A 0
11 *582:22 *1512:A3 0.00034162
12 *582:22 *629:8 0
13 *582:22 *1086:64 0
14 *2087:A *582:10 0.000112058
15 *32:10 *582:22 0.000181192
16 *33:24 *582:22 0
*RES
1 *2087:Y *582:10 45.0573 
2 *582:10 *582:14 22.9149 
3 *582:14 *582:22 47.5911 
4 *582:22 *1512:A1 20 
5 *582:14 *2088:A 20 
*END

*D_NET *583 0.000119252
*CONN
*I *2089:A I *D sg13cmos5l_inv_1
*I *2088:Y O *D sg13cmos5l_inv_1
*CAP
1 *2089:A 5.96258e-05
2 *2088:Y 5.96258e-05
3 *2089:A *2137:A 0
*RES
1 *2088:Y *2089:A 40.5974 
*END

*D_NET *584 0.000306294
*CONN
*I *2090:A I *D sg13cmos5l_inv_1
*I *2089:Y O *D sg13cmos5l_inv_1
*CAP
1 *2090:A 0.000153147
2 *2089:Y 0.000153147
3 *2090:A *2092:A 0
4 *2086:A *2090:A 0
5 *582:14 *2090:A 0
*RES
1 *2089:Y *2090:A 41.4008 
*END

*D_NET *585 9.45957e-05
*CONN
*I *2091:A I *D sg13cmos5l_inv_1
*I *2090:Y O *D sg13cmos5l_inv_1
*CAP
1 *2091:A 4.72978e-05
2 *2090:Y 4.72978e-05
3 *2091:A *2093:A 0
4 *2091:A *2431:A 0
*RES
1 *2090:Y *2091:A 40.5974 
*END

*D_NET *586 0.000428234
*CONN
*I *2092:A I *D sg13cmos5l_inv_1
*I *2091:Y O *D sg13cmos5l_inv_1
*CAP
1 *2092:A 0.000206416
2 *2091:Y 0.000206416
3 *2092:A *2093:A 1.54008e-05
4 *2086:A *2092:A 0
5 *2090:A *2092:A 0
*RES
1 *2091:Y *2092:A 41.751 
*END

*D_NET *587 0.000273451
*CONN
*I *2093:A I *D sg13cmos5l_inv_1
*I *2092:Y O *D sg13cmos5l_inv_1
*CAP
1 *2093:A 0.000129025
2 *2092:Y 0.000129025
3 *2093:A *2097:A 0
4 *2093:A *2584:A 0
5 *2091:A *2093:A 0
6 *2092:A *2093:A 1.54008e-05
*RES
1 *2092:Y *2093:A 41.3802 
*END

*D_NET *588 0.000609002
*CONN
*I *2094:A I *D sg13cmos5l_inv_1
*I *2093:Y O *D sg13cmos5l_inv_1
*CAP
1 *2094:A 0
2 *2093:Y 0.000304501
3 *588:10 0.000304501
4 *588:10 *2135:A 0
*RES
1 *2093:Y *588:10 43.4505 
2 *588:10 *2094:A 40 
*END

*D_NET *589 9.45957e-05
*CONN
*I *2095:A I *D sg13cmos5l_inv_1
*I *2084:Y O *D sg13cmos5l_inv_1
*CAP
1 *2095:A 4.72978e-05
2 *2084:Y 4.72978e-05
*RES
1 *2084:Y *2095:A 40.5974 
*END

*D_NET *590 0.000232259
*CONN
*I *2096:A I *D sg13cmos5l_inv_1
*I *2094:Y O *D sg13cmos5l_inv_1
*CAP
1 *2096:A 0.00011613
2 *2094:Y 0.00011613
3 *2096:A *2098:A 0
4 *2096:A *2584:A 0
5 *2080:A *2096:A 0
6 *2082:A *2096:A 0
*RES
1 *2094:Y *2096:A 41.2922 
*END

*D_NET *591 9.81466e-05
*CONN
*I *2097:A I *D sg13cmos5l_inv_1
*I *2096:Y O *D sg13cmos5l_inv_1
*CAP
1 *2097:A 4.90733e-05
2 *2096:Y 4.90733e-05
3 *2093:A *2097:A 0
*RES
1 *2096:Y *2097:A 40.5974 
*END

*D_NET *592 0.000344148
*CONN
*I *2098:A I *D sg13cmos5l_inv_1
*I *2097:Y O *D sg13cmos5l_inv_1
*CAP
1 *2098:A 0.000172074
2 *2097:Y 0.000172074
3 *2098:A *2099:A 0
4 *2098:A *2138:A 0
5 *2079:A *2098:A 0
6 *2080:A *2098:A 0
7 *2082:A *2098:A 0
8 *2096:A *2098:A 0
*RES
1 *2097:Y *2098:A 41.854 
*END

*D_NET *593 0.000108868
*CONN
*I *2099:A I *D sg13cmos5l_inv_1
*I *2098:Y O *D sg13cmos5l_inv_1
*CAP
1 *2099:A 5.44338e-05
2 *2098:Y 5.44338e-05
3 *2099:A *2100:A 0
4 *2098:A *2099:A 0
*RES
1 *2098:Y *2099:A 40.5974 
*END

*D_NET *594 0.000456634
*CONN
*I *2100:A I *D sg13cmos5l_inv_1
*I *2099:Y O *D sg13cmos5l_inv_1
*CAP
1 *2100:A 0.000228317
2 *2099:Y 0.000228317
3 *2078:A *2100:A 0
4 *2079:A *2100:A 0
5 *2099:A *2100:A 0
*RES
1 *2099:Y *2100:A 42.4617 
*END

*D_NET *595 9.45957e-05
*CONN
*I *2101:A I *D sg13cmos5l_inv_1
*I *2100:Y O *D sg13cmos5l_inv_1
*CAP
1 *2101:A 4.72978e-05
2 *2100:Y 4.72978e-05
3 *2072:A *2101:A 0
4 *2074:A *2101:A 0
*RES
1 *2100:Y *2101:A 40.5974 
*END

*D_NET *596 0.000296362
*CONN
*I *2102:A I *D sg13cmos5l_inv_1
*I *2101:Y O *D sg13cmos5l_inv_1
*CAP
1 *2102:A 0
2 *2101:Y 0.000148181
3 *596:8 0.000148181
*RES
1 *2101:Y *596:8 41.8334 
2 *596:8 *2102:A 40 
*END

*D_NET *597 9.45957e-05
*CONN
*I *2103:A I *D sg13cmos5l_inv_1
*I *2102:Y O *D sg13cmos5l_inv_1
*CAP
1 *2103:A 4.72978e-05
2 *2102:Y 4.72978e-05
3 *2071:A *2103:A 0
*RES
1 *2102:Y *2103:A 40.5974 
*END

*D_NET *598 0.000323777
*CONN
*I *2104:A I *D sg13cmos5l_inv_1
*I *2103:Y O *D sg13cmos5l_inv_1
*CAP
1 *2104:A 0.000161888
2 *2103:Y 0.000161888
3 *2104:A *2107:A 0
4 *2104:A *1082:79 0
5 *1968:A *2104:A 0
*RES
1 *2103:Y *2104:A 41.751 
*END

*D_NET *599 0.00170999
*CONN
*I *2105:A I *D sg13cmos5l_inv_1
*I *1510:A2 I *D sg13cmos5l_mux4_1
*I *2104:Y O *D sg13cmos5l_inv_1
*CAP
1 *2105:A 0
2 *1510:A2 0.000222327
3 *2104:Y 8.83073e-05
4 *599:8 0.000310634
5 *1510:A2 *1076:121 0
6 *1510:A2 *1080:131 0
7 *1510:A2 *1082:89 0
8 *30:16 *1510:A2 0
9 *564:16 *1510:A2 0.000768038
10 *564:16 *599:8 0.000320681
*RES
1 *2104:Y *599:8 41.5862 
2 *599:8 *1510:A2 43.5638 
3 *599:8 *2105:A 40 
*END

*D_NET *600 9.76586e-05
*CONN
*I *2106:A I *D sg13cmos5l_inv_1
*I *2095:Y O *D sg13cmos5l_inv_1
*CAP
1 *2106:A 4.88293e-05
2 *2095:Y 4.88293e-05
3 *2106:A *2162:A 0
*RES
1 *2095:Y *2106:A 40.5974 
*END

*D_NET *601 0.000402437
*CONN
*I *2107:A I *D sg13cmos5l_inv_1
*I *2105:Y O *D sg13cmos5l_inv_1
*CAP
1 *2107:A 0.000193491
2 *2105:Y 0.000193491
3 *2107:A *2108:A 1.54556e-05
4 *2107:A *2111:A 0
5 *2107:A *1082:79 0
6 *2104:A *2107:A 0
7 *30:16 *2107:A 0
*RES
1 *2105:Y *2107:A 42.1012 
*END

*D_NET *602 0.000260936
*CONN
*I *2108:A I *D sg13cmos5l_inv_1
*I *2107:Y O *D sg13cmos5l_inv_1
*CAP
1 *2108:A 0.00012274
2 *2107:Y 0.00012274
3 *2108:A *2141:A 0
4 *1514:A0 *2108:A 0
5 *2107:A *2108:A 1.54556e-05
*RES
1 *2107:Y *2108:A 41.3802 
*END

*D_NET *603 0.000106737
*CONN
*I *2109:A I *D sg13cmos5l_inv_1
*I *2108:Y O *D sg13cmos5l_inv_1
*CAP
1 *2109:A 5.33685e-05
2 *2108:Y 5.33685e-05
3 *2109:A *2143:A 0
4 *30:16 *2109:A 0
*RES
1 *2108:Y *2109:A 40.5974 
*END

*D_NET *604 0.000183512
*CONN
*I *2110:A I *D sg13cmos5l_inv_1
*I *2109:Y O *D sg13cmos5l_inv_1
*CAP
1 *2110:A 8.40554e-05
2 *2109:Y 8.40554e-05
3 *2110:A *2111:A 0
4 *2110:A *2143:A 0
5 *1514:A0 *2110:A 1.54008e-05
6 *30:16 *2110:A 0
*RES
1 *2109:Y *2110:A 40.9167 
*END

*D_NET *605 0.000156949
*CONN
*I *2111:A I *D sg13cmos5l_inv_1
*I *2110:Y O *D sg13cmos5l_inv_1
*CAP
1 *2111:A 7.84743e-05
2 *2110:Y 7.84743e-05
3 *2107:A *2111:A 0
4 *2110:A *2111:A 0
5 *30:16 *2111:A 0
*RES
1 *2110:Y *2111:A 40.9167 
*END

*D_NET *606 0.000125951
*CONN
*I *2112:A I *D sg13cmos5l_inv_1
*I *2111:Y O *D sg13cmos5l_inv_1
*CAP
1 *2112:A 6.29756e-05
2 *2111:Y 6.29756e-05
*RES
1 *2111:Y *2112:A 40.5974 
*END

*D_NET *607 9.45957e-05
*CONN
*I *2113:A I *D sg13cmos5l_inv_1
*I *2112:Y O *D sg13cmos5l_inv_1
*CAP
1 *2113:A 4.72978e-05
2 *2112:Y 4.72978e-05
3 *2113:A *2130:A 0
*RES
1 *2112:Y *2113:A 40.5974 
*END

*D_NET *608 9.45957e-05
*CONN
*I *2114:A I *D sg13cmos5l_inv_1
*I *2113:Y O *D sg13cmos5l_inv_1
*CAP
1 *2114:A 4.72978e-05
2 *2113:Y 4.72978e-05
3 *2114:A *2127:A 0
4 *564:8 *2114:A 0
*RES
1 *2113:Y *2114:A 40.5974 
*END

*D_NET *609 9.45957e-05
*CONN
*I *2115:A I *D sg13cmos5l_inv_1
*I *2114:Y O *D sg13cmos5l_inv_1
*CAP
1 *2115:A 4.72978e-05
2 *2114:Y 4.72978e-05
3 *2115:A *2126:A 0
*RES
1 *2114:Y *2115:A 40.5974 
*END

*D_NET *610 9.45957e-05
*CONN
*I *2116:A I *D sg13cmos5l_inv_1
*I *2115:Y O *D sg13cmos5l_inv_1
*CAP
1 *2116:A 4.72978e-05
2 *2115:Y 4.72978e-05
3 *2116:A *2125:A 0
4 *2066:A *2116:A 0
*RES
1 *2115:Y *2116:A 40.5974 
*END

*D_NET *611 9.76586e-05
*CONN
*I *2117:A I *D sg13cmos5l_inv_1
*I *2106:Y O *D sg13cmos5l_inv_1
*CAP
1 *2117:A 4.88293e-05
2 *2106:Y 4.88293e-05
3 *2117:A *2162:A 0
*RES
1 *2106:Y *2117:A 40.5974 
*END

*D_NET *612 0.000102869
*CONN
*I *2118:A I *D sg13cmos5l_inv_1
*I *2116:Y O *D sg13cmos5l_inv_1
*CAP
1 *2118:A 5.14344e-05
2 *2116:Y 5.14344e-05
3 *2118:A *2119:A 0
4 *2118:A *1080:131 0
5 *2066:A *2118:A 0
*RES
1 *2116:Y *2118:A 40.5974 
*END

*D_NET *613 0.00048219
*CONN
*I *2119:A I *D sg13cmos5l_inv_1
*I *2118:Y O *D sg13cmos5l_inv_1
*CAP
1 *2119:A 0.00020091
2 *2118:Y 0.00020091
3 *2119:A *1080:131 8.03692e-05
4 *2118:A *2119:A 0
*RES
1 *2118:Y *2119:A 41.9673 
*END

*D_NET *614 0.000293316
*CONN
*I *2120:A I *D sg13cmos5l_inv_1
*I *2119:Y O *D sg13cmos5l_inv_1
*CAP
1 *2120:A 0
2 *2119:Y 0.000146658
3 *614:8 0.000146658
4 *614:8 *618:12 0
*RES
1 *2119:Y *614:8 41.339 
2 *614:8 *2120:A 40 
*END

*D_NET *615 0.000448251
*CONN
*I *2121:A I *D sg13cmos5l_inv_1
*I *2120:Y O *D sg13cmos5l_inv_1
*CAP
1 *2121:A 0.000224125
2 *2120:Y 0.000224125
3 *2121:A *618:12 0
*RES
1 *2120:Y *2121:A 41.751 
*END

*D_NET *616 0.000552713
*CONN
*I *2122:A I *D sg13cmos5l_inv_1
*I *2121:Y O *D sg13cmos5l_inv_1
*CAP
1 *2122:A 0
2 *2121:Y 0.000105961
3 *616:8 0.000105961
4 *616:8 *618:12 0
5 *616:8 *1086:64 0.00034079
*RES
1 *2121:Y *616:8 41.5862 
2 *616:8 *2122:A 40 
*END

*D_NET *617 0.00207713
*CONN
*I *1512:A2 I *D sg13cmos5l_mux4_1
*I *2123:A I *D sg13cmos5l_inv_1
*I *2122:Y O *D sg13cmos5l_inv_1
*CAP
1 *1512:A2 0.000270434
2 *2123:A 0.000285229
3 *2122:Y 0
4 *617:6 0.000555663
5 *1512:A2 *1512:A3 0
6 *1512:A2 *1080:131 0
7 *1512:A2 *1086:64 0
8 *2123:A *2159:A 4.78356e-05
9 *2123:A *618:12 0
10 *1514:A2 *1512:A2 0
11 *33:24 *1512:A2 0
12 *34:12 *1512:A2 0.000159424
13 *34:12 *2123:A 0.000341707
14 *547:25 *1512:A2 7.56299e-05
15 *547:25 *2123:A 0.000341205
*RES
1 *2122:Y *617:6 40 
2 *617:6 *2123:A 43.2033 
3 *617:6 *1512:A2 42.987 
*END

*D_NET *618 0.0016792
*CONN
*I *2124:A I *D sg13cmos5l_inv_1
*I *2123:Y O *D sg13cmos5l_inv_1
*CAP
1 *2124:A 4.42277e-05
2 *2123:Y 0.000755227
3 *618:12 0.000799455
4 *2124:A *1080:131 8.02924e-05
5 *618:12 *2159:A 0
6 *618:12 *1086:64 0
7 *2121:A *618:12 0
8 *2123:A *618:12 0
9 *614:8 *618:12 0
10 *616:8 *618:12 0
*RES
1 *2123:Y *618:12 45.8401 
2 *618:12 *2124:A 40.5356 
*END

*D_NET *619 9.45957e-05
*CONN
*I *2125:A I *D sg13cmos5l_inv_1
*I *2124:Y O *D sg13cmos5l_inv_1
*CAP
1 *2125:A 4.72978e-05
2 *2124:Y 4.72978e-05
3 *2116:A *2125:A 0
*RES
1 *2124:Y *2125:A 40.5974 
*END

*D_NET *620 9.45957e-05
*CONN
*I *2126:A I *D sg13cmos5l_inv_1
*I *2125:Y O *D sg13cmos5l_inv_1
*CAP
1 *2126:A 4.72978e-05
2 *2125:Y 4.72978e-05
3 *2115:A *2126:A 0
*RES
1 *2125:Y *2126:A 40.5974 
*END

*D_NET *621 9.45957e-05
*CONN
*I *2127:A I *D sg13cmos5l_inv_1
*I *2126:Y O *D sg13cmos5l_inv_1
*CAP
1 *2127:A 4.72978e-05
2 *2126:Y 4.72978e-05
3 *2114:A *2127:A 0
*RES
1 *2126:Y *2127:A 40.5974 
*END

*D_NET *622 0.000221432
*CONN
*I *2128:A I *D sg13cmos5l_inv_1
*I *2117:Y O *D sg13cmos5l_inv_1
*CAP
1 *2128:A 0
2 *2117:Y 0.000110716
3 *622:8 0.000110716
4 *77:12 *622:8 0
*RES
1 *2117:Y *622:8 41.339 
2 *622:8 *2128:A 40 
*END

*D_NET *623 0.000469823
*CONN
*I *2129:A I *D sg13cmos5l_inv_1
*I *2018:Y O *D sg13cmos5l_inv_1
*CAP
1 *2129:A 0.000234912
2 *2018:Y 0.000234912
3 *2129:A *2240:A 0
4 *2129:A *2351:A 0
5 *2018:A *2129:A 0
6 *434:10 *2129:A 0
*RES
1 *2018:Y *2129:A 42.4617 
*END

*D_NET *624 9.45957e-05
*CONN
*I *2130:A I *D sg13cmos5l_inv_1
*I *2127:Y O *D sg13cmos5l_inv_1
*CAP
1 *2130:A 4.72978e-05
2 *2127:Y 4.72978e-05
3 *2113:A *2130:A 0
*RES
1 *2127:Y *2130:A 40.5974 
*END

*D_NET *625 0.00104307
*CONN
*I *2131:A I *D sg13cmos5l_inv_1
*I *2130:Y O *D sg13cmos5l_inv_1
*CAP
1 *2131:A 8.26298e-05
2 *2130:Y 0.000281837
3 *625:10 0.000364466
4 *2131:A *2144:A 0
5 *625:10 *627:8 0
6 *625:10 *628:10 0
7 *625:10 *1076:121 7.99147e-05
8 *625:10 *1082:97 0.000234224
9 *625:10 *1086:64 0
10 *1514:A0 *2131:A 0
*RES
1 *2130:Y *625:10 43.0797 
2 *625:10 *2131:A 40.7519 
*END

*D_NET *626 0.00113956
*CONN
*I *2132:A I *D sg13cmos5l_inv_1
*I *2131:Y O *D sg13cmos5l_inv_1
*CAP
1 *2132:A 0.000360938
2 *2131:Y 0.000360938
3 *2132:A *2143:A 0
4 *2132:A *2144:A 0
5 *2132:A *2145:A 0
6 *2132:A *1076:121 0.000208859
7 *2132:A *1082:89 0.000208823
8 *1514:A0 *2132:A 0
*RES
1 *2131:Y *2132:A 44.0994 
*END

*D_NET *627 0.000947049
*CONN
*I *2133:A I *D sg13cmos5l_inv_1
*I *2132:Y O *D sg13cmos5l_inv_1
*CAP
1 *2133:A 0.000123375
2 *2132:Y 0.000245277
3 *627:8 0.000368651
4 *2133:A *2135:A 0
5 *2133:A *2138:A 0
6 *2133:A *2144:A 0.000209747
7 *627:8 *1510:A3 0
8 *627:8 *628:10 0
9 *627:8 *636:10 0
10 *625:10 *627:8 0
*RES
1 *2132:Y *627:8 42.575 
2 *627:8 *2133:A 41.4008 
*END

*D_NET *628 0.000732853
*CONN
*I *2134:A I *D sg13cmos5l_inv_1
*I *2133:Y O *D sg13cmos5l_inv_1
*CAP
1 *2134:A 0.000167741
2 *2133:Y 0.000198686
3 *628:10 0.000366427
4 *2134:A *2144:A 0
5 *628:10 *629:8 0
6 *33:16 *2134:A 0
7 *625:10 *628:10 0
8 *627:8 *628:10 0
*RES
1 *2133:Y *628:10 41.9055 
2 *628:10 *2134:A 41.4008 
*END

*D_NET *629 0.000867675
*CONN
*I *2135:A I *D sg13cmos5l_inv_1
*I *2134:Y O *D sg13cmos5l_inv_1
*CAP
1 *2135:A 0.000164325
2 *2134:Y 0.000269513
3 *629:8 0.000433838
4 *2135:A *2144:A 0
5 *629:8 *1086:64 0
6 *2133:A *2135:A 0
7 *582:22 *629:8 0
8 *588:10 *2135:A 0
9 *628:10 *629:8 0
*RES
1 *2134:Y *629:8 42.3278 
2 *629:8 *2135:A 40.5963 
*END

*D_NET *630 9.45957e-05
*CONN
*I *2136:A I *D sg13cmos5l_inv_1
*I *2135:Y O *D sg13cmos5l_inv_1
*CAP
1 *2136:A 4.72978e-05
2 *2135:Y 4.72978e-05
3 *2136:A *2139:A 0
4 *2136:A *2141:A 0
*RES
1 *2135:Y *2136:A 40.5974 
*END

*D_NET *631 0.000106669
*CONN
*I *2137:A I *D sg13cmos5l_inv_1
*I *2136:Y O *D sg13cmos5l_inv_1
*CAP
1 *2137:A 5.33344e-05
2 *2136:Y 5.33344e-05
3 *2137:A *2139:A 0
4 *2089:A *2137:A 0
*RES
1 *2136:Y *2137:A 40.5974 
*END

*D_NET *632 0.000413235
*CONN
*I *2138:A I *D sg13cmos5l_inv_1
*I *2137:Y O *D sg13cmos5l_inv_1
*CAP
1 *2138:A 0.000206617
2 *2137:Y 0.000206617
3 *2098:A *2138:A 0
4 *2133:A *2138:A 0
*RES
1 *2137:Y *2138:A 42.1012 
*END

*D_NET *633 9.45957e-05
*CONN
*I *2139:A I *D sg13cmos5l_inv_1
*I *2138:Y O *D sg13cmos5l_inv_1
*CAP
1 *2139:A 4.72978e-05
2 *2138:Y 4.72978e-05
3 *2136:A *2139:A 0
4 *2137:A *2139:A 0
*RES
1 *2138:Y *2139:A 40.5974 
*END

*D_NET *634 0.000226753
*CONN
*I *2140:A I *D sg13cmos5l_inv_1
*I *2128:Y O *D sg13cmos5l_inv_1
*CAP
1 *2140:A 0.000113376
2 *2128:Y 0.000113376
3 *2140:A *2239:A 0
4 *2140:A *2262:A 0
*RES
1 *2128:Y *2140:A 41.3802 
*END

*D_NET *635 9.45957e-05
*CONN
*I *2141:A I *D sg13cmos5l_inv_1
*I *2139:Y O *D sg13cmos5l_inv_1
*CAP
1 *2141:A 4.72978e-05
2 *2139:Y 4.72978e-05
3 *2108:A *2141:A 0
4 *2136:A *2141:A 0
*RES
1 *2139:Y *2141:A 40.5974 
*END

*D_NET *636 0.00214622
*CONN
*I *2142:A I *D sg13cmos5l_inv_1
*I *1510:A3 I *D sg13cmos5l_mux4_1
*I *2141:Y O *D sg13cmos5l_inv_1
*CAP
1 *2142:A 0.000108838
2 *1510:A3 0.000318752
3 *2141:Y 0.000184456
4 *636:10 0.000612045
5 *1510:A3 *1542:S1 0.000177224
6 *1510:A3 *1076:121 0.000145442
7 *1510:A3 *1080:131 4.81157e-05
8 *1510:A3 *1082:89 0.000128248
9 *636:10 *1082:89 0.000213787
10 *1514:A0 *2142:A 0.000209317
11 *627:8 *1510:A3 0
12 *627:8 *636:10 0
*RES
1 *2141:Y *636:10 42.5853 
2 *636:10 *1510:A3 43.8934 
3 *636:10 *2142:A 41.4008 
*END

*D_NET *637 0.000100309
*CONN
*I *2143:A I *D sg13cmos5l_inv_1
*I *2142:Y O *D sg13cmos5l_inv_1
*CAP
1 *2143:A 5.01543e-05
2 *2142:Y 5.01543e-05
3 *2109:A *2143:A 0
4 *2110:A *2143:A 0
5 *2132:A *2143:A 0
*RES
1 *2142:Y *2143:A 40.5974 
*END

*D_NET *638 0.00111494
*CONN
*I *2144:A I *D sg13cmos5l_inv_1
*I *2143:Y O *D sg13cmos5l_inv_1
*CAP
1 *2144:A 0.000433848
2 *2143:Y 0.000433848
3 *2144:A *2145:A 3.74976e-05
4 *2144:A *1076:121 0
5 *1514:A0 *2144:A 0
6 *2131:A *2144:A 0
7 *2132:A *2144:A 0
8 *2133:A *2144:A 0.000209747
9 *2134:A *2144:A 0
10 *2135:A *2144:A 0
*RES
1 *2143:Y *2144:A 44.2642 
*END

*D_NET *639 0.000421358
*CONN
*I *2145:A I *D sg13cmos5l_inv_1
*I *2144:Y O *D sg13cmos5l_inv_1
*CAP
1 *2145:A 0.000165481
2 *2144:Y 0.000165481
3 *2145:A *2146:A 5.28984e-05
4 *2132:A *2145:A 0
5 *2144:A *2145:A 3.74976e-05
*RES
1 *2144:Y *2145:A 41.9055 
*END

*D_NET *640 0.000484484
*CONN
*I *2146:A I *D sg13cmos5l_inv_1
*I *2145:Y O *D sg13cmos5l_inv_1
*CAP
1 *2146:A 0.000215793
2 *2145:Y 0.000215793
3 *2146:A *2148:A 0
4 *2145:A *2146:A 5.28984e-05
5 *33:16 *2146:A 0
6 *582:14 *2146:A 0
*RES
1 *2145:Y *2146:A 42.0703 
*END

*D_NET *641 0.000128822
*CONN
*I *2147:A I *D sg13cmos5l_inv_1
*I *2146:Y O *D sg13cmos5l_inv_1
*CAP
1 *2147:A 6.44109e-05
2 *2146:Y 6.44109e-05
3 *33:16 *2147:A 0
*RES
1 *2146:Y *2147:A 40.5974 
*END

*D_NET *642 0.000206641
*CONN
*I *2148:A I *D sg13cmos5l_inv_1
*I *2147:Y O *D sg13cmos5l_inv_1
*CAP
1 *2148:A 8.14892e-05
2 *2147:Y 8.14892e-05
3 *2146:A *2148:A 0
4 *33:16 *2148:A 4.36621e-05
*RES
1 *2147:Y *2148:A 40.8884 
*END

*D_NET *643 0.00104789
*CONN
*I *2149:A I *D sg13cmos5l_inv_1
*I *2148:Y O *D sg13cmos5l_inv_1
*CAP
1 *2149:A 0.000148813
2 *2148:Y 0.000179483
3 *643:8 0.000328296
4 *2149:A *644:10 7.97166e-05
5 *643:8 *644:10 0
6 *643:8 *705:21 0
7 *643:8 *1076:148 7.56308e-05
8 *33:16 *2149:A 0.000235952
*RES
1 *2148:Y *643:8 41.5862 
2 *643:8 *2149:A 41.5836 
*END

*D_NET *644 0.000834168
*CONN
*I *2150:A I *D sg13cmos5l_inv_1
*I *2149:Y O *D sg13cmos5l_inv_1
*CAP
1 *2150:A 0.000125528
2 *2149:Y 0.000163327
3 *644:10 0.000288855
4 *2150:A *1076:148 0
5 *644:10 *705:21 0
6 *2149:A *644:10 7.97166e-05
7 *33:16 *2150:A 0.000176742
8 *643:8 *644:10 0
*RES
1 *2149:Y *644:10 41.3802 
2 *644:10 *2150:A 41.1845 
*END

*D_NET *645 0.000478587
*CONN
*I *2151:A I *D sg13cmos5l_inv_1
*I *2140:Y O *D sg13cmos5l_inv_1
*CAP
1 *2151:A 0.00019928
2 *2140:Y 0.00019928
3 *2151:A *2162:A 8.00279e-05
4 *2151:A *2173:A 0
5 *2151:A *2228:A 0
6 *2151:A *2251:A 0
7 *1579:A *2151:A 0
*RES
1 *2140:Y *2151:A 42.2145 
*END

*D_NET *646 0.000687219
*CONN
*I *2152:A I *D sg13cmos5l_inv_1
*I *2150:Y O *D sg13cmos5l_inv_1
*CAP
1 *2152:A 7.1366e-05
2 *2150:Y 0.00015343
3 *646:12 0.000224796
4 *2152:A *647:12 4.78688e-05
5 *2152:A *1076:148 0.000108802
6 *646:12 *647:12 0
7 *646:12 *1076:148 8.09545e-05
8 *33:16 *646:12 0
*RES
1 *2150:Y *646:12 41.4523 
2 *646:12 *2152:A 40.7519 
*END

*D_NET *647 0.000681749
*CONN
*I *2153:A I *D sg13cmos5l_inv_1
*I *2152:Y O *D sg13cmos5l_inv_1
*CAP
1 *2153:A 7.45728e-05
2 *2152:Y 0.000141251
3 *647:12 0.000215824
4 *2153:A *2154:A 1.05183e-05
5 *647:12 *1511:A3 0
6 *647:12 *1076:148 0
7 *2152:A *647:12 4.78688e-05
8 *31:20 *2153:A 0.0001121
9 *31:20 *647:12 7.96143e-05
10 *646:12 *647:12 0
*RES
1 *2152:Y *647:12 41.4523 
2 *647:12 *2153:A 40.9347 
*END

*D_NET *648 0.000305229
*CONN
*I *2154:A I *D sg13cmos5l_inv_1
*I *2153:Y O *D sg13cmos5l_inv_1
*CAP
1 *2154:A 0.000109791
2 *2153:Y 0.000109791
3 *2153:A *2154:A 1.05183e-05
4 *31:20 *2154:A 7.51291e-05
*RES
1 *2153:Y *2154:A 41.236 
*END

*D_NET *649 0.000129475
*CONN
*I *2155:A I *D sg13cmos5l_inv_1
*I *2154:Y O *D sg13cmos5l_inv_1
*CAP
1 *2155:A 6.47374e-05
2 *2154:Y 6.47374e-05
*RES
1 *2154:Y *2155:A 40.5974 
*END

*D_NET *650 0.000129475
*CONN
*I *2156:A I *D sg13cmos5l_inv_1
*I *2155:Y O *D sg13cmos5l_inv_1
*CAP
1 *2156:A 6.47374e-05
2 *2155:Y 6.47374e-05
*RES
1 *2155:Y *2156:A 40.5974 
*END

*D_NET *651 0.000129475
*CONN
*I *2157:A I *D sg13cmos5l_inv_1
*I *2156:Y O *D sg13cmos5l_inv_1
*CAP
1 *2157:A 6.47374e-05
2 *2156:Y 6.47374e-05
*RES
1 *2156:Y *2157:A 40.5974 
*END

*D_NET *652 0.000809978
*CONN
*I *2158:A I *D sg13cmos5l_inv_1
*I *2157:Y O *D sg13cmos5l_inv_1
*CAP
1 *2158:A 0
2 *2157:Y 0.000260902
3 *652:10 0.000260902
4 *652:10 *705:21 0.000288173
5 *652:10 *1080:100 0
*RES
1 *2157:Y *652:10 42.9561 
2 *652:10 *2158:A 40 
*END

*D_NET *653 0.00262493
*CONN
*I *1512:A3 I *D sg13cmos5l_mux4_1
*I *2159:A I *D sg13cmos5l_inv_1
*I *2158:Y O *D sg13cmos5l_inv_1
*CAP
1 *1512:A3 0.000304451
2 *2159:A 0.000509551
3 *2158:Y 0.000215923
4 *653:8 0.00102993
5 *1512:A3 *1080:131 0
6 *1512:A3 *1086:64 0
7 *653:8 *1512:S0 0.000175618
8 *653:8 *1080:100 0
9 *1512:A2 *1512:A3 0
10 *2123:A *2159:A 4.78356e-05
11 *33:24 *1512:A3 0
12 *547:25 *1512:A3 0
13 *547:25 *2159:A 0
14 *547:25 *653:8 0
15 *582:22 *1512:A3 0.00034162
16 *618:12 *2159:A 0
*RES
1 *2158:Y *653:8 41.8334 
2 *653:8 *2159:A 44.4084 
3 *653:8 *1512:A3 43.605 
*END

*D_NET *654 0.000751523
*CONN
*I *2160:A I *D sg13cmos5l_inv_1
*I *2159:Y O *D sg13cmos5l_inv_1
*CAP
1 *2160:A 0
2 *2159:Y 0.000151712
3 *654:8 0.000151712
4 *654:8 *705:21 0.000448099
*RES
1 *2159:Y *654:8 42.0806 
2 *654:8 *2160:A 40 
*END

*D_NET *655 9.76025e-05
*CONN
*I *2161:A I *D sg13cmos5l_inv_1
*I *2160:Y O *D sg13cmos5l_inv_1
*CAP
1 *2161:A 4.88013e-05
2 *2160:Y 4.88013e-05
3 *2161:A *2382:A 0
4 *2161:A *2383:A 0
5 *2054:A *2161:A 0
*RES
1 *2160:Y *2161:A 40.5974 
*END

*D_NET *656 0.000633997
*CONN
*I *2162:A I *D sg13cmos5l_inv_1
*I *2151:Y O *D sg13cmos5l_inv_1
*CAP
1 *2162:A 0.000276985
2 *2151:Y 0.000276985
3 *2162:A *2173:A 0
4 *1581:A *2162:A 0
5 *2062:A *2162:A 0
6 *2073:A *2162:A 0
7 *2106:A *2162:A 0
8 *2117:A *2162:A 0
9 *2151:A *2162:A 8.00279e-05
*RES
1 *2151:Y *2162:A 43.0591 
*END

*D_NET *657 0.000104819
*CONN
*I *2163:A I *D sg13cmos5l_inv_1
*I *2161:Y O *D sg13cmos5l_inv_1
*CAP
1 *2163:A 5.24094e-05
2 *2161:Y 5.24094e-05
3 *2163:A *2381:A 0
4 *2163:A *2382:A 0
*RES
1 *2161:Y *2163:A 40.5974 
*END

*D_NET *658 0.00040344
*CONN
*I *2164:A I *D sg13cmos5l_inv_1
*I *2163:Y O *D sg13cmos5l_inv_1
*CAP
1 *2164:A 0.00020172
2 *2163:Y 0.00020172
3 *2050:A *2164:A 0
*RES
1 *2163:Y *2164:A 41.751 
*END

*D_NET *659 0.000177037
*CONN
*I *2165:A I *D sg13cmos5l_inv_1
*I *2164:Y O *D sg13cmos5l_inv_1
*CAP
1 *2165:A 8.85185e-05
2 *2164:Y 8.85185e-05
3 *2048:A *2165:A 0
4 *2050:A *2165:A 0
*RES
1 *2164:Y *2165:A 40.8446 
*END

*D_NET *660 0.000119252
*CONN
*I *2166:A I *D sg13cmos5l_inv_1
*I *2165:Y O *D sg13cmos5l_inv_1
*CAP
1 *2166:A 5.96258e-05
2 *2165:Y 5.96258e-05
3 *2048:A *2166:A 0
*RES
1 *2165:Y *2166:A 40.5974 
*END

*D_NET *661 0.000129475
*CONN
*I *2167:A I *D sg13cmos5l_inv_1
*I *2166:Y O *D sg13cmos5l_inv_1
*CAP
1 *2167:A 6.47374e-05
2 *2166:Y 6.47374e-05
*RES
1 *2166:Y *2167:A 40.5974 
*END

*D_NET *662 0.000129475
*CONN
*I *2168:A I *D sg13cmos5l_inv_1
*I *2167:Y O *D sg13cmos5l_inv_1
*CAP
1 *2168:A 6.47374e-05
2 *2167:Y 6.47374e-05
*RES
1 *2167:Y *2168:A 40.5974 
*END

*D_NET *663 0.000126468
*CONN
*I *2169:A I *D sg13cmos5l_inv_1
*I *2168:Y O *D sg13cmos5l_inv_1
*CAP
1 *2169:A 6.3234e-05
2 *2168:Y 6.3234e-05
3 *1548:A1 *2169:A 0
*RES
1 *2168:Y *2169:A 40.5974 
*END

*D_NET *664 0.000112035
*CONN
*I *2170:A I *D sg13cmos5l_inv_1
*I *2169:Y O *D sg13cmos5l_inv_1
*CAP
1 *2170:A 5.60176e-05
2 *2169:Y 5.60176e-05
3 *1548:A1 *2170:A 0
*RES
1 *2169:Y *2170:A 40.5974 
*END

*D_NET *665 0.000129475
*CONN
*I *2171:A I *D sg13cmos5l_inv_1
*I *2170:Y O *D sg13cmos5l_inv_1
*CAP
1 *2171:A 6.47374e-05
2 *2170:Y 6.47374e-05
*RES
1 *2170:Y *2171:A 40.5974 
*END

*D_NET *666 0.00145744
*CONN
*I *2172:A I *D sg13cmos5l_inv_1
*I *2171:Y O *D sg13cmos5l_inv_1
*CAP
1 *2172:A 3.44936e-05
2 *2171:Y 0.000379168
3 *666:8 0.000413661
4 *666:8 *1077:42 0.000287672
5 *666:8 *1086:64 0
6 *1526:B1 *666:8 0.000342449
*RES
1 *2171:Y *666:8 43.811 
2 *666:8 *2172:A 40.3193 
*END

*D_NET *667 0.000366813
*CONN
*I *2173:A I *D sg13cmos5l_inv_1
*I *2162:Y O *D sg13cmos5l_inv_1
*CAP
1 *2173:A 0.00011137
2 *2162:Y 0.00011137
3 *2173:A *2184:A 0.000144073
4 *2173:A *2228:A 0
5 *1581:A *2173:A 0
6 *2151:A *2173:A 0
7 *2162:A *2173:A 0
*RES
1 *2162:Y *2173:A 41.3802 
*END

*D_NET *668 0.000129475
*CONN
*I *2174:A I *D sg13cmos5l_inv_1
*I *2172:Y O *D sg13cmos5l_inv_1
*CAP
1 *2174:A 6.47374e-05
2 *2172:Y 6.47374e-05
*RES
1 *2172:Y *2174:A 40.5974 
*END

*D_NET *669 0.000129475
*CONN
*I *2175:A I *D sg13cmos5l_inv_1
*I *2174:Y O *D sg13cmos5l_inv_1
*CAP
1 *2175:A 6.47374e-05
2 *2174:Y 6.47374e-05
*RES
1 *2174:Y *2175:A 40.5974 
*END

*D_NET *670 0.000126468
*CONN
*I *2176:A I *D sg13cmos5l_inv_1
*I *2175:Y O *D sg13cmos5l_inv_1
*CAP
1 *2176:A 6.3234e-05
2 *2175:Y 6.3234e-05
3 *2176:A *2178:A 0
*RES
1 *2175:Y *2176:A 40.5974 
*END

*D_NET *671 0.000578761
*CONN
*I *1521:A0 I *D sg13cmos5l_mux4_1
*I *2177:A I *D sg13cmos5l_inv_1
*I *2176:Y O *D sg13cmos5l_inv_1
*CAP
1 *1521:A0 0.000160373
2 *2177:A 8.89986e-05
3 *2176:Y 3.23088e-05
4 *671:6 0.00028168
5 *1521:A0 *1081:96 0
6 *1521:A0 *1081:119 1.54008e-05
7 *2177:A *2178:A 0
8 *671:6 *2178:A 0
*RES
1 *2176:Y *671:6 20.3502 
2 *671:6 *2177:A 20.8858 
3 *671:6 *1521:A0 21.4008 
*END

*D_NET *672 0.000714124
*CONN
*I *2178:A I *D sg13cmos5l_inv_1
*I *2177:Y O *D sg13cmos5l_inv_1
*CAP
1 *2178:A 0.000257329
2 *2177:Y 0.000257329
3 *2178:A *2179:A 0
4 *2178:A *1081:96 0.000199465
5 *1934:A *2178:A 0
6 *2176:A *2178:A 0
7 *2177:A *2178:A 0
8 *671:6 *2178:A 0
*RES
1 *2177:Y *2178:A 43.0282 
*END

*D_NET *673 0.000250636
*CONN
*I *2179:A I *D sg13cmos5l_inv_1
*I *2178:Y O *D sg13cmos5l_inv_1
*CAP
1 *2179:A 0.000125318
2 *2178:Y 0.000125318
3 *2179:A *1081:86 0
4 *1934:A *2179:A 0
5 *1935:A *2179:A 0
6 *2178:A *2179:A 0
*RES
1 *2178:Y *2179:A 41.3802 
*END

*D_NET *674 0.000208691
*CONN
*I *2180:A I *D sg13cmos5l_inv_1
*I *2179:Y O *D sg13cmos5l_inv_1
*CAP
1 *2180:A 0
2 *2179:Y 4.02223e-05
3 *674:8 4.02223e-05
4 *47:20 *674:8 0.000128247
*RES
1 *2179:Y *674:8 40.5974 
2 *674:8 *2180:A 40 
*END

*D_NET *675 0.000151843
*CONN
*I *2181:A I *D sg13cmos5l_inv_1
*I *2180:Y O *D sg13cmos5l_inv_1
*CAP
1 *2181:A 7.59214e-05
2 *2180:Y 7.59214e-05
3 *2181:A *2182:A 0
4 *2181:A *2185:A 0
5 *2181:A *2188:A 0
6 *2181:A *1081:86 0
7 *1923:A *2181:A 0
*RES
1 *2180:Y *2181:A 40.9167 
*END

*D_NET *676 0.000370027
*CONN
*I *2182:A I *D sg13cmos5l_inv_1
*I *2181:Y O *D sg13cmos5l_inv_1
*CAP
1 *2182:A 0.000185014
2 *2181:Y 0.000185014
3 *2182:A *2185:A 0
4 *2182:A *2186:A 0
5 *2182:A *1083:49 0
6 *1922:A *2182:A 0
7 *1923:A *2182:A 0
8 *2181:A *2182:A 0
*RES
1 *2181:Y *2182:A 42.1218 
*END

*D_NET *677 0.00012456
*CONN
*I *2183:A I *D sg13cmos5l_inv_1
*I *2182:Y O *D sg13cmos5l_inv_1
*CAP
1 *2183:A 6.22801e-05
2 *2182:Y 6.22801e-05
3 *2183:A *2185:A 0
4 *1920:A *2183:A 0
*RES
1 *2182:Y *2183:A 40.5974 
*END

*D_NET *678 0.000634809
*CONN
*I *2184:A I *D sg13cmos5l_inv_1
*I *2173:Y O *D sg13cmos5l_inv_1
*CAP
1 *2184:A 0.000245368
2 *2173:Y 0.000245368
3 *2184:A *2195:A 0
4 *2184:A *2206:A 0
5 *2184:A *2228:A 0
6 *1581:A *2184:A 0
7 *2173:A *2184:A 0.000144073
*RES
1 *2173:Y *2184:A 42.8016 
*END

*D_NET *679 0.000482561
*CONN
*I *2185:A I *D sg13cmos5l_inv_1
*I *2183:Y O *D sg13cmos5l_inv_1
*CAP
1 *2185:A 0.000206283
2 *2183:Y 0.000206283
3 *2185:A *2186:A 2.21754e-05
4 *2185:A *2187:A 0
5 *2185:A *1081:86 0
6 *2185:A *1081:96 0
7 *2185:A *1083:49 4.78195e-05
8 *1525:A1 *2185:A 0
9 *1920:A *2185:A 0
10 *2181:A *2185:A 0
11 *2182:A *2185:A 0
12 *2183:A *2185:A 0
13 *45:14 *2185:A 0
*RES
1 *2183:Y *2185:A 42.4411 
*END

*D_NET *680 0.000413006
*CONN
*I *2186:A I *D sg13cmos5l_inv_1
*I *2185:Y O *D sg13cmos5l_inv_1
*CAP
1 *2186:A 0.000187715
2 *2185:Y 0.000187715
3 *2186:A *2187:A 1.54008e-05
4 *2186:A *1081:96 0
5 *2186:A *1083:49 0
6 *2182:A *2186:A 0
7 *2185:A *2186:A 2.21754e-05
8 *45:14 *2186:A 0
*RES
1 *2185:Y *2186:A 41.9673 
*END

*D_NET *681 0.000385974
*CONN
*I *2187:A I *D sg13cmos5l_inv_1
*I *2186:Y O *D sg13cmos5l_inv_1
*CAP
1 *2187:A 0.000161416
2 *2186:Y 0.000161416
3 *2185:A *2187:A 0
4 *2186:A *2187:A 1.54008e-05
5 *45:14 *2187:A 4.77425e-05
*RES
1 *2186:Y *2187:A 41.8025 
*END

*D_NET *682 0.000129043
*CONN
*I *2188:A I *D sg13cmos5l_inv_1
*I *2187:Y O *D sg13cmos5l_inv_1
*CAP
1 *2188:A 6.45216e-05
2 *2187:Y 6.45216e-05
3 *2181:A *2188:A 0
*RES
1 *2187:Y *2188:A 40.5974 
*END

*D_NET *683 0.000859058
*CONN
*I *2189:A I *D sg13cmos5l_inv_1
*I *2188:Y O *D sg13cmos5l_inv_1
*CAP
1 *2189:A 0.000385984
2 *2188:Y 0.000385984
3 *2189:A *2191:A 8.70913e-05
4 *2189:A *2193:A 0
5 *2189:A *1081:96 0
6 *2189:A *1081:119 0
7 *45:14 *2189:A 0
*RES
1 *2188:Y *2189:A 44.1921 
*END

*D_NET *684 0.00012456
*CONN
*I *2190:A I *D sg13cmos5l_inv_1
*I *2189:Y O *D sg13cmos5l_inv_1
*CAP
1 *2190:A 6.22801e-05
2 *2189:Y 6.22801e-05
3 *2190:A *2191:A 0
4 *2190:A *2521:A 0
*RES
1 *2189:Y *2190:A 40.5974 
*END

*D_NET *685 0.000515405
*CONN
*I *2191:A I *D sg13cmos5l_inv_1
*I *2190:Y O *D sg13cmos5l_inv_1
*CAP
1 *2191:A 0.000214157
2 *2190:Y 0.000214157
3 *2191:A *2521:A 0
4 *2189:A *2191:A 8.70913e-05
5 *2190:A *2191:A 0
6 *45:14 *2191:A 0
*RES
1 *2190:Y *2191:A 42.0935 
*END

*D_NET *686 0.000348861
*CONN
*I *2192:A I *D sg13cmos5l_inv_1
*I *2191:Y O *D sg13cmos5l_inv_1
*CAP
1 *2192:A 0.00016673
2 *2191:Y 0.00016673
3 *2192:A *2193:A 1.54008e-05
4 *2192:A *724:20 0
5 *2192:A *1081:119 0
*RES
1 *2191:Y *2192:A 41.6171 
*END

*D_NET *687 0.000314232
*CONN
*I *2193:A I *D sg13cmos5l_inv_1
*I *2192:Y O *D sg13cmos5l_inv_1
*CAP
1 *2193:A 0.000149416
2 *2192:Y 0.000149416
3 *2193:A *2520:A 0
4 *2193:A *688:10 0
5 *2189:A *2193:A 0
6 *2192:A *2193:A 1.54008e-05
*RES
1 *2192:Y *2193:A 41.4832 
*END

*D_NET *688 0.00164191
*CONN
*I *2194:A I *D sg13cmos5l_inv_1
*I *1521:A1 I *D sg13cmos5l_mux4_1
*I *2193:Y O *D sg13cmos5l_inv_1
*CAP
1 *2194:A 0
2 *1521:A1 0.000297587
3 *2193:Y 0.000160576
4 *688:14 0.00038735
5 *688:10 0.000250338
6 *1521:A1 *1521:A2 0.000144256
7 *1521:A1 *1081:119 0.000144745
8 *688:10 *2520:A 0
9 *688:10 *724:20 0.00012816
10 *688:14 *1081:119 0.000128897
11 *2193:A *688:10 0
*RES
1 *2193:Y *688:10 41.6274 
2 *688:10 *688:14 20.9682 
3 *688:14 *1521:A1 22.9973 
4 *688:14 *2194:A 20 
*END

*D_NET *689 0.000290861
*CONN
*I *2195:A I *D sg13cmos5l_inv_1
*I *2184:Y O *D sg13cmos5l_inv_1
*CAP
1 *2195:A 0.00014543
2 *2184:Y 0.00014543
3 *2184:A *2195:A 0
*RES
1 *2184:Y *2195:A 41.0106 
*END

*D_NET *690 0.000228158
*CONN
*I *2196:A I *D sg13cmos5l_inv_1
*I *2194:Y O *D sg13cmos5l_inv_1
*CAP
1 *2196:A 0.000104261
2 *2194:Y 0.000104261
3 *2196:A *2197:A 1.9636e-05
*RES
1 *2194:Y *2196:A 40.9167 
*END

*D_NET *691 0.000190853
*CONN
*I *2197:A I *D sg13cmos5l_inv_1
*I *2196:Y O *D sg13cmos5l_inv_1
*CAP
1 *2197:A 8.56083e-05
2 *2196:Y 8.56083e-05
3 *2196:A *2197:A 1.9636e-05
*RES
1 *2196:Y *2197:A 40.8601 
*END

*D_NET *692 0.000129475
*CONN
*I *2198:A I *D sg13cmos5l_inv_1
*I *2197:Y O *D sg13cmos5l_inv_1
*CAP
1 *2198:A 6.47374e-05
2 *2197:Y 6.47374e-05
*RES
1 *2197:Y *2198:A 40.5974 
*END

*D_NET *693 0.000129475
*CONN
*I *2199:A I *D sg13cmos5l_inv_1
*I *2198:Y O *D sg13cmos5l_inv_1
*CAP
1 *2199:A 6.47374e-05
2 *2198:Y 6.47374e-05
*RES
1 *2198:Y *2199:A 40.5974 
*END

*D_NET *694 0.000641904
*CONN
*I *2200:A I *D sg13cmos5l_inv_1
*I *2199:Y O *D sg13cmos5l_inv_1
*CAP
1 *2200:A 9.37055e-05
2 *2199:Y 0.000115291
3 *694:10 0.000208996
4 *2200:A *2202:A 0
5 *2200:A *1080:60 0.000144298
6 *694:10 *1080:60 7.96143e-05
*RES
1 *2199:Y *694:10 41.133 
2 *694:10 *2200:A 40.9682 
*END

*D_NET *695 0.000205895
*CONN
*I *2201:A I *D sg13cmos5l_inv_1
*I *2200:Y O *D sg13cmos5l_inv_1
*CAP
1 *2201:A 0.000102947
2 *2200:Y 0.000102947
*RES
1 *2200:Y *2201:A 40.9167 
*END

*D_NET *696 0.000388746
*CONN
*I *2202:A I *D sg13cmos5l_inv_1
*I *2201:Y O *D sg13cmos5l_inv_1
*CAP
1 *2202:A 0.000194373
2 *2201:Y 0.000194373
3 *2202:A *2203:A 0
4 *2200:A *2202:A 0
*RES
1 *2201:Y *2202:A 42.3072 
*END

*D_NET *697 0.00024312
*CONN
*I *2203:A I *D sg13cmos5l_inv_1
*I *2202:Y O *D sg13cmos5l_inv_1
*CAP
1 *2203:A 0.00012156
2 *2202:Y 0.00012156
3 *2202:A *2203:A 0
4 *38:16 *2203:A 0
*RES
1 *2202:Y *2203:A 41.133 
*END

*D_NET *698 0.000198193
*CONN
*I *2204:A I *D sg13cmos5l_inv_1
*I *2203:Y O *D sg13cmos5l_inv_1
*CAP
1 *2204:A 9.90964e-05
2 *2203:Y 9.90964e-05
*RES
1 *2203:Y *2204:A 40.9167 
*END

*D_NET *699 0.000459086
*CONN
*I *2205:A I *D sg13cmos5l_inv_1
*I *2204:Y O *D sg13cmos5l_inv_1
*CAP
1 *2205:A 0.000229543
2 *2204:Y 0.000229543
3 *38:16 *2205:A 0
*RES
1 *2204:Y *2205:A 42.1836 
*END

*D_NET *700 0.000121047
*CONN
*I *2206:A I *D sg13cmos5l_inv_1
*I *2195:Y O *D sg13cmos5l_inv_1
*CAP
1 *2206:A 6.05236e-05
2 *2195:Y 6.05236e-05
3 *2184:A *2206:A 0
*RES
1 *2195:Y *2206:A 40.5974 
*END

*D_NET *701 0.000107826
*CONN
*I *2207:A I *D sg13cmos5l_inv_1
*I *2205:Y O *D sg13cmos5l_inv_1
*CAP
1 *2207:A 5.39128e-05
2 *2205:Y 5.39128e-05
*RES
1 *2205:Y *2207:A 40.5974 
*END

*D_NET *702 0.000154185
*CONN
*I *2208:A I *D sg13cmos5l_inv_1
*I *2207:Y O *D sg13cmos5l_inv_1
*CAP
1 *2208:A 7.70925e-05
2 *2207:Y 7.70925e-05
3 *2208:A *2213:A 0
*RES
1 *2207:Y *2208:A 40.8446 
*END

*D_NET *703 0.000154185
*CONN
*I *2209:A I *D sg13cmos5l_inv_1
*I *2208:Y O *D sg13cmos5l_inv_1
*CAP
1 *2209:A 7.70925e-05
2 *2208:Y 7.70925e-05
3 *2209:A *2213:A 0
*RES
1 *2208:Y *2209:A 40.8446 
*END

*D_NET *704 0.000112035
*CONN
*I *2210:A I *D sg13cmos5l_inv_1
*I *2209:Y O *D sg13cmos5l_inv_1
*CAP
1 *2210:A 5.60176e-05
2 *2209:Y 5.60176e-05
*RES
1 *2209:Y *2210:A 40.5974 
*END

*D_NET *705 0.00424676
*CONN
*I *1560:A I *D sg13cmos5l_buf_1
*I *2211:A I *D sg13cmos5l_inv_1
*I *2210:Y O *D sg13cmos5l_inv_1
*CAP
1 *1560:A 0
2 *2211:A 2.85874e-05
3 *2210:Y 7.60938e-05
4 *705:21 0.00165056
5 *705:8 0.00175524
6 *705:8 *706:10 0
7 *705:21 *1076:148 0
8 *582:10 *705:21 0
9 *643:8 *705:21 0
10 *644:10 *705:21 0
11 *652:10 *705:21 0.000288173
12 *654:8 *705:21 0.000448099
*RES
1 *2210:Y *705:8 40.8446 
2 *705:8 *2211:A 40.3193 
3 *705:8 *705:21 38.8902 
4 *705:21 *1560:A 20 
*END

*D_NET *706 0.0032702
*CONN
*I *2212:A I *D sg13cmos5l_inv_1
*I *1521:A2 I *D sg13cmos5l_mux4_1
*I *2211:Y O *D sg13cmos5l_inv_1
*CAP
1 *2212:A 0.000134977
2 *1521:A2 0.00093149
3 *2211:Y 0.000352253
4 *706:10 0.00141872
5 *1521:A2 *1521:A3 0
6 *1521:A2 *724:20 0.000288502
7 *1521:A2 *1086:19 0
8 *1521:A1 *1521:A2 0.000144256
9 *38:16 *1521:A2 0
10 *38:16 *2212:A 0
11 *705:8 *706:10 0
*RES
1 *2211:Y *706:10 43.3578 
2 *706:10 *1521:A2 48.7344 
3 *706:10 *2212:A 41.1845 
*END

*D_NET *707 0.000126552
*CONN
*I *2213:A I *D sg13cmos5l_inv_1
*I *2212:Y O *D sg13cmos5l_inv_1
*CAP
1 *2213:A 6.32762e-05
2 *2212:Y 6.32762e-05
3 *2208:A *2213:A 0
4 *2209:A *2213:A 0
*RES
1 *2212:Y *2213:A 40.5974 
*END

*D_NET *708 0.000417386
*CONN
*I *2214:A I *D sg13cmos5l_inv_1
*I *2213:Y O *D sg13cmos5l_inv_1
*CAP
1 *2214:A 0.000208693
2 *2213:Y 0.000208693
3 *2214:A *2379:A 0
4 *38:16 *2214:A 0
*RES
1 *2213:Y *2214:A 41.9982 
*END

*D_NET *709 9.76025e-05
*CONN
*I *2215:A I *D sg13cmos5l_inv_1
*I *2214:Y O *D sg13cmos5l_inv_1
*CAP
1 *2215:A 4.88013e-05
2 *2214:Y 4.88013e-05
*RES
1 *2214:Y *2215:A 40.5974 
*END

*D_NET *710 0.000537045
*CONN
*I *2216:A I *D sg13cmos5l_inv_1
*I *2215:Y O *D sg13cmos5l_inv_1
*CAP
1 *2216:A 0
2 *2215:Y 9.75043e-05
3 *710:8 9.75043e-05
4 *710:8 *712:8 0.000342036
5 *710:8 *1080:90 0
*RES
1 *2215:Y *710:8 41.5862 
2 *710:8 *2216:A 40 
*END

*D_NET *711 0.00184777
*CONN
*I *2217:A I *D sg13cmos5l_inv_1
*I *1529:A2 I *D sg13cmos5l_mux4_1
*I *2206:Y O *D sg13cmos5l_inv_1
*CAP
1 *2217:A 0.000143996
2 *1529:A2 0
3 *2206:Y 0
4 *711:16 0.000755995
5 *711:4 0.000899991
6 *711:16 *1529:A3 0
7 *1530:A1 *711:16 4.77921e-05
8 *1581:A *711:16 0
9 *356:10 *711:16 0
*RES
1 *2206:Y *711:4 20 
2 *711:4 *711:16 45.4178 
3 *711:16 *1529:A2 20 
4 *711:4 *2217:A 21.3493 
*END

*D_NET *712 0.000776022
*CONN
*I *2218:A I *D sg13cmos5l_inv_1
*I *2216:Y O *D sg13cmos5l_inv_1
*CAP
1 *2218:A 2.89208e-05
2 *2216:Y 0.000164179
3 *712:8 0.000193099
4 *712:8 *1080:90 0
5 *38:16 *2218:A 4.77866e-05
6 *710:8 *712:8 0.000342036
*RES
1 *2216:Y *712:8 42.3278 
2 *712:8 *2218:A 40.3193 
*END

*D_NET *713 9.45957e-05
*CONN
*I *2219:A I *D sg13cmos5l_inv_1
*I *2218:Y O *D sg13cmos5l_inv_1
*CAP
1 *2219:A 4.72978e-05
2 *2218:Y 4.72978e-05
*RES
1 *2218:Y *2219:A 40.5974 
*END

*D_NET *714 0.000112035
*CONN
*I *2220:A I *D sg13cmos5l_inv_1
*I *2219:Y O *D sg13cmos5l_inv_1
*CAP
1 *2220:A 5.60176e-05
2 *2219:Y 5.60176e-05
*RES
1 *2219:Y *2220:A 40.5974 
*END

*D_NET *715 9.16999e-05
*CONN
*I *2221:A I *D sg13cmos5l_inv_1
*I *2220:Y O *D sg13cmos5l_inv_1
*CAP
1 *2221:A 0
2 *2220:Y 4.585e-05
3 *715:8 4.585e-05
4 *715:8 *1080:90 0
*RES
1 *2220:Y *715:8 40.5974 
2 *715:8 *2221:A 40 
*END

*D_NET *716 0.000113722
*CONN
*I *2222:A I *D sg13cmos5l_inv_1
*I *2221:Y O *D sg13cmos5l_inv_1
*CAP
1 *2222:A 5.6861e-05
2 *2221:Y 5.6861e-05
*RES
1 *2221:Y *2222:A 40.5974 
*END

*D_NET *717 0.000112035
*CONN
*I *2223:A I *D sg13cmos5l_inv_1
*I *2222:Y O *D sg13cmos5l_inv_1
*CAP
1 *2223:A 5.60176e-05
2 *2222:Y 5.60176e-05
*RES
1 *2222:Y *2223:A 40.5974 
*END

*D_NET *718 0.00104344
*CONN
*I *2224:A I *D sg13cmos5l_inv_1
*I *2223:Y O *D sg13cmos5l_inv_1
*CAP
1 *2224:A 0.000138799
2 *2223:Y 9.32797e-05
3 *718:8 0.000232079
4 *2224:A *719:10 0.000144921
5 *2224:A *1080:60 0
6 *2224:A *1080:66 0.000145031
7 *718:8 *719:10 0.000289332
8 *718:8 *1080:60 0
*RES
1 *2223:Y *718:8 41.339 
2 *718:8 *2224:A 41.6171 
*END

*D_NET *719 0.00112126
*CONN
*I *2225:A I *D sg13cmos5l_inv_1
*I *2224:Y O *D sg13cmos5l_inv_1
*CAP
1 *2225:A 4.63266e-05
2 *2224:Y 0.000257063
3 *719:10 0.000303389
4 *2225:A *1080:60 8.02267e-05
5 *2224:A *719:10 0.000144921
6 *718:8 *719:10 0.000289332
*RES
1 *2224:Y *719:10 43.2651 
2 *719:10 *2225:A 40.5356 
*END

*D_NET *720 9.15047e-05
*CONN
*I *2226:A I *D sg13cmos5l_inv_1
*I *2225:Y O *D sg13cmos5l_inv_1
*CAP
1 *2226:A 0
2 *2225:Y 4.57524e-05
3 *720:8 4.57524e-05
4 *720:8 *2257:A 0
*RES
1 *2225:Y *720:8 40.5974 
2 *720:8 *2226:A 40 
*END

*D_NET *721 0.000112035
*CONN
*I *2227:A I *D sg13cmos5l_inv_1
*I *2226:Y O *D sg13cmos5l_inv_1
*CAP
1 *2227:A 5.60176e-05
2 *2226:Y 5.60176e-05
*RES
1 *2226:Y *2227:A 40.5974 
*END

*D_NET *722 0.000365144
*CONN
*I *2228:A I *D sg13cmos5l_inv_1
*I *2217:Y O *D sg13cmos5l_inv_1
*CAP
1 *2228:A 0.000182572
2 *2217:Y 0.000182572
3 *2228:A *2239:A 0
4 *1579:A *2228:A 0
5 *1580:A *2228:A 0
6 *1581:A *2228:A 0
7 *2151:A *2228:A 0
8 *2173:A *2228:A 0
9 *2184:A *2228:A 0
*RES
1 *2217:Y *2228:A 41.9982 
*END

*D_NET *723 0.000112035
*CONN
*I *2229:A I *D sg13cmos5l_inv_1
*I *2227:Y O *D sg13cmos5l_inv_1
*CAP
1 *2229:A 5.60176e-05
2 *2227:Y 5.60176e-05
*RES
1 *2227:Y *2229:A 40.5974 
*END

*D_NET *724 0.00239954
*CONN
*I *2230:A I *D sg13cmos5l_inv_1
*I *1521:A3 I *D sg13cmos5l_mux4_1
*I *2229:Y O *D sg13cmos5l_inv_1
*CAP
1 *2230:A 8.2477e-05
2 *1521:A3 9.16421e-05
3 *2229:Y 7.6664e-05
4 *724:20 0.000647686
5 *724:10 0.000715185
6 *1521:A3 *1080:60 0
7 *2230:A *1081:119 0
8 *724:20 *1081:119 0.000369222
9 *724:20 *1086:19 0
10 *1521:A2 *1521:A3 0
11 *1521:A2 *724:20 0.000288502
12 *2192:A *724:20 0
13 *688:10 *724:20 0.00012816
*RES
1 *2229:Y *724:10 40.9167 
2 *724:10 *724:20 46.1491 
3 *724:20 *1521:A3 40.9682 
4 *724:10 *2230:A 40.7519 
*END

*D_NET *725 0.000121346
*CONN
*I *2231:A I *D sg13cmos5l_inv_1
*I *2230:Y O *D sg13cmos5l_inv_1
*CAP
1 *2231:A 0
2 *2230:Y 6.06728e-05
3 *725:8 6.06728e-05
4 *725:8 *2257:A 0
*RES
1 *2230:Y *725:8 40.5974 
2 *725:8 *2231:A 40 
*END

*D_NET *726 0.000153379
*CONN
*I *2232:A I *D sg13cmos5l_inv_1
*I *2231:Y O *D sg13cmos5l_inv_1
*CAP
1 *2232:A 7.66893e-05
2 *2231:Y 7.66893e-05
3 *2232:A *1081:119 0
*RES
1 *2231:Y *2232:A 40.9167 
*END

*D_NET *727 0.000111256
*CONN
*I *2233:A I *D sg13cmos5l_inv_1
*I *2232:Y O *D sg13cmos5l_inv_1
*CAP
1 *2233:A 5.56282e-05
2 *2232:Y 5.56282e-05
3 *2233:A *2515:A 0
*RES
1 *2232:Y *2233:A 40.5974 
*END

*D_NET *728 9.76025e-05
*CONN
*I *2234:A I *D sg13cmos5l_inv_1
*I *2233:Y O *D sg13cmos5l_inv_1
*CAP
1 *2234:A 4.88013e-05
2 *2233:Y 4.88013e-05
3 *2234:A *2516:A 0
*RES
1 *2233:Y *2234:A 40.5974 
*END

*D_NET *729 0.000354464
*CONN
*I *2235:A I *D sg13cmos5l_inv_1
*I *2234:Y O *D sg13cmos5l_inv_1
*CAP
1 *2235:A 0
2 *2234:Y 0.000177232
3 *729:8 0.000177232
4 *729:8 *2257:A 0
5 *729:8 *752:8 0
*RES
1 *2234:Y *729:8 42.0806 
2 *729:8 *2235:A 40 
*END

*D_NET *730 0.000107826
*CONN
*I *2236:A I *D sg13cmos5l_inv_1
*I *2235:Y O *D sg13cmos5l_inv_1
*CAP
1 *2236:A 5.39128e-05
2 *2235:Y 5.39128e-05
*RES
1 *2235:Y *2236:A 40.5974 
*END

*D_NET *731 0.000107826
*CONN
*I *2237:A I *D sg13cmos5l_inv_1
*I *2236:Y O *D sg13cmos5l_inv_1
*CAP
1 *2237:A 5.39128e-05
2 *2236:Y 5.39128e-05
3 *2237:A *748:14 0
*RES
1 *2236:Y *2237:A 40.5974 
*END

*D_NET *732 0.000107826
*CONN
*I *2238:A I *D sg13cmos5l_inv_1
*I *2237:Y O *D sg13cmos5l_inv_1
*CAP
1 *2238:A 5.39128e-05
2 *2237:Y 5.39128e-05
3 *2238:A *2250:A 0
*RES
1 *2237:Y *2238:A 40.5974 
*END

*D_NET *733 0.000170383
*CONN
*I *2239:A I *D sg13cmos5l_inv_1
*I *2228:Y O *D sg13cmos5l_inv_1
*CAP
1 *2239:A 8.51916e-05
2 *2228:Y 8.51916e-05
3 *1579:A *2239:A 0
4 *2140:A *2239:A 0
5 *2228:A *2239:A 0
*RES
1 *2228:Y *2239:A 40.9167 
*END

*D_NET *734 0.000222534
*CONN
*I *2240:A I *D sg13cmos5l_inv_1
*I *2129:Y O *D sg13cmos5l_inv_1
*CAP
1 *2240:A 0.000111267
2 *2129:Y 0.000111267
3 *2129:A *2240:A 0
*RES
1 *2129:Y *2240:A 41.3802 
*END

*D_NET *735 0.000115508
*CONN
*I *2241:A I *D sg13cmos5l_inv_1
*I *2238:Y O *D sg13cmos5l_inv_1
*CAP
1 *2241:A 5.7754e-05
2 *2238:Y 5.7754e-05
3 *2241:A *2242:A 0
4 *2241:A *2250:A 0
*RES
1 *2238:Y *2241:A 40.5974 
*END

*D_NET *736 0.000478388
*CONN
*I *2242:A I *D sg13cmos5l_inv_1
*I *2241:Y O *D sg13cmos5l_inv_1
*CAP
1 *2242:A 0.000191583
2 *2241:Y 0.000191583
3 *2242:A *2250:A 1.54556e-05
4 *2242:A *737:10 7.97663e-05
5 *2242:A *748:14 0
6 *2241:A *2242:A 0
*RES
1 *2241:Y *2242:A 42.2145 
*END

*D_NET *737 0.000906739
*CONN
*I *2243:A I *D sg13cmos5l_inv_1
*I *2242:Y O *D sg13cmos5l_inv_1
*CAP
1 *2243:A 0.000157707
2 *2242:Y 0.000215685
3 *737:10 0.000373392
4 *2243:A *2245:A 8.01885e-05
5 *2242:A *737:10 7.97663e-05
*RES
1 *2242:Y *737:10 42.369 
2 *737:10 *2243:A 41.1845 
*END

*D_NET *738 0.000320627
*CONN
*I *2244:A I *D sg13cmos5l_inv_1
*I *2243:Y O *D sg13cmos5l_inv_1
*CAP
1 *2244:A 0
2 *2243:Y 0.000160314
3 *738:8 0.000160314
4 *738:8 *739:8 0
5 *738:8 *1024:10 0
*RES
1 *2243:Y *738:8 41.5862 
2 *738:8 *2244:A 40 
*END

*D_NET *739 0.00078954
*CONN
*I *2245:A I *D sg13cmos5l_inv_1
*I *2244:Y O *D sg13cmos5l_inv_1
*CAP
1 *2245:A 0.000174132
2 *2244:Y 0.000180544
3 *739:8 0.000354676
4 *739:8 *740:8 0
5 *2243:A *2245:A 8.01885e-05
6 *47:8 *739:8 0
7 *738:8 *739:8 0
*RES
1 *2244:Y *739:8 41.8334 
2 *739:8 *2245:A 41.6171 
*END

*D_NET *740 0.00040682
*CONN
*I *2246:A I *D sg13cmos5l_inv_1
*I *2245:Y O *D sg13cmos5l_inv_1
*CAP
1 *2246:A 0
2 *2245:Y 0.00020341
3 *740:8 0.00020341
4 *740:8 *1523:A1 0
5 *740:8 *741:8 0
6 *47:8 *740:8 0
7 *739:8 *740:8 0
*RES
1 *2245:Y *740:8 41.8334 
2 *740:8 *2246:A 40 
*END

*D_NET *741 0.000714324
*CONN
*I *2247:A I *D sg13cmos5l_inv_1
*I *2246:Y O *D sg13cmos5l_inv_1
*CAP
1 *2247:A 0.000162198
2 *2246:Y 0.000194964
3 *741:8 0.000357162
4 *741:8 *1523:A1 0
5 *741:8 *760:18 0
6 *47:8 *741:8 0
7 *740:8 *741:8 0
*RES
1 *2246:Y *741:8 41.8334 
2 *741:8 *2247:A 41.4008 
*END

*D_NET *742 0.001969
*CONN
*I *1523:A0 I *D sg13cmos5l_mux4_1
*I *2248:A I *D sg13cmos5l_inv_1
*I *2247:Y O *D sg13cmos5l_inv_1
*CAP
1 *1523:A0 0.000154744
2 *2248:A 0.000328503
3 *2247:Y 0
4 *742:6 0.000483246
5 *1523:A0 *1523:S0 0.000155256
6 *1523:A0 *1523:A1 0.000371967
7 *1523:A0 *2250:A 8.0128e-05
8 *1523:A0 *744:8 0
9 *2248:A *1523:A1 0.000395154
10 *2248:A *2268:A 0
11 *2248:A *744:8 0
12 *2248:A *760:18 0
*RES
1 *2247:Y *742:6 40 
2 *742:6 *2248:A 43.6668 
3 *742:6 *1523:A0 42.369 
*END

*D_NET *743 0.000328401
*CONN
*I *2249:A I *D sg13cmos5l_inv_1
*I *2248:Y O *D sg13cmos5l_inv_1
*CAP
1 *2249:A 0.000164201
2 *2248:Y 0.000164201
3 *2249:A *2268:A 0
4 *2249:A *2278:A 0
5 *2249:A *2279:A 0
6 *2249:A *2280:A 0
7 *2249:A *760:18 0
*RES
1 *2248:Y *2249:A 41.8746 
*END

*D_NET *744 0.00217619
*CONN
*I *2250:A I *D sg13cmos5l_inv_1
*I *2249:Y O *D sg13cmos5l_inv_1
*CAP
1 *2250:A 0.000375431
2 *2249:Y 0.000519879
3 *744:8 0.00089531
4 *2250:A *2252:A 0.000209845
5 *2250:A *2253:A 0
6 *2250:A *2285:A 0
7 *2250:A *777:24 8.01385e-05
8 *744:8 *760:18 0
9 *744:8 *763:8 0
10 *744:8 *775:8 0
11 *744:8 *777:8 0
12 *1523:A0 *2250:A 8.0128e-05
13 *1523:A0 *744:8 0
14 *2238:A *2250:A 0
15 *2241:A *2250:A 0
16 *2242:A *2250:A 1.54556e-05
17 *2248:A *744:8 0
*RES
1 *2249:Y *744:8 45.5414 
2 *744:8 *2250:A 44.1509 
*END

*D_NET *745 0.000461984
*CONN
*I *2251:A I *D sg13cmos5l_inv_1
*I *2239:Y O *D sg13cmos5l_inv_1
*CAP
1 *2251:A 0.000142339
2 *2239:Y 0.000142339
3 *2251:A *2295:A 0
4 *1579:A *2251:A 0.000177306
5 *2151:A *2251:A 0
*RES
1 *2239:Y *2251:A 41.6171 
*END

*D_NET *746 0.00194251
*CONN
*I *2252:A I *D sg13cmos5l_inv_1
*I *2250:Y O *D sg13cmos5l_inv_1
*CAP
1 *2252:A 0.000613061
2 *2250:Y 0.000613061
3 *2252:A *2253:A 0.00043662
4 *2252:A *2286:A 0
5 *2252:A *2292:A 0
6 *2252:A *2296:A 0
7 *2252:A *777:24 6.99179e-05
8 *2250:A *2252:A 0.000209845
*RES
1 *2250:Y *2252:A 46.695 
*END

*D_NET *747 0.0016621
*CONN
*I *2253:A I *D sg13cmos5l_inv_1
*I *2252:Y O *D sg13cmos5l_inv_1
*CAP
1 *2253:A 0.000612741
2 *2252:Y 0.000612741
3 *2253:A *2297:A 0
4 *2253:A *748:14 0
5 *2250:A *2253:A 0
6 *2252:A *2253:A 0.00043662
*RES
1 *2252:Y *2253:A 45.9946 
*END

*D_NET *748 0.00295844
*CONN
*I *2254:A I *D sg13cmos5l_inv_1
*I *2253:Y O *D sg13cmos5l_inv_1
*CAP
1 *2254:A 0.000530969
2 *2253:Y 0.000573466
3 *748:14 0.00110444
4 *2254:A *1523:S0 0
5 *2254:A *2259:A 0
6 *2254:A *2493:A 0
7 *2254:A *2494:A 0
8 *2254:A *2496:A 0
9 *2254:A *754:8 0
10 *2254:A *755:8 0
11 *2254:A *791:8 0
12 *2254:A *792:8 0.000394566
13 *2254:A *793:8 0
14 *2254:A *976:8 0
15 *748:14 *2297:A 8.02379e-05
16 *748:14 *2300:A 0
17 *748:14 *753:10 0.000274769
18 *748:14 *795:6 0
19 *1525:A0 *748:14 0
20 *2237:A *748:14 0
21 *2242:A *748:14 0
22 *2253:A *748:14 0
*RES
1 *2253:Y *748:14 45.9122 
2 *748:14 *2254:A 46.2006 
*END

*D_NET *749 0.00038246
*CONN
*I *2255:A I *D sg13cmos5l_inv_1
*I *2254:Y O *D sg13cmos5l_inv_1
*CAP
1 *2255:A 0
2 *2254:Y 0.00019123
3 *749:8 0.00019123
4 *749:8 *996:8 0
*RES
1 *2254:Y *749:8 42.3278 
2 *749:8 *2255:A 40 
*END

*D_NET *750 0.000299976
*CONN
*I *2256:A I *D sg13cmos5l_inv_1
*I *2255:Y O *D sg13cmos5l_inv_1
*CAP
1 *2256:A 3.36686e-05
2 *2255:Y 0.000116319
3 *750:8 0.000149988
4 *2256:A *2499:A 0
5 *2256:A *2509:A 0
6 *750:8 *996:8 0
*RES
1 *2255:Y *750:8 41.339 
2 *750:8 *2256:A 40.3193 
*END

*D_NET *751 0.00261714
*CONN
*I *2257:A I *D sg13cmos5l_inv_1
*I *2256:Y O *D sg13cmos5l_inv_1
*CAP
1 *2257:A 0.000559332
2 *2256:Y 0.000551288
3 *751:8 0.00111062
4 *2257:A *1523:S1 0
5 *2257:A *803:8 0.000395896
6 *2257:A *1008:12 0
7 *751:8 *1518:S0 0
8 *751:8 *1518:A2 0
9 *751:8 *1518:A3 0
10 *751:8 *2308:A 0
11 *751:8 *2496:A 0
12 *751:8 *2499:A 0
13 *751:8 *2510:A 0
14 *751:8 *2512:A 0
15 *751:8 *2513:A 0
16 *1525:A0 *2257:A 0
17 *720:8 *2257:A 0
18 *725:8 *2257:A 0
19 *729:8 *2257:A 0
*RES
1 *2256:Y *751:8 45.5105 
2 *751:8 *2257:A 47.0967 
*END

*D_NET *752 0.000316424
*CONN
*I *2258:A I *D sg13cmos5l_inv_1
*I *2257:Y O *D sg13cmos5l_inv_1
*CAP
1 *2258:A 0
2 *2257:Y 0.000158212
3 *752:8 0.000158212
4 *752:8 *1523:S1 0
5 *752:8 *795:19 0
6 *729:8 *752:8 0
*RES
1 *2257:Y *752:8 41.8334 
2 *752:8 *2258:A 40 
*END

*D_NET *753 0.00275184
*CONN
*I *2259:A I *D sg13cmos5l_inv_1
*I *2258:Y O *D sg13cmos5l_inv_1
*CAP
1 *2259:A 0.000360864
2 *2258:Y 0.000439878
3 *753:10 0.000800742
4 *2259:A *2479:A 0
5 *2259:A *2485:A 0
6 *753:10 *1523:S0 0.000875588
7 *753:10 *1523:S1 0
8 *753:10 *2301:A 0
9 *753:10 *795:6 0
10 *753:10 *795:19 0
11 *1525:A0 *753:10 0
12 *2254:A *2259:A 0
13 *43:8 *753:10 0
14 *748:14 *753:10 0.000274769
*RES
1 *2258:Y *753:10 45.8916 
2 *753:10 *2259:A 43.5638 
*END

*D_NET *754 0.000469915
*CONN
*I *2260:A I *D sg13cmos5l_inv_1
*I *2259:Y O *D sg13cmos5l_inv_1
*CAP
1 *2260:A 3.09319e-05
2 *2259:Y 0.000204026
3 *754:8 0.000234957
4 *2260:A *2485:A 0
5 *2260:A *2486:A 0
6 *2254:A *754:8 0
*RES
1 *2259:Y *754:8 42.3278 
2 *754:8 *2260:A 40.3193 
*END

*D_NET *755 0.000299199
*CONN
*I *2261:A I *D sg13cmos5l_inv_1
*I *2260:Y O *D sg13cmos5l_inv_1
*CAP
1 *2261:A 0
2 *2260:Y 0.0001496
3 *755:8 0.0001496
4 *755:8 *791:8 0
5 *2254:A *755:8 0
*RES
1 *2260:Y *755:8 41.5862 
2 *755:8 *2261:A 40 
*END

*D_NET *756 0.00052404
*CONN
*I *2262:A I *D sg13cmos5l_inv_1
*I *2251:Y O *D sg13cmos5l_inv_1
*CAP
1 *2262:A 0.00026202
2 *2251:Y 0.00026202
3 *2262:A *2295:A 0
4 *2140:A *2262:A 0
*RES
1 *2251:Y *2262:A 42.6574 
*END

*D_NET *757 0.00186723
*CONN
*I *2263:A I *D sg13cmos5l_inv_1
*I *2261:Y O *D sg13cmos5l_inv_1
*CAP
1 *2263:A 0.000139875
2 *2261:Y 0.000793741
3 *757:10 0.000933616
4 *2263:A *2277:A 0
5 *2263:A *760:18 0
6 *2263:A *770:10 0
7 *757:10 *766:12 0
8 *757:10 *770:10 0
9 *757:10 *775:8 0
10 *757:10 *783:8 0
11 *757:10 *784:8 0
12 *757:10 *785:8 0
13 *757:10 *791:8 0
*RES
1 *2261:Y *757:10 49.0743 
2 *757:10 *2263:A 41.4008 
*END

*D_NET *758 0.000232556
*CONN
*I *2264:A I *D sg13cmos5l_inv_1
*I *2263:Y O *D sg13cmos5l_inv_1
*CAP
1 *2264:A 0.000116278
2 *2263:Y 0.000116278
3 *2264:A *2265:A 0
4 *2264:A *2274:A 0
5 *2264:A *1068:16 0
*RES
1 *2263:Y *2264:A 41.3802 
*END

*D_NET *759 0.000306584
*CONN
*I *2265:A I *D sg13cmos5l_inv_1
*I *2264:Y O *D sg13cmos5l_inv_1
*CAP
1 *2265:A 0.000153292
2 *2264:Y 0.000153292
3 *2265:A *2274:A 0
4 *2265:A *2277:A 0
5 *2265:A *760:18 0
6 *2264:A *2265:A 0
*RES
1 *2264:Y *2265:A 41.8463 
*END

*D_NET *760 0.00359964
*CONN
*I *1523:A1 I *D sg13cmos5l_mux4_1
*I *2266:A I *D sg13cmos5l_inv_1
*I *2265:Y O *D sg13cmos5l_inv_1
*CAP
1 *1523:A1 0.000337948
2 *2266:A 0
3 *2265:Y 0.000792184
4 *760:18 0.00113013
5 *1523:A1 *777:24 0.000128248
6 *760:18 *2268:A 0
7 *760:18 *2274:A 0
8 *760:18 *2277:A 0
9 *760:18 *2278:A 0.000293555
10 *760:18 *2279:A 4.79124e-05
11 *760:18 *2540:A 0.000102545
12 *760:18 *2541:A 0
13 *760:18 *766:12 0
14 *760:18 *770:10 0
15 *760:18 *1068:16 0
16 *1523:A0 *1523:A1 0.000371967
17 *2248:A *1523:A1 0.000395154
18 *2248:A *760:18 0
19 *2249:A *760:18 0
20 *2263:A *760:18 0
21 *2265:A *760:18 0
22 *47:8 *760:18 0
23 *740:8 *1523:A1 0
24 *741:8 *1523:A1 0
25 *741:8 *760:18 0
26 *744:8 *760:18 0
*RES
1 *2265:Y *760:18 49.1511 
2 *760:18 *2266:A 40 
3 *760:18 *1523:A1 44.8719 
*END

*D_NET *761 9.68552e-05
*CONN
*I *2267:A I *D sg13cmos5l_inv_1
*I *2266:Y O *D sg13cmos5l_inv_1
*CAP
1 *2267:A 4.84276e-05
2 *2266:Y 4.84276e-05
3 *2267:A *2268:A 0
*RES
1 *2266:Y *2267:A 40.5974 
*END

*D_NET *762 0.000381627
*CONN
*I *2268:A I *D sg13cmos5l_inv_1
*I *2267:Y O *D sg13cmos5l_inv_1
*CAP
1 *2268:A 0.000190814
2 *2267:Y 0.000190814
3 *2248:A *2268:A 0
4 *2249:A *2268:A 0
5 *2267:A *2268:A 0
6 *760:18 *2268:A 0
*RES
1 *2267:Y *2268:A 41.9673 
*END

*D_NET *763 0.000251098
*CONN
*I *2269:A I *D sg13cmos5l_inv_1
*I *2268:Y O *D sg13cmos5l_inv_1
*CAP
1 *2269:A 0
2 *2268:Y 0.000125549
3 *763:8 0.000125549
4 *744:8 *763:8 0
*RES
1 *2268:Y *763:8 41.339 
2 *763:8 *2269:A 40 
*END

*D_NET *764 9.45957e-05
*CONN
*I *2270:A I *D sg13cmos5l_inv_1
*I *2269:Y O *D sg13cmos5l_inv_1
*CAP
1 *2270:A 4.72978e-05
2 *2269:Y 4.72978e-05
3 *2270:A *2274:A 0
4 *2270:A *2540:A 0
*RES
1 *2269:Y *2270:A 40.5974 
*END

*D_NET *765 9.45957e-05
*CONN
*I *2271:A I *D sg13cmos5l_inv_1
*I *2270:Y O *D sg13cmos5l_inv_1
*CAP
1 *2271:A 4.72978e-05
2 *2270:Y 4.72978e-05
3 *2271:A *2275:A 0
*RES
1 *2270:Y *2271:A 40.5974 
*END

*D_NET *766 0.000821024
*CONN
*I *2272:A I *D sg13cmos5l_inv_1
*I *2271:Y O *D sg13cmos5l_inv_1
*CAP
1 *2272:A 0
2 *2271:Y 0.000305414
3 *766:12 0.000305414
4 *766:12 *770:10 0
5 *766:12 *1068:16 0.000210196
6 *757:10 *766:12 0
7 *760:18 *766:12 0
*RES
1 *2271:Y *766:12 43.5844 
2 *766:12 *2272:A 40 
*END

*D_NET *767 9.45957e-05
*CONN
*I *2273:A I *D sg13cmos5l_inv_1
*I *2262:Y O *D sg13cmos5l_inv_1
*CAP
1 *2273:A 4.72978e-05
2 *2262:Y 4.72978e-05
*RES
1 *2262:Y *2273:A 40.5974 
*END

*D_NET *768 0.00022768
*CONN
*I *2274:A I *D sg13cmos5l_inv_1
*I *2272:Y O *D sg13cmos5l_inv_1
*CAP
1 *2274:A 0.00011384
2 *2272:Y 0.00011384
3 *2274:A *1068:16 0
4 *2264:A *2274:A 0
5 *2265:A *2274:A 0
6 *2270:A *2274:A 0
7 *760:18 *2274:A 0
*RES
1 *2272:Y *2274:A 41.3802 
*END

*D_NET *769 9.45957e-05
*CONN
*I *2275:A I *D sg13cmos5l_inv_1
*I *2274:Y O *D sg13cmos5l_inv_1
*CAP
1 *2275:A 4.72978e-05
2 *2274:Y 4.72978e-05
3 *2271:A *2275:A 0
*RES
1 *2274:Y *2275:A 40.5974 
*END

*D_NET *770 0.000743469
*CONN
*I *2276:A I *D sg13cmos5l_inv_1
*I *2275:Y O *D sg13cmos5l_inv_1
*CAP
1 *2276:A 0
2 *2275:Y 0.000371735
3 *770:10 0.000371735
4 *770:10 *1068:16 0
5 *2263:A *770:10 0
6 *757:10 *770:10 0
7 *760:18 *770:10 0
8 *766:12 *770:10 0
*RES
1 *2275:Y *770:10 43.9449 
2 *770:10 *2276:A 40 
*END

*D_NET *771 0.000351501
*CONN
*I *2277:A I *D sg13cmos5l_inv_1
*I *2276:Y O *D sg13cmos5l_inv_1
*CAP
1 *2277:A 0.00017575
2 *2276:Y 0.00017575
3 *2277:A *2278:A 0
4 *2263:A *2277:A 0
5 *2265:A *2277:A 0
6 *760:18 *2277:A 0
*RES
1 *2276:Y *2277:A 42.0806 
*END

*D_NET *772 0.000906439
*CONN
*I *2278:A I *D sg13cmos5l_inv_1
*I *2277:Y O *D sg13cmos5l_inv_1
*CAP
1 *2278:A 0.000298714
2 *2277:Y 0.000298714
3 *2278:A *2279:A 1.54556e-05
4 *2278:A *2280:A 0
5 *2249:A *2278:A 0
6 *2277:A *2278:A 0
7 *760:18 *2278:A 0.000293555
*RES
1 *2277:Y *2278:A 43.4093 
*END

*D_NET *773 0.000347318
*CONN
*I *2279:A I *D sg13cmos5l_inv_1
*I *2278:Y O *D sg13cmos5l_inv_1
*CAP
1 *2279:A 0.000141975
2 *2278:Y 0.000141975
3 *2249:A *2279:A 0
4 *2278:A *2279:A 1.54556e-05
5 *760:18 *2279:A 4.79124e-05
*RES
1 *2278:Y *2279:A 41.8025 
*END

*D_NET *774 0.000103114
*CONN
*I *2280:A I *D sg13cmos5l_inv_1
*I *2279:Y O *D sg13cmos5l_inv_1
*CAP
1 *2280:A 5.15568e-05
2 *2279:Y 5.15568e-05
3 *2249:A *2280:A 0
4 *2278:A *2280:A 0
*RES
1 *2279:Y *2280:A 40.5974 
*END

*D_NET *775 0.000291556
*CONN
*I *2281:A I *D sg13cmos5l_inv_1
*I *2280:Y O *D sg13cmos5l_inv_1
*CAP
1 *2281:A 0
2 *2280:Y 0.000145778
3 *775:8 0.000145778
4 *775:8 *777:8 0
5 *744:8 *775:8 0
6 *757:10 *775:8 0
*RES
1 *2280:Y *775:8 41.5862 
2 *775:8 *2281:A 40 
*END

*D_NET *776 0.000385071
*CONN
*I *2282:A I *D sg13cmos5l_inv_1
*I *2281:Y O *D sg13cmos5l_inv_1
*CAP
1 *2282:A 0.000192535
2 *2281:Y 0.000192535
*RES
1 *2281:Y *2282:A 41.4008 
*END

*D_NET *777 0.0016309
*CONN
*I *2283:A I *D sg13cmos5l_inv_1
*I *1523:A2 I *D sg13cmos5l_mux4_1
*I *2282:Y O *D sg13cmos5l_inv_1
*CAP
1 *2283:A 0
2 *1523:A2 0
3 *2282:Y 0.000265406
4 *777:24 0.00032009
5 *777:10 0.00032009
6 *777:8 0.000265406
7 *777:24 *1523:S0 0.000181608
8 *1523:A1 *777:24 0.000128248
9 *2250:A *777:24 8.01385e-05
10 *2252:A *777:24 6.99179e-05
11 *744:8 *777:8 0
12 *775:8 *777:8 0
*RES
1 *2282:Y *777:8 42.8222 
2 *777:8 *777:10 20 
3 *777:10 *777:24 43.6668 
4 *777:24 *1523:A2 20 
5 *777:10 *2283:A 20 
*END

*D_NET *778 0.000338302
*CONN
*I *2284:A I *D sg13cmos5l_inv_1
*I *2273:Y O *D sg13cmos5l_inv_1
*CAP
1 *2284:A 0
2 *2273:Y 0.000169151
3 *778:8 0.000169151
4 *74:8 *778:8 0
*RES
1 *2273:Y *778:8 41.5862 
2 *778:8 *2284:A 40 
*END

*D_NET *779 0.000128037
*CONN
*I *2285:A I *D sg13cmos5l_inv_1
*I *2283:Y O *D sg13cmos5l_inv_1
*CAP
1 *2285:A 6.40187e-05
2 *2283:Y 6.40187e-05
3 *2285:A *2286:A 0
4 *2250:A *2285:A 0
*RES
1 *2283:Y *2285:A 40.5974 
*END

*D_NET *780 0.000515173
*CONN
*I *2286:A I *D sg13cmos5l_inv_1
*I *2285:Y O *D sg13cmos5l_inv_1
*CAP
1 *2286:A 0.000257587
2 *2285:Y 0.000257587
3 *2286:A *2287:A 0
4 *2286:A *2288:A 0
5 *2252:A *2286:A 0
6 *2285:A *2286:A 0
*RES
1 *2285:Y *2286:A 42.4926 
*END

*D_NET *781 0.000284939
*CONN
*I *2287:A I *D sg13cmos5l_inv_1
*I *2286:Y O *D sg13cmos5l_inv_1
*CAP
1 *2287:A 0.000104771
2 *2286:Y 0.000104771
3 *2287:A *2288:A 7.53965e-05
4 *2286:A *2287:A 0
*RES
1 *2286:Y *2287:A 41.3802 
*END

*D_NET *782 0.000494927
*CONN
*I *2288:A I *D sg13cmos5l_inv_1
*I *2287:Y O *D sg13cmos5l_inv_1
*CAP
1 *2288:A 0.000209765
2 *2287:Y 0.000209765
3 *2288:A *2291:A 0
4 *2286:A *2288:A 0
5 *2287:A *2288:A 7.53965e-05
*RES
1 *2287:Y *2288:A 42.2145 
*END

*D_NET *783 0.000701039
*CONN
*I *2289:A I *D sg13cmos5l_inv_1
*I *2288:Y O *D sg13cmos5l_inv_1
*CAP
1 *2289:A 4.33444e-05
2 *2288:Y 0.000163296
3 *783:8 0.000206641
4 *783:8 *784:8 0.000287758
5 *783:8 *785:8 0
6 *757:10 *783:8 0
*RES
1 *2288:Y *783:8 42.0806 
2 *783:8 *2289:A 40.3193 
*END

*D_NET *784 0.000505353
*CONN
*I *2290:A I *D sg13cmos5l_inv_1
*I *2289:Y O *D sg13cmos5l_inv_1
*CAP
1 *2290:A 0
2 *2289:Y 0.000108797
3 *784:8 0.000108797
4 *757:10 *784:8 0
5 *783:8 *784:8 0.000287758
*RES
1 *2289:Y *784:8 41.5862 
2 *784:8 *2290:A 40 
*END

*D_NET *785 0.000308933
*CONN
*I *2291:A I *D sg13cmos5l_inv_1
*I *2290:Y O *D sg13cmos5l_inv_1
*CAP
1 *2291:A 3.04224e-05
2 *2290:Y 0.000124044
3 *785:8 0.000154467
4 *2288:A *2291:A 0
5 *757:10 *785:8 0
6 *783:8 *785:8 0
*RES
1 *2290:Y *785:8 41.339 
2 *785:8 *2291:A 40.3193 
*END

*D_NET *786 9.45957e-05
*CONN
*I *2292:A I *D sg13cmos5l_inv_1
*I *2291:Y O *D sg13cmos5l_inv_1
*CAP
1 *2292:A 4.72978e-05
2 *2291:Y 4.72978e-05
3 *2252:A *2292:A 0
*RES
1 *2291:Y *2292:A 40.5974 
*END

*D_NET *787 9.45957e-05
*CONN
*I *2293:A I *D sg13cmos5l_inv_1
*I *2292:Y O *D sg13cmos5l_inv_1
*CAP
1 *2293:A 4.72978e-05
2 *2292:Y 4.72978e-05
*RES
1 *2292:Y *2293:A 40.5974 
*END

*D_NET *788 9.45957e-05
*CONN
*I *2294:A I *D sg13cmos5l_inv_1
*I *2293:Y O *D sg13cmos5l_inv_1
*CAP
1 *2294:A 4.72978e-05
2 *2293:Y 4.72978e-05
*RES
1 *2293:Y *2294:A 40.5974 
*END

*D_NET *789 0.000626078
*CONN
*I *2295:A I *D sg13cmos5l_inv_1
*I *2284:Y O *D sg13cmos5l_inv_1
*CAP
1 *2295:A 0.000313039
2 *2284:Y 0.000313039
3 *2295:A *2306:A 0
4 *2295:A *2317:A 0
5 *1576:A *2295:A 0
6 *1577:A *2295:A 0
7 *1579:A *2295:A 0
8 *2251:A *2295:A 0
9 *2262:A *2295:A 0
*RES
1 *2284:Y *2295:A 42.932 
*END

*D_NET *790 0.00030535
*CONN
*I *2296:A I *D sg13cmos5l_inv_1
*I *2294:Y O *D sg13cmos5l_inv_1
*CAP
1 *2296:A 0.000152675
2 *2294:Y 0.000152675
3 *2296:A *2486:A 0
4 *2296:A *2487:A 0
5 *2252:A *2296:A 0
*RES
1 *2294:Y *2296:A 41.6171 
*END

*D_NET *791 0.000668263
*CONN
*I *2297:A I *D sg13cmos5l_inv_1
*I *2296:Y O *D sg13cmos5l_inv_1
*CAP
1 *2297:A 0.000153723
2 *2296:Y 0.000140289
3 *791:8 0.000294012
4 *2253:A *2297:A 0
5 *2254:A *791:8 0
6 *748:14 *2297:A 8.02379e-05
7 *755:8 *791:8 0
8 *757:10 *791:8 0
*RES
1 *2296:Y *791:8 41.339 
2 *791:8 *2297:A 41.4008 
*END

*D_NET *792 0.00101261
*CONN
*I *2298:A I *D sg13cmos5l_inv_1
*I *2297:Y O *D sg13cmos5l_inv_1
*CAP
1 *2298:A 3.46921e-05
2 *2297:Y 0.000130243
3 *792:8 0.000164935
4 *792:8 *1523:S0 0
5 *792:8 *793:8 0.000288173
6 *2254:A *792:8 0.000394566
*RES
1 *2297:Y *792:8 42.3278 
2 *792:8 *2298:A 40.3193 
*END

*D_NET *793 0.000504556
*CONN
*I *2299:A I *D sg13cmos5l_inv_1
*I *2298:Y O *D sg13cmos5l_inv_1
*CAP
1 *2299:A 0
2 *2298:Y 0.000108191
3 *793:8 0.000108191
4 *793:8 *1523:S0 0
5 *2254:A *793:8 0
6 *792:8 *793:8 0.000288173
*RES
1 *2298:Y *793:8 41.5862 
2 *793:8 *2299:A 40 
*END

*D_NET *794 0.000245081
*CONN
*I *2300:A I *D sg13cmos5l_inv_1
*I *2299:Y O *D sg13cmos5l_inv_1
*CAP
1 *2300:A 0.00012254
2 *2299:Y 0.00012254
3 *748:14 *2300:A 0
*RES
1 *2299:Y *2300:A 41.3802 
*END

*D_NET *795 0.00122634
*CONN
*I *1523:A3 I *D sg13cmos5l_mux4_1
*I *2301:A I *D sg13cmos5l_inv_1
*I *2300:Y O *D sg13cmos5l_inv_1
*CAP
1 *1523:A3 0
2 *2301:A 0.000160685
3 *2300:Y 0.000158232
4 *795:19 0.000124625
5 *795:6 0.000443542
6 *2301:A *1523:S1 0.000112426
7 *2301:A *2302:A 0
8 *795:6 *1523:S1 1.73259e-05
9 *1525:A0 *2301:A 0.000209505
10 *748:14 *795:6 0
11 *752:8 *795:19 0
12 *753:10 *2301:A 0
13 *753:10 *795:6 0
14 *753:10 *795:19 0
*RES
1 *2300:Y *795:6 21.6171 
2 *795:6 *2301:A 21.8334 
3 *795:6 *795:19 41.0918 
4 *795:19 *1523:A3 20 
*END

*D_NET *796 0.000454285
*CONN
*I *2302:A I *D sg13cmos5l_inv_1
*I *2301:Y O *D sg13cmos5l_inv_1
*CAP
1 *2302:A 0.000227143
2 *2301:Y 0.000227143
3 *2302:A *1523:S1 0
4 *2302:A *2518:A 0
5 *2302:A *1008:12 0
6 *2301:A *2302:A 0
*RES
1 *2301:Y *2302:A 42.4926 
*END

*D_NET *797 9.45957e-05
*CONN
*I *2303:A I *D sg13cmos5l_inv_1
*I *2302:Y O *D sg13cmos5l_inv_1
*CAP
1 *2303:A 4.72978e-05
2 *2302:Y 4.72978e-05
3 *2303:A *2483:A 0
4 *2303:A *2516:A 0
5 *2303:A *2518:A 0
*RES
1 *2302:Y *2303:A 40.5974 
*END

*D_NET *798 0.000133739
*CONN
*I *2304:A I *D sg13cmos5l_inv_1
*I *2303:Y O *D sg13cmos5l_inv_1
*CAP
1 *2304:A 6.68694e-05
2 *2303:Y 6.68694e-05
3 *2304:A *2483:A 0
4 *2304:A *2515:A 0
5 *2304:A *2516:A 0
*RES
1 *2303:Y *2304:A 40.8446 
*END

*D_NET *799 9.45957e-05
*CONN
*I *2305:A I *D sg13cmos5l_inv_1
*I *2304:Y O *D sg13cmos5l_inv_1
*CAP
1 *2305:A 4.72978e-05
2 *2304:Y 4.72978e-05
3 *2305:A *2481:A 0
*RES
1 *2304:Y *2305:A 40.5974 
*END

*D_NET *800 0.000302731
*CONN
*I *2306:A I *D sg13cmos5l_inv_1
*I *2295:Y O *D sg13cmos5l_inv_1
*CAP
1 *2306:A 0.00010594
2 *2295:Y 0.00010594
3 *2306:A *2317:A 9.08521e-05
4 *1576:A *2306:A 0
5 *1579:A *2306:A 0
6 *2295:A *2306:A 0
*RES
1 *2295:Y *2306:A 41.0986 
*END

*D_NET *801 0.000201036
*CONN
*I *2307:A I *D sg13cmos5l_inv_1
*I *2305:Y O *D sg13cmos5l_inv_1
*CAP
1 *2307:A 0.000100518
2 *2305:Y 0.000100518
3 *2307:A *1518:S0 0
4 *2307:A *2480:A 0
*RES
1 *2305:Y *2307:A 41.2669 
*END

*D_NET *802 0.000423652
*CONN
*I *2308:A I *D sg13cmos5l_inv_1
*I *2307:Y O *D sg13cmos5l_inv_1
*CAP
1 *2308:A 0.000211826
2 *2307:Y 0.000211826
3 *2308:A *1081:119 0
4 *751:8 *2308:A 0
*RES
1 *2307:Y *2308:A 42.2454 
*END

*D_NET *803 0.0012058
*CONN
*I *2309:A I *D sg13cmos5l_inv_1
*I *2308:Y O *D sg13cmos5l_inv_1
*CAP
1 *2309:A 0
2 *2308:Y 0.000404952
3 *803:8 0.000404952
4 *803:8 *1518:S1 0
5 *803:8 *954:24 0
6 *803:8 *1008:12 0
7 *803:8 *1080:60 0
8 *803:8 *1080:90 0
9 *2257:A *803:8 0.000395896
10 *38:8 *803:8 0
*RES
1 *2308:Y *803:8 44.3054 
2 *803:8 *2309:A 40 
*END

*D_NET *804 0.000336975
*CONN
*I *2310:A I *D sg13cmos5l_inv_1
*I *2309:Y O *D sg13cmos5l_inv_1
*CAP
1 *2310:A 0.000168488
2 *2309:Y 0.000168488
3 *2310:A *1518:S1 0
4 *2310:A *1080:66 0
5 *38:16 *2310:A 0
*RES
1 *2309:Y *2310:A 41.4782 
*END

*D_NET *805 9.45957e-05
*CONN
*I *2311:A I *D sg13cmos5l_inv_1
*I *2310:Y O *D sg13cmos5l_inv_1
*CAP
1 *2311:A 4.72978e-05
2 *2310:Y 4.72978e-05
*RES
1 *2310:Y *2311:A 40.5974 
*END

*D_NET *806 9.45957e-05
*CONN
*I *2312:A I *D sg13cmos5l_inv_1
*I *2311:Y O *D sg13cmos5l_inv_1
*CAP
1 *2312:A 4.72978e-05
2 *2311:Y 4.72978e-05
3 *2312:A *2478:A 0
*RES
1 *2311:Y *2312:A 40.5974 
*END

*D_NET *807 9.45957e-05
*CONN
*I *2313:A I *D sg13cmos5l_inv_1
*I *2312:Y O *D sg13cmos5l_inv_1
*CAP
1 *2313:A 4.72978e-05
2 *2312:Y 4.72978e-05
3 *2313:A *2477:A 0
4 *2313:A *2478:A 0
*RES
1 *2312:Y *2313:A 40.5974 
*END

*D_NET *808 9.45957e-05
*CONN
*I *2314:A I *D sg13cmos5l_inv_1
*I *2313:Y O *D sg13cmos5l_inv_1
*CAP
1 *2314:A 4.72978e-05
2 *2313:Y 4.72978e-05
3 *2314:A *2477:A 0
*RES
1 *2313:Y *2314:A 40.5974 
*END

*D_NET *809 9.45957e-05
*CONN
*I *2315:A I *D sg13cmos5l_inv_1
*I *2314:Y O *D sg13cmos5l_inv_1
*CAP
1 *2315:A 4.72978e-05
2 *2314:Y 4.72978e-05
3 *2315:A *2463:A 0
*RES
1 *2314:Y *2315:A 40.5974 
*END

*D_NET *810 9.45957e-05
*CONN
*I *2316:A I *D sg13cmos5l_inv_1
*I *2315:Y O *D sg13cmos5l_inv_1
*CAP
1 *2316:A 4.72978e-05
2 *2315:Y 4.72978e-05
3 *2316:A *2463:A 0
4 *2316:A *2464:A 0
*RES
1 *2315:Y *2316:A 40.5974 
*END

*D_NET *811 0.000467608
*CONN
*I *2317:A I *D sg13cmos5l_inv_1
*I *2306:Y O *D sg13cmos5l_inv_1
*CAP
1 *2317:A 0.000188378
2 *2306:Y 0.000188378
3 *2317:A *2328:A 0
4 *1576:A *2317:A 0
5 *1579:A *2317:A 0
6 *2295:A *2317:A 0
7 *2306:A *2317:A 9.08521e-05
*RES
1 *2306:Y *2317:A 42.1012 
*END

*D_NET *812 9.45957e-05
*CONN
*I *2318:A I *D sg13cmos5l_inv_1
*I *2316:Y O *D sg13cmos5l_inv_1
*CAP
1 *2318:A 4.72978e-05
2 *2316:Y 4.72978e-05
3 *2318:A *2464:A 0
*RES
1 *2316:Y *2318:A 40.5974 
*END

*D_NET *813 0.00278212
*CONN
*I *2319:A I *D sg13cmos5l_inv_1
*I *1511:A0 I *D sg13cmos5l_mux4_1
*I *2318:Y O *D sg13cmos5l_inv_1
*CAP
1 *2319:A 4.90409e-05
2 *1511:A0 0.00038981
3 *2318:Y 0.000490242
4 *813:10 0.000438851
5 *813:8 0.000490242
6 *1511:A0 *1511:A1 0
7 *1511:A0 *1513:S0 0
8 *1511:A0 *2392:A 0
9 *1511:A0 *830:12 0
10 *1511:A0 *1080:94 0.000202477
11 *1511:A0 *1080:100 8.11419e-06
12 *2319:A *1511:A1 0
13 *813:8 *866:18 0
14 *813:8 *887:8 0
15 *813:8 *890:8 0.000713346
16 *813:8 *891:8 0
17 *813:8 *1080:90 0
*RES
1 *2318:Y *813:8 46.5302 
2 *813:8 *813:10 20 
3 *813:10 *1511:A0 23.8651 
4 *813:10 *2319:A 20.5073 
*END

*D_NET *814 9.9762e-05
*CONN
*I *2320:A I *D sg13cmos5l_inv_1
*I *2319:Y O *D sg13cmos5l_inv_1
*CAP
1 *2320:A 4.9881e-05
2 *2319:Y 4.9881e-05
3 *2320:A *1511:A1 0
4 *2320:A *2402:A 0
*RES
1 *2319:Y *2320:A 40.5974 
*END

*D_NET *815 0.000583099
*CONN
*I *2321:A I *D sg13cmos5l_inv_1
*I *2320:Y O *D sg13cmos5l_inv_1
*CAP
1 *2321:A 0
2 *2320:Y 0.00029155
3 *815:10 0.00029155
4 *815:10 *1511:A1 0
5 *815:10 *2401:A 0
6 *815:10 *898:8 0
*RES
1 *2320:Y *815:10 42.9561 
2 *815:10 *2321:A 40 
*END

*D_NET *816 9.68552e-05
*CONN
*I *2322:A I *D sg13cmos5l_inv_1
*I *2321:Y O *D sg13cmos5l_inv_1
*CAP
1 *2322:A 4.84276e-05
2 *2321:Y 4.84276e-05
3 *2322:A *2405:A 0
4 *2322:A *2408:A 0
*RES
1 *2321:Y *2322:A 40.5974 
*END

*D_NET *817 9.45957e-05
*CONN
*I *2323:A I *D sg13cmos5l_inv_1
*I *2322:Y O *D sg13cmos5l_inv_1
*CAP
1 *2323:A 4.72978e-05
2 *2322:Y 4.72978e-05
3 *2323:A *2409:A 0
4 *2323:A *2458:A 0
*RES
1 *2322:Y *2323:A 40.5974 
*END

*D_NET *818 9.45957e-05
*CONN
*I *2324:A I *D sg13cmos5l_inv_1
*I *2323:Y O *D sg13cmos5l_inv_1
*CAP
1 *2324:A 4.72978e-05
2 *2323:Y 4.72978e-05
3 *2324:A *2410:A 0
4 *2324:A *2457:A 0
5 *2324:A *2458:A 0
*RES
1 *2323:Y *2324:A 40.5974 
*END

*D_NET *819 9.45957e-05
*CONN
*I *2325:A I *D sg13cmos5l_inv_1
*I *2324:Y O *D sg13cmos5l_inv_1
*CAP
1 *2325:A 4.72978e-05
2 *2324:Y 4.72978e-05
3 *2325:A *2411:A 0
4 *2325:A *2456:A 0
5 *2325:A *2457:A 0
*RES
1 *2324:Y *2325:A 40.5974 
*END

*D_NET *820 9.45957e-05
*CONN
*I *2326:A I *D sg13cmos5l_inv_1
*I *2325:Y O *D sg13cmos5l_inv_1
*CAP
1 *2326:A 4.72978e-05
2 *2325:Y 4.72978e-05
3 *2326:A *2412:A 0
4 *2326:A *2456:A 0
*RES
1 *2325:Y *2326:A 40.5974 
*END

*D_NET *821 0.000112161
*CONN
*I *2327:A I *D sg13cmos5l_inv_1
*I *2326:Y O *D sg13cmos5l_inv_1
*CAP
1 *2327:A 5.60806e-05
2 *2326:Y 5.60806e-05
3 *2327:A *2330:A 0
4 *2327:A *2413:A 0
*RES
1 *2326:Y *2327:A 40.5974 
*END

*D_NET *822 0.000439794
*CONN
*I *2328:A I *D sg13cmos5l_inv_1
*I *2317:Y O *D sg13cmos5l_inv_1
*CAP
1 *2328:A 0.000212197
2 *2317:Y 0.000212197
3 *2328:A *2339:A 0
4 *1579:A *2328:A 1.54008e-05
5 *2317:A *2328:A 0
*RES
1 *2317:Y *2328:A 42.5029 
*END

*D_NET *823 0.00012456
*CONN
*I *2329:A I *D sg13cmos5l_inv_1
*I *2327:Y O *D sg13cmos5l_inv_1
*CAP
1 *2329:A 6.22801e-05
2 *2327:Y 6.22801e-05
3 *2329:A *2330:A 0
4 *2329:A *2414:A 0
*RES
1 *2327:Y *2329:A 40.5974 
*END

*D_NET *824 0.000533599
*CONN
*I *2330:A I *D sg13cmos5l_inv_1
*I *2329:Y O *D sg13cmos5l_inv_1
*CAP
1 *2330:A 0.000266799
2 *2329:Y 0.000266799
3 *2330:A *2331:A 0
4 *2330:A *2343:A 0
5 *2330:A *2455:A 0
6 *2327:A *2330:A 0
7 *2329:A *2330:A 0
*RES
1 *2329:Y *2330:A 42.7398 
*END

*D_NET *825 0.000667195
*CONN
*I *2331:A I *D sg13cmos5l_inv_1
*I *2330:Y O *D sg13cmos5l_inv_1
*CAP
1 *2331:A 0.000179823
2 *2330:Y 0.000153775
3 *825:8 0.000333598
4 *2331:A *2336:A 0
5 *2331:A *2415:A 0
6 *825:8 *949:8 0
7 *2330:A *2331:A 0
*RES
1 *2330:Y *825:8 41.8334 
2 *825:8 *2331:A 41.9673 
*END

*D_NET *826 9.45957e-05
*CONN
*I *2332:A I *D sg13cmos5l_inv_1
*I *2331:Y O *D sg13cmos5l_inv_1
*CAP
1 *2332:A 4.72978e-05
2 *2331:Y 4.72978e-05
3 *2332:A *2338:A 0
*RES
1 *2331:Y *2332:A 40.5974 
*END

*D_NET *827 9.45957e-05
*CONN
*I *2333:A I *D sg13cmos5l_inv_1
*I *2332:Y O *D sg13cmos5l_inv_1
*CAP
1 *2333:A 4.72978e-05
2 *2332:Y 4.72978e-05
3 *2333:A *2337:A 0
*RES
1 *2332:Y *2333:A 40.5974 
*END

*D_NET *828 0.00037209
*CONN
*I *2334:A I *D sg13cmos5l_inv_1
*I *2333:Y O *D sg13cmos5l_inv_1
*CAP
1 *2334:A 0.000178345
2 *2333:Y 0.000178345
3 *2334:A *2336:A 0
4 *2334:A *936:12 1.54008e-05
*RES
1 *2333:Y *2334:A 41.6171 
*END

*D_NET *829 0.000969627
*CONN
*I *1561:A I *D sg13cmos5l_buf_1
*I *2335:A I *D sg13cmos5l_inv_1
*I *2334:Y O *D sg13cmos5l_inv_1
*CAP
1 *1561:A 0.000153691
2 *2335:A 9.97656e-05
3 *2334:Y 0
4 *829:6 0.000253457
5 *1561:A *936:12 0.000319109
6 *2335:A *2336:A 0
7 *2335:A *936:12 0.000143605
*RES
1 *2334:Y *829:6 40 
2 *829:6 *2335:A 41.1639 
3 *829:6 *1561:A 42.3278 
*END

*D_NET *830 0.00278339
*CONN
*I *2336:A I *D sg13cmos5l_inv_1
*I *1513:A0 I *D sg13cmos5l_mux4_1
*I *2335:Y O *D sg13cmos5l_inv_1
*CAP
1 *2336:A 0.000419126
2 *1513:A0 0
3 *2335:Y 0
4 *830:12 0.000860043
5 *830:6 0.00127917
6 *2336:A *2448:A 0
7 *2336:A *936:12 0
8 *2336:A *941:8 0
9 *830:12 *1511:A1 0.000209637
10 *830:12 *1513:S0 1.5412e-05
11 *830:12 *1513:A3 0
12 *830:12 *866:18 0
13 *830:12 *941:8 0
14 *1511:A0 *830:12 0
15 *2331:A *2336:A 0
16 *2334:A *2336:A 0
17 *2335:A *2336:A 0
*RES
1 *2335:Y *830:6 40 
2 *830:6 *830:12 30.1558 
3 *830:12 *1513:A0 20 
4 *830:6 *2336:A 44.0376 
*END

*D_NET *831 0.000619665
*CONN
*I *2337:A I *D sg13cmos5l_inv_1
*I *2336:Y O *D sg13cmos5l_inv_1
*CAP
1 *2337:A 5.89124e-05
2 *2336:Y 0.000213105
3 *831:10 0.000272017
4 *2337:A *2342:A 0
5 *2337:A *2343:A 0
6 *831:10 *2449:A 0
7 *831:10 *834:8 7.56308e-05
8 *831:10 *949:8 0
9 *2333:A *2337:A 0
*RES
1 *2336:Y *831:10 42.5235 
2 *831:10 *2337:A 40.6695 
*END

*D_NET *832 9.45957e-05
*CONN
*I *2338:A I *D sg13cmos5l_inv_1
*I *2337:Y O *D sg13cmos5l_inv_1
*CAP
1 *2338:A 4.72978e-05
2 *2337:Y 4.72978e-05
3 *2338:A *2343:A 0
4 *2332:A *2338:A 0
*RES
1 *2337:Y *2338:A 40.5974 
*END

*D_NET *833 0.000294543
*CONN
*I *2339:A I *D sg13cmos5l_inv_1
*I *2328:Y O *D sg13cmos5l_inv_1
*CAP
1 *2339:A 0.000147271
2 *2328:Y 0.000147271
3 *1579:A *2339:A 0
4 *2328:A *2339:A 0
*RES
1 *2328:Y *2339:A 41.3802 
*END

*D_NET *834 0.000320374
*CONN
*I *2340:A I *D sg13cmos5l_inv_1
*I *2338:Y O *D sg13cmos5l_inv_1
*CAP
1 *2340:A 0
2 *2338:Y 0.000122372
3 *834:8 0.000122372
4 *834:8 *949:8 0
5 *831:10 *834:8 7.56308e-05
*RES
1 *2338:Y *834:8 41.5862 
2 *834:8 *2340:A 40 
*END

*D_NET *835 0.000319624
*CONN
*I *2341:A I *D sg13cmos5l_inv_1
*I *2340:Y O *D sg13cmos5l_inv_1
*CAP
1 *2341:A 0.000159812
2 *2340:Y 0.000159812
3 *2341:A *2344:A 0
4 *2341:A *2452:A 0
5 *2341:A *2454:A 0
*RES
1 *2340:Y *2341:A 41.6171 
*END

*D_NET *836 9.45957e-05
*CONN
*I *2342:A I *D sg13cmos5l_inv_1
*I *2341:Y O *D sg13cmos5l_inv_1
*CAP
1 *2342:A 4.72978e-05
2 *2341:Y 4.72978e-05
3 *2337:A *2342:A 0
*RES
1 *2341:Y *2342:A 40.5974 
*END

*D_NET *837 0.000910758
*CONN
*I *2343:A I *D sg13cmos5l_inv_1
*I *2342:Y O *D sg13cmos5l_inv_1
*CAP
1 *2343:A 0.000265441
2 *2342:Y 0.000265441
3 *2343:A *2344:A 0.000379876
4 *2343:A *2345:A 0
5 *2343:A *2455:A 0
6 *2330:A *2343:A 0
7 *2337:A *2343:A 0
8 *2338:A *2343:A 0
*RES
1 *2342:Y *2343:A 43.4505 
*END

*D_NET *838 0.000892726
*CONN
*I *2344:A I *D sg13cmos5l_inv_1
*I *2343:Y O *D sg13cmos5l_inv_1
*CAP
1 *2344:A 0.000256425
2 *2343:Y 0.000256425
3 *2344:A *2345:A 0
4 *2344:A *2346:A 0
5 *2344:A *2455:A 0
6 *2341:A *2344:A 0
7 *2343:A *2344:A 0.000379876
*RES
1 *2343:Y *2344:A 43.0591 
*END

*D_NET *839 0.00023057
*CONN
*I *2345:A I *D sg13cmos5l_inv_1
*I *2344:Y O *D sg13cmos5l_inv_1
*CAP
1 *2345:A 0.000115285
2 *2344:Y 0.000115285
3 *2343:A *2345:A 0
4 *2344:A *2345:A 0
*RES
1 *2344:Y *2345:A 41.3802 
*END

*D_NET *840 0.00012456
*CONN
*I *2346:A I *D sg13cmos5l_inv_1
*I *2345:Y O *D sg13cmos5l_inv_1
*CAP
1 *2346:A 6.22801e-05
2 *2345:Y 6.22801e-05
3 *2344:A *2346:A 0
*RES
1 *2345:Y *2346:A 40.5974 
*END

*D_NET *841 9.45957e-05
*CONN
*I *2347:A I *D sg13cmos5l_inv_1
*I *2346:Y O *D sg13cmos5l_inv_1
*CAP
1 *2347:A 4.72978e-05
2 *2346:Y 4.72978e-05
*RES
1 *2346:Y *2347:A 40.5974 
*END

*D_NET *842 9.45957e-05
*CONN
*I *2348:A I *D sg13cmos5l_inv_1
*I *2347:Y O *D sg13cmos5l_inv_1
*CAP
1 *2348:A 4.72978e-05
2 *2347:Y 4.72978e-05
3 *2348:A *2456:A 0
*RES
1 *2347:Y *2348:A 40.5974 
*END

*D_NET *843 9.45957e-05
*CONN
*I *2349:A I *D sg13cmos5l_inv_1
*I *2348:Y O *D sg13cmos5l_inv_1
*CAP
1 *2349:A 4.72978e-05
2 *2348:Y 4.72978e-05
3 *2349:A *2456:A 0
4 *2349:A *2457:A 0
*RES
1 *2348:Y *2349:A 40.5974 
*END

*D_NET *844 0.000384611
*CONN
*I *2350:A I *D sg13cmos5l_inv_1
*I *2339:Y O *D sg13cmos5l_inv_1
*CAP
1 *2350:A 0.000192306
2 *2339:Y 0.000192306
3 *1574:A *2350:A 0
4 *1580:A *2350:A 0
5 *84:12 *2350:A 0
*RES
1 *2339:Y *2350:A 41.9673 
*END

*D_NET *845 9.45957e-05
*CONN
*I *2351:A I *D sg13cmos5l_inv_1
*I *2240:Y O *D sg13cmos5l_inv_1
*CAP
1 *2351:A 4.72978e-05
2 *2240:Y 4.72978e-05
3 *2129:A *2351:A 0
*RES
1 *2240:Y *2351:A 40.5974 
*END

*D_NET *846 0.000886204
*CONN
*I *2352:A I *D sg13cmos5l_inv_1
*I *2349:Y O *D sg13cmos5l_inv_1
*CAP
1 *2352:A 0.000158893
2 *2349:Y 0.000180048
3 *846:8 0.00033894
4 *2352:A *1511:A1 8.01637e-05
5 *2352:A *953:8 0
6 *846:8 *2459:A 0.00012816
7 *846:8 *953:25 0
*RES
1 *2349:Y *846:8 41.8334 
2 *846:8 *2352:A 41.6171 
*END

*D_NET *847 0.000628988
*CONN
*I *2353:A I *D sg13cmos5l_inv_1
*I *2352:Y O *D sg13cmos5l_inv_1
*CAP
1 *2353:A 0.000183955
2 *2352:Y 0.000130538
3 *847:8 0.000314494
4 *2353:A *1511:A1 0
5 *2353:A *2354:A 0
6 *2353:A *2355:A 0
7 *2353:A *2455:A 0
8 *2353:A *953:8 0
9 *847:8 *2459:A 0
*RES
1 *2352:Y *847:8 41.339 
2 *847:8 *2353:A 41.6171 
*END

*D_NET *848 0.000224191
*CONN
*I *2354:A I *D sg13cmos5l_inv_1
*I *2353:Y O *D sg13cmos5l_inv_1
*CAP
1 *2354:A 0.000112096
2 *2353:Y 0.000112096
3 *2354:A *2355:A 0
4 *2354:A *2358:A 0
5 *2353:A *2354:A 0
*RES
1 *2353:Y *2354:A 41.3802 
*END

*D_NET *849 0.00309515
*CONN
*I *2355:A I *D sg13cmos5l_inv_1
*I *1511:A1 I *D sg13cmos5l_mux4_1
*I *2354:Y O *D sg13cmos5l_inv_1
*CAP
1 *2355:A 2.30407e-05
2 *1511:A1 0.00114276
3 *2354:Y 4.61469e-05
4 *849:6 0.00121195
5 *1511:A1 *1511:A2 8.02431e-05
6 *1511:A1 *1513:S0 0
7 *1511:A1 *1513:A2 0
8 *1511:A1 *2356:A 0
9 *1511:A1 *2357:A 0
10 *1511:A1 *2396:A 0
11 *1511:A1 *2404:A 0.000270348
12 *1511:A1 *2405:A 0
13 *1511:A1 *2407:A 1.54556e-05
14 *1511:A1 *897:10 0
15 *1511:A1 *902:8 1.54008e-05
16 *1511:A1 *953:8 0
17 *2355:A *2357:A 0
18 *1511:A0 *1511:A1 0
19 *2319:A *1511:A1 0
20 *2320:A *1511:A1 0
21 *2352:A *1511:A1 8.01637e-05
22 *2353:A *1511:A1 0
23 *2353:A *2355:A 0
24 *2354:A *2355:A 0
25 *815:10 *1511:A1 0
26 *830:12 *1511:A1 0.000209637
*RES
1 *2354:Y *849:6 20.5974 
2 *849:6 *1511:A1 32.6278 
3 *849:6 *2355:A 20.3193 
*END

*D_NET *850 0.0010505
*CONN
*I *2356:A I *D sg13cmos5l_inv_1
*I *2355:Y O *D sg13cmos5l_inv_1
*CAP
1 *2356:A 0.000308639
2 *2355:Y 0.000308639
3 *2356:A *2357:A 0.000433223
4 *2356:A *2358:A 0
5 *2356:A *2403:A 0
6 *2356:A *897:10 0
7 *1511:A1 *2356:A 0
*RES
1 *2355:Y *2356:A 43.6977 
*END

*D_NET *851 0.000977358
*CONN
*I *2357:A I *D sg13cmos5l_inv_1
*I *2356:Y O *D sg13cmos5l_inv_1
*CAP
1 *2357:A 0.000272068
2 *2356:Y 0.000272068
3 *2357:A *2358:A 0
4 *2357:A *2359:A 0
5 *2357:A *2360:A 0
6 *1511:A1 *2357:A 0
7 *2355:A *2357:A 0
8 *2356:A *2357:A 0.000433223
*RES
1 *2356:Y *2357:A 43.3063 
*END

*D_NET *852 0.000236569
*CONN
*I *2358:A I *D sg13cmos5l_inv_1
*I *2357:Y O *D sg13cmos5l_inv_1
*CAP
1 *2358:A 0.000118284
2 *2357:Y 0.000118284
3 *2354:A *2358:A 0
4 *2356:A *2358:A 0
5 *2357:A *2358:A 0
*RES
1 *2357:Y *2358:A 41.3802 
*END

*D_NET *853 0.00012456
*CONN
*I *2359:A I *D sg13cmos5l_inv_1
*I *2358:Y O *D sg13cmos5l_inv_1
*CAP
1 *2359:A 6.22801e-05
2 *2358:Y 6.22801e-05
3 *2357:A *2359:A 0
*RES
1 *2358:Y *2359:A 40.5974 
*END

*D_NET *854 9.9762e-05
*CONN
*I *2360:A I *D sg13cmos5l_inv_1
*I *2359:Y O *D sg13cmos5l_inv_1
*CAP
1 *2360:A 4.9881e-05
2 *2359:Y 4.9881e-05
3 *2357:A *2360:A 0
*RES
1 *2359:Y *2360:A 40.5974 
*END

*D_NET *855 0.000291938
*CONN
*I *2361:A I *D sg13cmos5l_inv_1
*I *2360:Y O *D sg13cmos5l_inv_1
*CAP
1 *2361:A 0
2 *2360:Y 0.000145969
3 *855:8 0.000145969
4 *855:8 *2459:A 0
*RES
1 *2360:Y *855:8 41.339 
2 *855:8 *2361:A 40 
*END

*D_NET *856 0.000112992
*CONN
*I *2362:A I *D sg13cmos5l_inv_1
*I *2350:Y O *D sg13cmos5l_inv_1
*CAP
1 *2362:A 5.6496e-05
2 *2350:Y 5.6496e-05
3 *2362:A *2384:A 0
*RES
1 *2350:Y *2362:A 40.5974 
*END

*D_NET *857 0.00102152
*CONN
*I *2363:A I *D sg13cmos5l_inv_1
*I *2361:Y O *D sg13cmos5l_inv_1
*CAP
1 *2363:A 3.23895e-05
2 *2361:Y 0.000174106
3 *857:8 0.000206496
4 *2363:A *2364:A 0
5 *2363:A *2459:A 0
6 *857:8 *2459:A 0.000608526
*RES
1 *2361:Y *857:8 42.8222 
2 *857:8 *2363:A 40.3193 
*END

*D_NET *858 0.000226953
*CONN
*I *2364:A I *D sg13cmos5l_inv_1
*I *2363:Y O *D sg13cmos5l_inv_1
*CAP
1 *2364:A 0.000113477
2 *2363:Y 0.000113477
3 *2364:A *2366:A 0
4 *2364:A *2468:A 0
5 *2364:A *859:12 0
6 *2363:A *2364:A 0
*RES
1 *2363:Y *2364:A 41.3802 
*END

*D_NET *859 0.000600624
*CONN
*I *2365:A I *D sg13cmos5l_inv_1
*I *2364:Y O *D sg13cmos5l_inv_1
*CAP
1 *2365:A 0
2 *2364:Y 0.000300312
3 *859:12 0.000300312
4 *859:12 *2366:A 0
5 *859:12 *2399:A 0
6 *859:12 *2459:A 0
7 *859:12 *954:12 0
8 *2364:A *859:12 0
*RES
1 *2364:Y *859:12 43.3063 
2 *859:12 *2365:A 40 
*END

*D_NET *860 0.00023346
*CONN
*I *2366:A I *D sg13cmos5l_inv_1
*I *2365:Y O *D sg13cmos5l_inv_1
*CAP
1 *2366:A 0.00011673
2 *2365:Y 0.00011673
3 *2366:A *2369:A 0
4 *2366:A *954:12 0
5 *2364:A *2366:A 0
6 *859:12 *2366:A 0
*RES
1 *2365:Y *2366:A 41.3802 
*END

*D_NET *861 0.000450462
*CONN
*I *2367:A I *D sg13cmos5l_inv_1
*I *2366:Y O *D sg13cmos5l_inv_1
*CAP
1 *2367:A 0.000225231
2 *2366:Y 0.000225231
3 *2367:A *2368:A 0
4 *2367:A *2369:A 0
5 *2367:A *954:12 0
*RES
1 *2366:Y *2367:A 42.3484 
*END

*D_NET *862 0.000228604
*CONN
*I *2368:A I *D sg13cmos5l_inv_1
*I *2367:Y O *D sg13cmos5l_inv_1
*CAP
1 *2368:A 0.000114302
2 *2367:Y 0.000114302
3 *2367:A *2368:A 0
*RES
1 *2367:Y *2368:A 41.3802 
*END

*D_NET *863 9.68552e-05
*CONN
*I *2369:A I *D sg13cmos5l_inv_1
*I *2368:Y O *D sg13cmos5l_inv_1
*CAP
1 *2369:A 4.84276e-05
2 *2368:Y 4.84276e-05
3 *2366:A *2369:A 0
4 *2367:A *2369:A 0
*RES
1 *2368:Y *2369:A 40.5974 
*END

*D_NET *864 0.000294563
*CONN
*I *2370:A I *D sg13cmos5l_inv_1
*I *2369:Y O *D sg13cmos5l_inv_1
*CAP
1 *2370:A 0.000147281
2 *2369:Y 0.000147281
3 *2370:A *2371:A 0
*RES
1 *2369:Y *2370:A 41.6171 
*END

*D_NET *865 0.000251764
*CONN
*I *2371:A I *D sg13cmos5l_inv_1
*I *2370:Y O *D sg13cmos5l_inv_1
*CAP
1 *2371:A 0.000118182
2 *2370:Y 0.000118182
3 *2371:A *2375:A 0
4 *2371:A *2376:A 0
5 *2371:A *866:10 1.54008e-05
6 *2370:A *2371:A 0
*RES
1 *2370:Y *2371:A 41.3802 
*END

*D_NET *866 0.00169806
*CONN
*I *2372:A I *D sg13cmos5l_inv_1
*I *1513:A1 I *D sg13cmos5l_mux4_1
*I *2371:Y O *D sg13cmos5l_inv_1
*CAP
1 *2372:A 0
2 *1513:A1 0
3 *2371:Y 0.000250481
4 *866:18 0.00059085
5 *866:10 0.000841332
6 *866:10 *2374:A 0
7 *866:10 *2375:A 0
8 *866:18 *1511:A2 0
9 *866:18 *1080:90 0
10 *2371:A *866:10 1.54008e-05
11 *813:8 *866:18 0
12 *830:12 *866:18 0
*RES
1 *2371:Y *866:10 22.5956 
2 *866:10 *866:18 45.8607 
3 *866:18 *1513:A1 20 
4 *866:10 *2372:A 20 
*END

*D_NET *867 0.000142
*CONN
*I *2373:A I *D sg13cmos5l_inv_1
*I *2362:Y O *D sg13cmos5l_inv_1
*CAP
1 *2373:A 7.09999e-05
2 *2362:Y 7.09999e-05
3 *2373:A *2384:A 0
*RES
1 *2362:Y *2373:A 40.5974 
*END

*D_NET *868 0.00012456
*CONN
*I *2374:A I *D sg13cmos5l_inv_1
*I *2372:Y O *D sg13cmos5l_inv_1
*CAP
1 *2374:A 6.22801e-05
2 *2372:Y 6.22801e-05
3 *866:10 *2374:A 0
*RES
1 *2372:Y *2374:A 40.5974 
*END

*D_NET *869 0.000100252
*CONN
*I *2375:A I *D sg13cmos5l_inv_1
*I *2374:Y O *D sg13cmos5l_inv_1
*CAP
1 *2375:A 5.01259e-05
2 *2374:Y 5.01259e-05
3 *2371:A *2375:A 0
4 *866:10 *2375:A 0
*RES
1 *2374:Y *2375:A 40.5974 
*END

*D_NET *870 0.000108191
*CONN
*I *2376:A I *D sg13cmos5l_inv_1
*I *2375:Y O *D sg13cmos5l_inv_1
*CAP
1 *2376:A 5.40953e-05
2 *2375:Y 5.40953e-05
3 *2376:A *2377:A 0
4 *2371:A *2376:A 0
*RES
1 *2375:Y *2376:A 40.5974 
*END

*D_NET *871 0.000451898
*CONN
*I *2377:A I *D sg13cmos5l_inv_1
*I *2376:Y O *D sg13cmos5l_inv_1
*CAP
1 *2377:A 0.000225949
2 *2376:Y 0.000225949
3 *2377:A *2379:A 0
4 *2377:A *2391:A 0
5 *2377:A *886:10 0
6 *2376:A *2377:A 0
*RES
1 *2376:Y *2377:A 42.4617 
*END

*D_NET *872 0.000261262
*CONN
*I *2378:A I *D sg13cmos5l_inv_1
*I *2377:Y O *D sg13cmos5l_inv_1
*CAP
1 *2378:A 0
2 *2377:Y 0.000130631
3 *872:8 0.000130631
4 *872:8 *1080:90 0
*RES
1 *2377:Y *872:8 41.5862 
2 *872:8 *2378:A 40 
*END

*D_NET *873 0.000397454
*CONN
*I *2379:A I *D sg13cmos5l_inv_1
*I *2378:Y O *D sg13cmos5l_inv_1
*CAP
1 *2379:A 0.000190999
2 *2378:Y 0.000190999
3 *2379:A *2380:A 1.54556e-05
4 *2214:A *2379:A 0
5 *2377:A *2379:A 0
*RES
1 *2378:Y *2379:A 42.1218 
*END

*D_NET *874 0.000308132
*CONN
*I *2380:A I *D sg13cmos5l_inv_1
*I *2379:Y O *D sg13cmos5l_inv_1
*CAP
1 *2380:A 0.000146338
2 *2379:Y 0.000146338
3 *2380:A *2389:A 0
4 *2380:A *879:12 0
5 *2379:A *2380:A 1.54556e-05
*RES
1 *2379:Y *2380:A 41.4008 
*END

*D_NET *875 0.000298135
*CONN
*I *2381:A I *D sg13cmos5l_inv_1
*I *2380:Y O *D sg13cmos5l_inv_1
*CAP
1 *2381:A 0.000149067
2 *2380:Y 0.000149067
3 *2163:A *2381:A 0
*RES
1 *2380:Y *2381:A 41.3802 
*END

*D_NET *876 0.000116245
*CONN
*I *2382:A I *D sg13cmos5l_inv_1
*I *2381:Y O *D sg13cmos5l_inv_1
*CAP
1 *2382:A 5.81224e-05
2 *2381:Y 5.81224e-05
3 *2161:A *2382:A 0
4 *2163:A *2382:A 0
*RES
1 *2381:Y *2382:A 40.5974 
*END

*D_NET *877 0.000119252
*CONN
*I *2383:A I *D sg13cmos5l_inv_1
*I *2382:Y O *D sg13cmos5l_inv_1
*CAP
1 *2383:A 5.96258e-05
2 *2382:Y 5.96258e-05
3 *2161:A *2383:A 0
*RES
1 *2382:Y *2383:A 40.5974 
*END

*D_NET *878 0.000534245
*CONN
*I *2384:A I *D sg13cmos5l_inv_1
*I *2373:Y O *D sg13cmos5l_inv_1
*CAP
1 *2384:A 0.000267123
2 *2373:Y 0.000267123
3 *1531:A0 *2384:A 0
4 *1589:A *2384:A 0
5 *2362:A *2384:A 0
6 *2373:A *2384:A 0
*RES
1 *2373:Y *2384:A 42.4926 
*END

*D_NET *879 0.000776974
*CONN
*I *2385:A I *D sg13cmos5l_inv_1
*I *2383:Y O *D sg13cmos5l_inv_1
*CAP
1 *2385:A 8.48338e-05
2 *2383:Y 0.000279782
3 *879:12 0.000364616
4 *2385:A *880:10 4.77425e-05
5 *879:12 *883:10 0
6 *2380:A *879:12 0
*RES
1 *2383:Y *879:12 42.2557 
2 *879:12 *2385:A 40.7519 
*END

*D_NET *880 0.000987437
*CONN
*I *2386:A I *D sg13cmos5l_inv_1
*I *2385:Y O *D sg13cmos5l_inv_1
*CAP
1 *2386:A 0.000115484
2 *2385:Y 0.000170928
3 *880:10 0.000286412
4 *2386:A *881:14 7.96143e-05
5 *880:10 *883:10 0.000287256
6 *2385:A *880:10 4.77425e-05
*RES
1 *2385:Y *880:10 41.8746 
2 *880:10 *2386:A 40.9682 
*END

*D_NET *881 0.000960885
*CONN
*I *2387:A I *D sg13cmos5l_inv_1
*I *2386:Y O *D sg13cmos5l_inv_1
*CAP
1 *2387:A 0
2 *2386:Y 0.000333645
3 *881:14 0.000333645
4 *881:14 *1511:A2 0
5 *881:14 *882:8 0
6 *881:14 *884:8 0
7 *881:14 *1080:100 0.000213981
8 *2386:A *881:14 7.96143e-05
*RES
1 *2386:Y *881:14 43.193 
2 *881:14 *2387:A 40 
*END

*D_NET *882 0.00144438
*CONN
*I *2388:A I *D sg13cmos5l_inv_1
*I *2387:Y O *D sg13cmos5l_inv_1
*CAP
1 *2388:A 0.000126408
2 *2387:Y 0.000184222
3 *882:8 0.00031063
4 *2388:A *883:10 0.000112008
5 *2388:A *1080:100 0.000208747
6 *882:8 *883:10 0.000502362
7 *882:8 *884:8 0
8 *882:8 *885:10 0
9 *881:14 *882:8 0
*RES
1 *2387:Y *882:8 42.3278 
2 *882:8 *2388:A 41.4008 
*END

*D_NET *883 0.00185621
*CONN
*I *2389:A I *D sg13cmos5l_inv_1
*I *2388:Y O *D sg13cmos5l_inv_1
*CAP
1 *2389:A 8.0607e-05
2 *2388:Y 0.000396683
3 *883:10 0.00047729
4 *2389:A *2391:A 0
5 *883:10 *885:10 0
6 *2380:A *2389:A 0
7 *2388:A *883:10 0.000112008
8 *879:12 *883:10 0
9 *880:10 *883:10 0.000287256
10 *882:8 *883:10 0.000502362
*RES
1 *2388:Y *883:10 44.8101 
2 *883:10 *2389:A 40.7519 
*END

*D_NET *884 0.00191431
*CONN
*I *1511:A2 I *D sg13cmos5l_mux4_1
*I *2390:A I *D sg13cmos5l_inv_1
*I *2389:Y O *D sg13cmos5l_inv_1
*CAP
1 *1511:A2 0.000370022
2 *2390:A 0.000203188
3 *2389:Y 0.00027174
4 *884:8 0.00084495
5 *1511:A2 *1511:S1 0
6 *1511:A2 *1513:S0 0
7 *1511:A2 *1513:S1 0
8 *1511:A2 *886:10 0
9 *2390:A *885:10 0.000144162
10 *884:8 *885:10 0
11 *884:8 *886:10 0
12 *1511:A1 *1511:A2 8.02431e-05
13 *866:18 *1511:A2 0
14 *881:14 *1511:A2 0
15 *881:14 *884:8 0
16 *882:8 *884:8 0
*RES
1 *2389:Y *884:8 42.0806 
2 *884:8 *2390:A 41.6171 
3 *884:8 *1511:A2 43.605 
*END

*D_NET *885 0.00102766
*CONN
*I *2391:A I *D sg13cmos5l_inv_1
*I *2390:Y O *D sg13cmos5l_inv_1
*CAP
1 *2391:A 3.33406e-05
2 *2390:Y 0.00040841
3 *885:10 0.000441751
4 *885:10 *886:10 0
5 *2377:A *2391:A 0
6 *2389:A *2391:A 0
7 *2390:A *885:10 0.000144162
8 *882:8 *885:10 0
9 *883:10 *885:10 0
10 *884:8 *885:10 0
*RES
1 *2390:Y *885:10 43.7286 
2 *885:10 *2391:A 40.3193 
*END

*D_NET *886 0.00201129
*CONN
*I *2392:A I *D sg13cmos5l_inv_1
*I *2391:Y O *D sg13cmos5l_inv_1
*CAP
1 *2392:A 0.000146867
2 *2391:Y 0.000398042
3 *886:10 0.000544909
4 *2392:A *1080:94 4.71556e-05
5 *886:10 *1080:90 0.000874321
6 *1511:A0 *2392:A 0
7 *1511:A2 *886:10 0
8 *2377:A *886:10 0
9 *884:8 *886:10 0
10 *885:10 *886:10 0
*RES
1 *2391:Y *886:10 44.5938 
2 *886:10 *2392:A 41.1845 
*END

*D_NET *887 0.000705994
*CONN
*I *2393:A I *D sg13cmos5l_inv_1
*I *2392:Y O *D sg13cmos5l_inv_1
*CAP
1 *2393:A 0.00018767
2 *2392:Y 0.000165327
3 *887:8 0.000352997
4 *813:8 *887:8 0
*RES
1 *2392:Y *887:8 41.5862 
2 *887:8 *2393:A 41.4008 
*END

*D_NET *888 0.000545166
*CONN
*I *2394:A I *D sg13cmos5l_inv_1
*I *2393:Y O *D sg13cmos5l_inv_1
*CAP
1 *2394:A 0
2 *2393:Y 0.000101981
3 *888:8 0.000101981
4 *888:8 *890:8 0.000341205
5 *888:8 *892:8 0
*RES
1 *2393:Y *888:8 41.5862 
2 *888:8 *2394:A 40 
*END

*D_NET *889 0.00303349
*CONN
*I *2395:A I *D sg13cmos5l_inv_1
*I *1530:A2 I *D sg13cmos5l_mux4_1
*I *2384:Y O *D sg13cmos5l_inv_1
*CAP
1 *2395:A 7.96687e-05
2 *1530:A2 0.000591913
3 *2384:Y 6.93473e-05
4 *889:8 0.000740929
5 *1530:A2 *1078:51 0
6 *1530:A2 *1082:48 0
7 *1530:A2 *1082:63 0
8 *2395:A *900:12 1.54008e-05
9 *889:8 *1082:63 0
10 *1591:A *1530:A2 0.000288502
11 *86:8 *1530:A2 0.00108772
12 *86:8 *889:8 0.000160013
*RES
1 *2384:Y *889:8 40.8446 
2 *889:8 *1530:A2 46.8186 
3 *889:8 *2395:A 40.7519 
*END

*D_NET *890 0.0014989
*CONN
*I *2396:A I *D sg13cmos5l_inv_1
*I *2394:Y O *D sg13cmos5l_inv_1
*CAP
1 *2396:A 3.78444e-05
2 *2394:Y 0.00018433
3 *890:8 0.000222174
4 *1511:A1 *2396:A 0
5 *813:8 *890:8 0.000713346
6 *888:8 *890:8 0.000341205
*RES
1 *2394:Y *890:8 43.3166 
2 *890:8 *2396:A 40.3193 
*END

*D_NET *891 0.000712015
*CONN
*I *2397:A I *D sg13cmos5l_inv_1
*I *2396:Y O *D sg13cmos5l_inv_1
*CAP
1 *2397:A 0.000206908
2 *2396:Y 0.0001491
3 *891:8 0.000356007
4 *891:8 *892:8 0
5 *813:8 *891:8 0
*RES
1 *2396:Y *891:8 41.5862 
2 *891:8 *2397:A 41.6171 
*END

*D_NET *892 0.000286672
*CONN
*I *2398:A I *D sg13cmos5l_inv_1
*I *2397:Y O *D sg13cmos5l_inv_1
*CAP
1 *2398:A 0
2 *2397:Y 0.000143336
3 *892:8 0.000143336
4 *892:8 *894:8 0
5 *892:8 *895:8 0
6 *888:8 *892:8 0
7 *891:8 *892:8 0
*RES
1 *2397:Y *892:8 41.5862 
2 *892:8 *2398:A 40 
*END

*D_NET *893 0.00146036
*CONN
*I *2399:A I *D sg13cmos5l_inv_1
*I *2398:Y O *D sg13cmos5l_inv_1
*CAP
1 *2399:A 5.81346e-05
2 *2398:Y 0.000672044
3 *893:12 0.000730178
4 *893:12 *2401:A 0
5 *893:12 *2403:A 0
6 *893:12 *2459:A 0
7 *893:12 *894:8 0
8 *893:12 *895:8 0
9 *893:12 *897:10 0
10 *859:12 *2399:A 0
*RES
1 *2398:Y *893:12 45.253 
2 *893:12 *2399:A 40.5356 
*END

*D_NET *894 0.000402539
*CONN
*I *2400:A I *D sg13cmos5l_inv_1
*I *2399:Y O *D sg13cmos5l_inv_1
*CAP
1 *2400:A 0
2 *2399:Y 0.000201269
3 *894:8 0.000201269
4 *894:8 *2459:A 0
5 *892:8 *894:8 0
6 *893:12 *894:8 0
*RES
1 *2399:Y *894:8 41.8334 
2 *894:8 *2400:A 40 
*END

*D_NET *895 0.000851097
*CONN
*I *2401:A I *D sg13cmos5l_inv_1
*I *2400:Y O *D sg13cmos5l_inv_1
*CAP
1 *2401:A 0.000202017
2 *2400:Y 0.000159243
3 *895:8 0.000361261
4 *2401:A *2404:A 0
5 *2401:A *897:10 0
6 *895:8 *898:8 0.000128576
7 *815:10 *2401:A 0
8 *892:8 *895:8 0
9 *893:12 *2401:A 0
10 *893:12 *895:8 0
*RES
1 *2400:Y *895:8 41.8334 
2 *895:8 *2401:A 42.0703 
*END

*D_NET *896 9.45957e-05
*CONN
*I *2402:A I *D sg13cmos5l_inv_1
*I *2401:Y O *D sg13cmos5l_inv_1
*CAP
1 *2402:A 4.72978e-05
2 *2401:Y 4.72978e-05
3 *2320:A *2402:A 0
*RES
1 *2401:Y *2402:A 40.5974 
*END

*D_NET *897 0.000873261
*CONN
*I *2403:A I *D sg13cmos5l_inv_1
*I *2402:Y O *D sg13cmos5l_inv_1
*CAP
1 *2403:A 5.97664e-05
2 *2402:Y 0.000376864
3 *897:10 0.00043663
4 *897:10 *2404:A 0
5 *897:10 *2459:A 0
6 *897:10 *898:8 0
7 *1511:A1 *897:10 0
8 *2356:A *2403:A 0
9 *2356:A *897:10 0
10 *2401:A *897:10 0
11 *893:12 *2403:A 0
12 *893:12 *897:10 0
*RES
1 *2402:Y *897:10 43.4196 
2 *897:10 *2403:A 40.5356 
*END

*D_NET *898 0.00120631
*CONN
*I *2404:A I *D sg13cmos5l_inv_1
*I *2403:Y O *D sg13cmos5l_inv_1
*CAP
1 *2404:A 0.000175896
2 *2403:Y 0.000227795
3 *898:8 0.000403691
4 *1511:A1 *2404:A 0.000270348
5 *2401:A *2404:A 0
6 *815:10 *898:8 0
7 *895:8 *898:8 0.000128576
8 *897:10 *2404:A 0
9 *897:10 *898:8 0
*RES
1 *2403:Y *898:8 42.3278 
2 *898:8 *2404:A 41.8051 
*END

*D_NET *899 0.000500069
*CONN
*I *2405:A I *D sg13cmos5l_inv_1
*I *2404:Y O *D sg13cmos5l_inv_1
*CAP
1 *2405:A 0.000242307
2 *2404:Y 0.000242307
3 *2405:A *2407:A 0
4 *2405:A *2408:A 1.54556e-05
5 *1511:A1 *2405:A 0
6 *2322:A *2405:A 0
*RES
1 *2404:Y *2405:A 42.8119 
*END

*D_NET *900 0.000552584
*CONN
*I *2406:A I *D sg13cmos5l_inv_1
*I *2395:Y O *D sg13cmos5l_inv_1
*CAP
1 *2406:A 0
2 *2395:Y 0.000260891
3 *900:12 0.000260891
4 *900:12 *1531:S 0
5 *900:12 *2417:A 1.54008e-05
6 *900:12 *1082:63 0
7 *2395:A *900:12 1.54008e-05
8 *51:14 *900:12 0
9 *487:10 *900:12 0
10 *490:8 *900:12 0
*RES
1 *2395:Y *900:12 42.5647 
2 *900:12 *2406:A 40 
*END

*D_NET *901 0.000303841
*CONN
*I *2407:A I *D sg13cmos5l_inv_1
*I *2405:Y O *D sg13cmos5l_inv_1
*CAP
1 *2407:A 0.000136492
2 *2405:Y 0.000136492
3 *2407:A *2408:A 0
4 *2407:A *902:8 1.54008e-05
5 *1511:A1 *2407:A 1.54556e-05
6 *2405:A *2407:A 0
*RES
1 *2405:Y *2407:A 41.3802 
*END

*D_NET *902 0.00082424
*CONN
*I *2408:A I *D sg13cmos5l_inv_1
*I *1513:A2 I *D sg13cmos5l_mux4_1
*I *2407:Y O *D sg13cmos5l_inv_1
*CAP
1 *2408:A 0.000236963
2 *1513:A2 2.30588e-05
3 *2407:Y 0.00012897
4 *902:8 0.000388991
5 *1513:A2 *1513:S1 0
6 *1511:A1 *1513:A2 0
7 *1511:A1 *902:8 1.54008e-05
8 *2322:A *2408:A 0
9 *2405:A *2408:A 1.54556e-05
10 *2407:A *2408:A 0
11 *2407:A *902:8 1.54008e-05
*RES
1 *2407:Y *902:8 21.5347 
2 *902:8 *1513:A2 20.3193 
3 *902:8 *2408:A 23.0591 
*END

*D_NET *903 9.45957e-05
*CONN
*I *2409:A I *D sg13cmos5l_inv_1
*I *2408:Y O *D sg13cmos5l_inv_1
*CAP
1 *2409:A 4.72978e-05
2 *2408:Y 4.72978e-05
3 *2409:A *1513:S1 0
4 *2323:A *2409:A 0
*RES
1 *2408:Y *2409:A 40.5974 
*END

*D_NET *904 9.45957e-05
*CONN
*I *2410:A I *D sg13cmos5l_inv_1
*I *2409:Y O *D sg13cmos5l_inv_1
*CAP
1 *2410:A 4.72978e-05
2 *2409:Y 4.72978e-05
3 *2410:A *1513:S1 0
4 *2324:A *2410:A 0
*RES
1 *2409:Y *2410:A 40.5974 
*END

*D_NET *905 9.45957e-05
*CONN
*I *2411:A I *D sg13cmos5l_inv_1
*I *2410:Y O *D sg13cmos5l_inv_1
*CAP
1 *2411:A 4.72978e-05
2 *2410:Y 4.72978e-05
3 *2325:A *2411:A 0
4 *33:16 *2411:A 0
*RES
1 *2410:Y *2411:A 40.5974 
*END

*D_NET *906 9.45957e-05
*CONN
*I *2412:A I *D sg13cmos5l_inv_1
*I *2411:Y O *D sg13cmos5l_inv_1
*CAP
1 *2412:A 4.72978e-05
2 *2411:Y 4.72978e-05
3 *2326:A *2412:A 0
4 *33:16 *2412:A 0
*RES
1 *2411:Y *2412:A 40.5974 
*END

*D_NET *907 9.9762e-05
*CONN
*I *2413:A I *D sg13cmos5l_inv_1
*I *2412:Y O *D sg13cmos5l_inv_1
*CAP
1 *2413:A 4.9881e-05
2 *2412:Y 4.9881e-05
3 *2413:A *2416:A 0
4 *2413:A *2418:A 0
5 *2327:A *2413:A 0
*RES
1 *2412:Y *2413:A 40.5974 
*END

*D_NET *908 0.00012456
*CONN
*I *2414:A I *D sg13cmos5l_inv_1
*I *2413:Y O *D sg13cmos5l_inv_1
*CAP
1 *2414:A 6.22801e-05
2 *2413:Y 6.22801e-05
3 *2414:A *2416:A 0
4 *2329:A *2414:A 0
*RES
1 *2413:Y *2414:A 40.5974 
*END

*D_NET *909 0.00012456
*CONN
*I *2415:A I *D sg13cmos5l_inv_1
*I *2414:Y O *D sg13cmos5l_inv_1
*CAP
1 *2415:A 6.22801e-05
2 *2414:Y 6.22801e-05
3 *2415:A *2416:A 0
4 *2331:A *2415:A 0
*RES
1 *2414:Y *2415:A 40.5974 
*END

*D_NET *910 0.000649341
*CONN
*I *2416:A I *D sg13cmos5l_inv_1
*I *2415:Y O *D sg13cmos5l_inv_1
*CAP
1 *2416:A 0.00032467
2 *2415:Y 0.00032467
3 *2416:A *2418:A 0
4 *2416:A *2419:A 0
5 *2416:A *2420:A 0
6 *2413:A *2416:A 0
7 *2414:A *2416:A 0
8 *2415:A *2416:A 0
9 *33:16 *2416:A 0
*RES
1 *2415:Y *2416:A 43.2342 
*END

*D_NET *911 0.000252788
*CONN
*I *2417:A I *D sg13cmos5l_inv_1
*I *2406:Y O *D sg13cmos5l_inv_1
*CAP
1 *2417:A 0.000118694
2 *2406:Y 0.000118694
3 *2417:A *1082:63 0
4 *1994:A *2417:A 0
5 *51:14 *2417:A 0
6 *900:12 *2417:A 1.54008e-05
*RES
1 *2406:Y *2417:A 41.3802 
*END

*D_NET *912 0.000223342
*CONN
*I *2418:A I *D sg13cmos5l_inv_1
*I *2416:Y O *D sg13cmos5l_inv_1
*CAP
1 *2418:A 0.000111671
2 *2416:Y 0.000111671
3 *2418:A *936:12 0
4 *2413:A *2418:A 0
5 *2416:A *2418:A 0
6 *33:16 *2418:A 0
*RES
1 *2416:Y *2418:A 41.3802 
*END

*D_NET *913 9.54314e-05
*CONN
*I *2419:A I *D sg13cmos5l_inv_1
*I *2418:Y O *D sg13cmos5l_inv_1
*CAP
1 *2419:A 4.77157e-05
2 *2418:Y 4.77157e-05
3 *2419:A *2422:A 0
4 *2416:A *2419:A 0
*RES
1 *2418:Y *2419:A 40.5974 
*END

*D_NET *914 0.000376396
*CONN
*I *2420:A I *D sg13cmos5l_inv_1
*I *2419:Y O *D sg13cmos5l_inv_1
*CAP
1 *2420:A 0.000188198
2 *2419:Y 0.000188198
3 *2420:A *2421:A 0
4 *2420:A *2441:A 0
5 *2420:A *936:12 0
6 *2416:A *2420:A 0
*RES
1 *2419:Y *2420:A 42.2145 
*END

*D_NET *915 0.000255283
*CONN
*I *2421:A I *D sg13cmos5l_inv_1
*I *2420:Y O *D sg13cmos5l_inv_1
*CAP
1 *2421:A 0.000127641
2 *2420:Y 0.000127641
3 *2420:A *2421:A 0
4 *33:16 *2421:A 0
*RES
1 *2420:Y *2421:A 41.3802 
*END

*D_NET *916 0.000107826
*CONN
*I *2422:A I *D sg13cmos5l_inv_1
*I *2421:Y O *D sg13cmos5l_inv_1
*CAP
1 *2422:A 5.39128e-05
2 *2421:Y 5.39128e-05
3 *2419:A *2422:A 0
*RES
1 *2421:Y *2422:A 40.5974 
*END

*D_NET *917 0.000198731
*CONN
*I *2423:A I *D sg13cmos5l_inv_1
*I *2422:Y O *D sg13cmos5l_inv_1
*CAP
1 *2423:A 0
2 *2422:Y 9.93656e-05
3 *917:8 9.93656e-05
4 *917:8 *1513:A3 0
5 *917:8 *920:8 0
*RES
1 *2422:Y *917:8 41.0918 
2 *917:8 *2423:A 40 
*END

*D_NET *918 0.000550145
*CONN
*I *2424:A I *D sg13cmos5l_inv_1
*I *2423:Y O *D sg13cmos5l_inv_1
*CAP
1 *2424:A 2.7598e-05
2 *2423:Y 9.743e-05
3 *918:8 0.000125028
4 *2424:A *1076:148 4.35073e-05
5 *918:8 *2425:A 0.000128248
6 *918:8 *920:8 0.000128334
*RES
1 *2423:Y *918:8 41.339 
2 *918:8 *2424:A 40.291 
*END

*D_NET *919 0.000916168
*CONN
*I *2425:A I *D sg13cmos5l_inv_1
*I *1511:A3 I *D sg13cmos5l_mux4_1
*I *2424:Y O *D sg13cmos5l_inv_1
*CAP
1 *2425:A 4.16082e-05
2 *1511:A3 0.000170494
3 *2424:Y 0
4 *919:6 0.000212102
5 *1511:A3 *1513:A3 0
6 *1511:A3 *1076:154 0.00023547
7 *2425:A *1513:A3 0
8 *2425:A *1076:154 0.000128247
9 *647:12 *1511:A3 0
10 *918:8 *2425:A 0.000128248
*RES
1 *2424:Y *919:6 40 
2 *919:6 *1511:A3 42.3278 
3 *919:6 *2425:A 40.8446 
*END

*D_NET *920 0.000663582
*CONN
*I *2426:A I *D sg13cmos5l_inv_1
*I *2425:Y O *D sg13cmos5l_inv_1
*CAP
1 *2426:A 0.000146379
2 *2425:Y 0.000121245
3 *920:8 0.000267624
4 *33:16 *2426:A 0
5 *917:8 *920:8 0
6 *918:8 *920:8 0.000128334
*RES
1 *2425:Y *920:8 41.339 
2 *920:8 *2426:A 41.4008 
*END

*D_NET *921 0.000129475
*CONN
*I *2427:A I *D sg13cmos5l_inv_1
*I *2426:Y O *D sg13cmos5l_inv_1
*CAP
1 *2427:A 6.47374e-05
2 *2426:Y 6.47374e-05
*RES
1 *2426:Y *2427:A 40.5974 
*END

*D_NET *922 9.45957e-05
*CONN
*I *2428:A I *D sg13cmos5l_inv_1
*I *2417:Y O *D sg13cmos5l_inv_1
*CAP
1 *2428:A 4.72978e-05
2 *2417:Y 4.72978e-05
3 *1994:A *2428:A 0
*RES
1 *2417:Y *2428:A 40.5974 
*END

*D_NET *923 0.000129341
*CONN
*I *2429:A I *D sg13cmos5l_inv_1
*I *2427:Y O *D sg13cmos5l_inv_1
*CAP
1 *2429:A 6.46703e-05
2 *2427:Y 6.46703e-05
*RES
1 *2427:Y *2429:A 40.5974 
*END

*D_NET *924 0.000128696
*CONN
*I *2430:A I *D sg13cmos5l_inv_1
*I *2429:Y O *D sg13cmos5l_inv_1
*CAP
1 *2430:A 6.4348e-05
2 *2429:Y 6.4348e-05
*RES
1 *2429:Y *2430:A 40.5974 
*END

*D_NET *925 0.000112035
*CONN
*I *2431:A I *D sg13cmos5l_inv_1
*I *2430:Y O *D sg13cmos5l_inv_1
*CAP
1 *2431:A 5.60176e-05
2 *2430:Y 5.60176e-05
3 *2091:A *2431:A 0
*RES
1 *2430:Y *2431:A 40.5974 
*END

*D_NET *926 0.000129475
*CONN
*I *2432:A I *D sg13cmos5l_inv_1
*I *2431:Y O *D sg13cmos5l_inv_1
*CAP
1 *2432:A 6.47374e-05
2 *2431:Y 6.47374e-05
*RES
1 *2431:Y *2432:A 40.5974 
*END

*D_NET *927 0.000118419
*CONN
*I *2433:A I *D sg13cmos5l_inv_1
*I *2432:Y O *D sg13cmos5l_inv_1
*CAP
1 *2433:A 5.92095e-05
2 *2432:Y 5.92095e-05
3 *2087:A *2433:A 0
*RES
1 *2432:Y *2433:A 40.5974 
*END

*D_NET *928 0.000456723
*CONN
*I *2434:A I *D sg13cmos5l_inv_1
*I *2433:Y O *D sg13cmos5l_inv_1
*CAP
1 *2434:A 0.000209607
2 *2433:Y 0.000209607
3 *2434:A *929:14 3.75088e-05
4 *2087:A *2434:A 0
*RES
1 *2433:Y *2434:A 41.8746 
*END

*D_NET *929 0.000716807
*CONN
*I *2435:A I *D sg13cmos5l_inv_1
*I *2434:Y O *D sg13cmos5l_inv_1
*CAP
1 *2435:A 0
2 *2434:Y 0.000275665
3 *929:14 0.000275665
4 *929:14 *2436:A 0
5 *929:14 *2437:A 8.00998e-05
6 *929:14 *2585:A 4.78688e-05
7 *929:14 *935:8 0
8 *2434:A *929:14 3.75088e-05
*RES
1 *2434:Y *929:14 42.9458 
2 *929:14 *2435:A 40 
*END

*D_NET *930 0.000309912
*CONN
*I *2436:A I *D sg13cmos5l_inv_1
*I *2435:Y O *D sg13cmos5l_inv_1
*CAP
1 *2436:A 0.000147228
2 *2435:Y 0.000147228
3 *2436:A *2437:A 1.54556e-05
4 *2436:A *2438:A 0
5 *929:14 *2436:A 0
*RES
1 *2435:Y *2436:A 41.3802 
*END

*D_NET *931 0.000731002
*CONN
*I *2437:A I *D sg13cmos5l_inv_1
*I *2436:Y O *D sg13cmos5l_inv_1
*CAP
1 *2437:A 0.000317723
2 *2436:Y 0.000317723
3 *2437:A *2441:A 0
4 *2087:A *2437:A 0
5 *2436:A *2437:A 1.54556e-05
6 *929:14 *2437:A 8.00998e-05
*RES
1 *2436:Y *2437:A 43.09 
*END

*D_NET *932 0.000571618
*CONN
*I *2438:A I *D sg13cmos5l_inv_1
*I *2437:Y O *D sg13cmos5l_inv_1
*CAP
1 *2438:A 0.000285809
2 *2437:Y 0.000285809
3 *2438:A *2441:A 0
4 *2438:A *2444:A 0
5 *2438:A *2445:A 0
6 *2438:A *936:12 0
7 *2436:A *2438:A 0
*RES
1 *2437:Y *2438:A 43.2033 
*END

*D_NET *933 0.000107106
*CONN
*I *2439:A I *D sg13cmos5l_inv_1
*I *2428:Y O *D sg13cmos5l_inv_1
*CAP
1 *2439:A 0
2 *2428:Y 5.35531e-05
3 *933:8 5.35531e-05
4 *933:8 *1082:63 0
5 *86:8 *933:8 0
*RES
1 *2428:Y *933:8 40.5974 
2 *933:8 *2439:A 40 
*END

*D_NET *934 9.45957e-05
*CONN
*I *2440:A I *D sg13cmos5l_inv_1
*I *2438:Y O *D sg13cmos5l_inv_1
*CAP
1 *2440:A 4.72978e-05
2 *2438:Y 4.72978e-05
3 *2440:A *2585:A 0
*RES
1 *2438:Y *2440:A 40.5974 
*END

*D_NET *935 0.000847675
*CONN
*I *2441:A I *D sg13cmos5l_inv_1
*I *2440:Y O *D sg13cmos5l_inv_1
*CAP
1 *2441:A 0.000155161
2 *2440:Y 0.000268676
3 *935:8 0.000423837
4 *2441:A *936:12 0
5 *935:8 *937:10 0
6 *935:8 *940:8 0
7 *2420:A *2441:A 0
8 *2437:A *2441:A 0
9 *2438:A *2441:A 0
10 *929:14 *935:8 0
*RES
1 *2440:Y *935:8 43.0694 
2 *935:8 *2441:A 41.6171 
*END

*D_NET *936 0.00156889
*CONN
*I *2442:A I *D sg13cmos5l_inv_1
*I *2441:Y O *D sg13cmos5l_inv_1
*CAP
1 *2442:A 0
2 *2441:Y 0.000521517
3 *936:12 0.000521517
4 *936:12 *2443:A 4.77425e-05
5 *936:12 *2447:A 0
6 *936:12 *937:10 0
7 *936:12 *941:8 0
8 *1561:A *936:12 0.000319109
9 *2334:A *936:12 1.54008e-05
10 *2335:A *936:12 0.000143605
11 *2336:A *936:12 0
12 *2418:A *936:12 0
13 *2420:A *936:12 0
14 *2438:A *936:12 0
15 *2441:A *936:12 0
*RES
1 *2441:Y *936:12 45.7783 
2 *936:12 *2442:A 40 
*END

*D_NET *937 0.00261604
*CONN
*I *2443:A I *D sg13cmos5l_inv_1
*I *1513:A3 I *D sg13cmos5l_mux4_1
*I *2442:Y O *D sg13cmos5l_inv_1
*CAP
1 *2443:A 2.75384e-05
2 *1513:A3 0.000576044
3 *2442:Y 0.000220916
4 *937:10 0.000824498
5 *1513:A3 *940:8 0.000128247
6 *1513:A3 *941:8 0.000181694
7 *1513:A3 *1076:154 0
8 *937:10 *2447:A 0
9 *937:10 *940:8 0.0003738
10 *937:10 *941:8 0.000235556
11 *1511:A3 *1513:A3 0
12 *2425:A *1513:A3 0
13 *830:12 *1513:A3 0
14 *917:8 *1513:A3 0
15 *935:8 *937:10 0
16 *936:12 *2443:A 4.77425e-05
17 *936:12 *937:10 0
*RES
1 *2442:Y *937:10 43.2651 
2 *937:10 *1513:A3 47.3439 
3 *937:10 *2443:A 40.3193 
*END

*D_NET *938 9.45957e-05
*CONN
*I *2444:A I *D sg13cmos5l_inv_1
*I *2443:Y O *D sg13cmos5l_inv_1
*CAP
1 *2444:A 4.72978e-05
2 *2443:Y 4.72978e-05
3 *2438:A *2444:A 0
*RES
1 *2443:Y *2444:A 40.5974 
*END

*D_NET *939 9.45957e-05
*CONN
*I *2445:A I *D sg13cmos5l_inv_1
*I *2444:Y O *D sg13cmos5l_inv_1
*CAP
1 *2445:A 4.72978e-05
2 *2444:Y 4.72978e-05
3 *2445:A *2448:A 0
4 *2438:A *2445:A 0
*RES
1 *2444:Y *2445:A 40.5974 
*END

*D_NET *940 0.000821505
*CONN
*I *2446:A I *D sg13cmos5l_inv_1
*I *2445:Y O *D sg13cmos5l_inv_1
*CAP
1 *2446:A 0
2 *2445:Y 0.000159729
3 *940:8 0.000159729
4 *1513:A3 *940:8 0.000128247
5 *935:8 *940:8 0
6 *937:10 *940:8 0.0003738
*RES
1 *2445:Y *940:8 42.3278 
2 *940:8 *2446:A 40 
*END

*D_NET *941 0.000967087
*CONN
*I *2447:A I *D sg13cmos5l_inv_1
*I *2446:Y O *D sg13cmos5l_inv_1
*CAP
1 *2447:A 0.000152012
2 *2446:Y 0.000122907
3 *941:8 0.000274918
4 *1513:A3 *941:8 0.000181694
5 *2336:A *941:8 0
6 *830:12 *941:8 0
7 *936:12 *2447:A 0
8 *936:12 *941:8 0
9 *937:10 *2447:A 0
10 *937:10 *941:8 0.000235556
*RES
1 *2446:Y *941:8 41.8334 
2 *941:8 *2447:A 41.4008 
*END

*D_NET *942 0.000387844
*CONN
*I *2448:A I *D sg13cmos5l_inv_1
*I *2447:Y O *D sg13cmos5l_inv_1
*CAP
1 *2448:A 0.000193922
2 *2447:Y 0.000193922
3 *2448:A *2586:A 0
4 *2336:A *2448:A 0
5 *2445:A *2448:A 0
*RES
1 *2447:Y *2448:A 42.2145 
*END

*D_NET *943 0.000276924
*CONN
*I *2449:A I *D sg13cmos5l_inv_1
*I *2448:Y O *D sg13cmos5l_inv_1
*CAP
1 *2449:A 0.000138462
2 *2448:Y 0.000138462
3 *831:10 *2449:A 0
*RES
1 *2448:Y *2449:A 41.4008 
*END

*D_NET *944 9.77466e-05
*CONN
*I *2450:A I *D sg13cmos5l_inv_1
*I *2439:Y O *D sg13cmos5l_inv_1
*CAP
1 *2450:A 4.88733e-05
2 *2439:Y 4.88733e-05
3 *2004:A *2450:A 0
*RES
1 *2439:Y *2450:A 40.5974 
*END

*D_NET *945 0.000272104
*CONN
*I *2451:A I *D sg13cmos5l_inv_1
*I *2449:Y O *D sg13cmos5l_inv_1
*CAP
1 *2451:A 0.000136052
2 *2449:Y 0.000136052
3 *2451:A *2452:A 0
*RES
1 *2449:Y *2451:A 41.3802 
*END

*D_NET *946 0.000772264
*CONN
*I *2452:A I *D sg13cmos5l_inv_1
*I *2451:Y O *D sg13cmos5l_inv_1
*CAP
1 *2452:A 0.000215381
2 *2451:Y 0.000215381
3 *2452:A *2454:A 0.000341502
4 *2341:A *2452:A 0
5 *2451:A *2452:A 0
*RES
1 *2451:Y *2452:A 42.8737 
*END

*D_NET *947 0.000408305
*CONN
*I *2453:A I *D sg13cmos5l_inv_1
*I *2452:Y O *D sg13cmos5l_inv_1
*CAP
1 *2453:A 0
2 *2452:Y 0.000204153
3 *947:8 0.000204153
4 *947:8 *953:25 0
*RES
1 *2452:Y *947:8 42.3278 
2 *947:8 *2453:A 40 
*END

*D_NET *948 0.00113965
*CONN
*I *2454:A I *D sg13cmos5l_inv_1
*I *2453:Y O *D sg13cmos5l_inv_1
*CAP
1 *2454:A 0.000399074
2 *2453:Y 0.000399074
3 *2454:A *2587:A 0
4 *2341:A *2454:A 0
5 *2452:A *2454:A 0.000341502
*RES
1 *2453:Y *2454:A 44.2951 
*END

*D_NET *949 0.0013857
*CONN
*I *2455:A I *D sg13cmos5l_inv_1
*I *2454:Y O *D sg13cmos5l_inv_1
*CAP
1 *2455:A 0.000156033
2 *2454:Y 0.000536818
3 *949:8 0.000692852
4 *949:8 *953:25 0
5 *2330:A *2455:A 0
6 *2343:A *2455:A 0
7 *2344:A *2455:A 0
8 *2353:A *2455:A 0
9 *825:8 *949:8 0
10 *831:10 *949:8 0
11 *834:8 *949:8 0
*RES
1 *2454:Y *949:8 45.047 
2 *949:8 *2455:A 41.6171 
*END

*D_NET *950 9.45957e-05
*CONN
*I *2456:A I *D sg13cmos5l_inv_1
*I *2455:Y O *D sg13cmos5l_inv_1
*CAP
1 *2456:A 4.72978e-05
2 *2455:Y 4.72978e-05
3 *2325:A *2456:A 0
4 *2326:A *2456:A 0
5 *2348:A *2456:A 0
6 *2349:A *2456:A 0
*RES
1 *2455:Y *2456:A 40.5974 
*END

*D_NET *951 9.45957e-05
*CONN
*I *2457:A I *D sg13cmos5l_inv_1
*I *2456:Y O *D sg13cmos5l_inv_1
*CAP
1 *2457:A 4.72978e-05
2 *2456:Y 4.72978e-05
3 *2324:A *2457:A 0
4 *2325:A *2457:A 0
5 *2349:A *2457:A 0
*RES
1 *2456:Y *2457:A 40.5974 
*END

*D_NET *952 9.45957e-05
*CONN
*I *2458:A I *D sg13cmos5l_inv_1
*I *2457:Y O *D sg13cmos5l_inv_1
*CAP
1 *2458:A 4.72978e-05
2 *2457:Y 4.72978e-05
3 *2323:A *2458:A 0
4 *2324:A *2458:A 0
*RES
1 *2457:Y *2458:A 40.5974 
*END

*D_NET *953 0.00456243
*CONN
*I *1562:A I *D sg13cmos5l_buf_1
*I *2459:A I *D sg13cmos5l_inv_1
*I *2458:Y O *D sg13cmos5l_inv_1
*CAP
1 *1562:A 0
2 *2459:A 0.000778944
3 *2458:Y 0.000150829
4 *953:25 0.000983097
5 *953:8 0.00191287
6 *2459:A *2467:A 0
7 osc_tap[7] *953:25 0
8 *1511:A1 *953:8 0
9 *2352:A *953:8 0
10 *2353:A *953:8 0
11 *2363:A *2459:A 0
12 *846:8 *2459:A 0.00012816
13 *846:8 *953:25 0
14 *847:8 *2459:A 0
15 *855:8 *2459:A 0
16 *857:8 *2459:A 0.000608526
17 *859:12 *2459:A 0
18 *893:12 *2459:A 0
19 *894:8 *2459:A 0
20 *897:10 *2459:A 0
21 *947:8 *953:25 0
22 *949:8 *953:25 0
*RES
1 *2458:Y *953:8 41.1845 
2 *953:8 *2459:A 49.5378 
3 *953:8 *953:25 30.0631 
4 *953:25 *1562:A 20 
*END

*D_NET *954 0.00390662
*CONN
*I *2460:A I *D sg13cmos5l_inv_1
*I *1518:A0 I *D sg13cmos5l_mux4_1
*I *2459:Y O *D sg13cmos5l_inv_1
*CAP
1 *2460:A 0
2 *1518:A0 0
3 *2459:Y 0.000519207
4 *954:24 0.000809826
5 *954:14 0.000809826
6 *954:12 0.000519207
7 *954:12 *2465:A 0
8 *954:12 *2466:A 0
9 *954:12 *2467:A 0
10 *954:24 *1523:S1 0
11 *954:24 *2476:A 0
12 *954:24 *2477:A 0
13 *954:24 *2479:A 0.00023547
14 *954:24 *973:10 0.00101309
15 *954:24 *1081:119 0
16 *2366:A *954:12 0
17 *2367:A *954:12 0
18 *38:8 *954:24 0
19 *803:8 *954:24 0
20 *859:12 *954:12 0
*RES
1 *2459:Y *954:12 45.1983 
2 *954:12 *954:14 20 
3 *954:14 *954:24 30.7326 
4 *954:24 *1518:A0 40 
5 *954:14 *2460:A 20 
*END

*D_NET *955 0.000105655
*CONN
*I *2461:A I *D sg13cmos5l_inv_1
*I *2450:Y O *D sg13cmos5l_inv_1
*CAP
1 *2461:A 5.28273e-05
2 *2450:Y 5.28273e-05
3 *2004:A *2461:A 0
*RES
1 *2450:Y *2461:A 40.5974 
*END

*D_NET *956 9.45957e-05
*CONN
*I *2462:A I *D sg13cmos5l_inv_1
*I *2351:Y O *D sg13cmos5l_inv_1
*CAP
1 *2462:A 4.72978e-05
2 *2351:Y 4.72978e-05
*RES
1 *2351:Y *2462:A 40.5974 
*END

*D_NET *957 9.45957e-05
*CONN
*I *2463:A I *D sg13cmos5l_inv_1
*I *2460:Y O *D sg13cmos5l_inv_1
*CAP
1 *2463:A 4.72978e-05
2 *2460:Y 4.72978e-05
3 *2463:A *2466:A 0
4 *2315:A *2463:A 0
5 *2316:A *2463:A 0
*RES
1 *2460:Y *2463:A 40.5974 
*END

*D_NET *958 0.00012456
*CONN
*I *2464:A I *D sg13cmos5l_inv_1
*I *2463:Y O *D sg13cmos5l_inv_1
*CAP
1 *2464:A 6.22801e-05
2 *2463:Y 6.22801e-05
3 *2464:A *2465:A 0
4 *2316:A *2464:A 0
5 *2318:A *2464:A 0
*RES
1 *2463:Y *2464:A 40.5974 
*END

*D_NET *959 0.000424879
*CONN
*I *2465:A I *D sg13cmos5l_inv_1
*I *2464:Y O *D sg13cmos5l_inv_1
*CAP
1 *2465:A 0.000212439
2 *2464:Y 0.000212439
3 *2465:A *2466:A 0
4 *2465:A *2467:A 0
5 *2465:A *2476:A 0
6 *2464:A *2465:A 0
7 *954:12 *2465:A 0
*RES
1 *2464:Y *2465:A 42.2454 
*END

*D_NET *960 0.000292507
*CONN
*I *2466:A I *D sg13cmos5l_inv_1
*I *2465:Y O *D sg13cmos5l_inv_1
*CAP
1 *2466:A 0.000108555
2 *2465:Y 0.000108555
3 *2466:A *2467:A 7.53965e-05
4 *2466:A *2468:A 0
5 *2463:A *2466:A 0
6 *2465:A *2466:A 0
7 *954:12 *2466:A 0
*RES
1 *2465:Y *2466:A 41.3802 
*END

*D_NET *961 0.000459107
*CONN
*I *2467:A I *D sg13cmos5l_inv_1
*I *2466:Y O *D sg13cmos5l_inv_1
*CAP
1 *2467:A 0.000191855
2 *2466:Y 0.000191855
3 *2467:A *2468:A 0
4 *2459:A *2467:A 0
5 *2465:A *2467:A 0
6 *2466:A *2467:A 7.53965e-05
7 *954:12 *2467:A 0
*RES
1 *2466:Y *2467:A 42.2145 
*END

*D_NET *962 0.000232099
*CONN
*I *2468:A I *D sg13cmos5l_inv_1
*I *2467:Y O *D sg13cmos5l_inv_1
*CAP
1 *2468:A 0.00011605
2 *2467:Y 0.00011605
3 *2364:A *2468:A 0
4 *2466:A *2468:A 0
5 *2467:A *2468:A 0
*RES
1 *2467:Y *2468:A 41.3802 
*END

*D_NET *963 0.000277413
*CONN
*I *2469:A I *D sg13cmos5l_inv_1
*I *2468:Y O *D sg13cmos5l_inv_1
*CAP
1 *2469:A 0
2 *2468:Y 0.000138707
3 *963:8 0.000138707
*RES
1 *2468:Y *963:8 41.5862 
2 *963:8 *2469:A 40 
*END

*D_NET *964 0.000212025
*CONN
*I *2470:A I *D sg13cmos5l_inv_1
*I *2469:Y O *D sg13cmos5l_inv_1
*CAP
1 *2470:A 0.000106012
2 *2469:Y 0.000106012
*RES
1 *2469:Y *2470:A 41.339 
*END

*D_NET *965 0.000221432
*CONN
*I *2471:A I *D sg13cmos5l_inv_1
*I *2470:Y O *D sg13cmos5l_inv_1
*CAP
1 *2471:A 0
2 *2470:Y 0.000110716
3 *965:8 0.000110716
*RES
1 *2470:Y *965:8 41.339 
2 *965:8 *2471:A 40 
*END

*D_NET *966 0.000230546
*CONN
*I *2472:A I *D sg13cmos5l_inv_1
*I *2471:Y O *D sg13cmos5l_inv_1
*CAP
1 *2472:A 0.000115273
2 *2471:Y 0.000115273
3 *2472:A *2474:A 0
*RES
1 *2471:Y *2472:A 41.3802 
*END

*D_NET *967 9.45957e-05
*CONN
*I *2473:A I *D sg13cmos5l_inv_1
*I *2461:Y O *D sg13cmos5l_inv_1
*CAP
1 *2473:A 4.72978e-05
2 *2461:Y 4.72978e-05
3 *2005:A *2473:A 0
*RES
1 *2461:Y *2473:A 40.5974 
*END

*D_NET *968 0.000459459
*CONN
*I *2474:A I *D sg13cmos5l_inv_1
*I *2472:Y O *D sg13cmos5l_inv_1
*CAP
1 *2474:A 0.000222002
2 *2472:Y 0.000222002
3 *2474:A *2475:A 1.54556e-05
4 *2474:A *2476:A 0
5 *2474:A *2478:A 0
6 *2474:A *2508:A 0
7 *2472:A *2474:A 0
*RES
1 *2472:Y *2474:A 42.5647 
*END

*D_NET *969 0.000304088
*CONN
*I *2475:A I *D sg13cmos5l_inv_1
*I *2474:Y O *D sg13cmos5l_inv_1
*CAP
1 *2475:A 0.000144316
2 *2474:Y 0.000144316
3 *2475:A *2476:A 0
4 *2475:A *2478:A 0
5 *2475:A *2509:A 0
6 *2474:A *2475:A 1.54556e-05
*RES
1 *2474:Y *2475:A 41.8025 
*END

*D_NET *970 0.000480862
*CONN
*I *2476:A I *D sg13cmos5l_inv_1
*I *2475:Y O *D sg13cmos5l_inv_1
*CAP
1 *2476:A 0.000240431
2 *2475:Y 0.000240431
3 *2476:A *2477:A 0
4 *2476:A *2478:A 0
5 *2465:A *2476:A 0
6 *2474:A *2476:A 0
7 *2475:A *2476:A 0
8 *954:24 *2476:A 0
*RES
1 *2475:Y *2476:A 42.6677 
*END

*D_NET *971 0.000225597
*CONN
*I *2477:A I *D sg13cmos5l_inv_1
*I *2476:Y O *D sg13cmos5l_inv_1
*CAP
1 *2477:A 0.000112799
2 *2476:Y 0.000112799
3 *2313:A *2477:A 0
4 *2314:A *2477:A 0
5 *2476:A *2477:A 0
6 *954:24 *2477:A 0
*RES
1 *2476:Y *2477:A 41.3802 
*END

*D_NET *972 9.47398e-05
*CONN
*I *2478:A I *D sg13cmos5l_inv_1
*I *2477:Y O *D sg13cmos5l_inv_1
*CAP
1 *2478:A 4.73699e-05
2 *2477:Y 4.73699e-05
3 *2312:A *2478:A 0
4 *2313:A *2478:A 0
5 *2474:A *2478:A 0
6 *2475:A *2478:A 0
7 *2476:A *2478:A 0
*RES
1 *2477:Y *2478:A 40.5974 
*END

*D_NET *973 0.00305047
*CONN
*I *1518:A1 I *D sg13cmos5l_mux4_1
*I *2479:A I *D sg13cmos5l_inv_1
*I *2478:Y O *D sg13cmos5l_inv_1
*CAP
1 *1518:A1 2.8587e-05
2 *2479:A 0.000325485
3 *2478:Y 0.000405487
4 *973:10 0.000759559
5 *1518:A1 *1518:S0 0
6 *1518:A1 *1518:A2 4.77425e-05
7 *2479:A *1518:S0 0.000235055
8 *2479:A *1518:A2 0
9 *2479:A *1523:S1 0
10 *2479:A *2496:A 0
11 *973:10 *1005:8 0
12 *2259:A *2479:A 0
13 *954:24 *2479:A 0.00023547
14 *954:24 *973:10 0.00101309
*RES
1 *2478:Y *973:10 45.9843 
2 *973:10 *2479:A 44.1612 
3 *973:10 *1518:A1 40.3193 
*END

*D_NET *974 0.000100738
*CONN
*I *2480:A I *D sg13cmos5l_inv_1
*I *2479:Y O *D sg13cmos5l_inv_1
*CAP
1 *2480:A 5.03692e-05
2 *2479:Y 5.03692e-05
3 *2480:A *2494:A 0
4 *2307:A *2480:A 0
*RES
1 *2479:Y *2480:A 40.5974 
*END

*D_NET *975 9.45957e-05
*CONN
*I *2481:A I *D sg13cmos5l_inv_1
*I *2480:Y O *D sg13cmos5l_inv_1
*CAP
1 *2481:A 4.72978e-05
2 *2480:Y 4.72978e-05
3 *2305:A *2481:A 0
*RES
1 *2480:Y *2481:A 40.5974 
*END

*D_NET *976 0.000134617
*CONN
*I *2482:A I *D sg13cmos5l_inv_1
*I *2481:Y O *D sg13cmos5l_inv_1
*CAP
1 *2482:A 0
2 *2481:Y 6.73087e-05
3 *976:8 6.73087e-05
4 *976:8 *1523:S0 0
5 *2254:A *976:8 0
*RES
1 *2481:Y *976:8 40.5974 
2 *976:8 *2482:A 40 
*END

*D_NET *977 0.000112161
*CONN
*I *2483:A I *D sg13cmos5l_inv_1
*I *2482:Y O *D sg13cmos5l_inv_1
*CAP
1 *2483:A 5.60806e-05
2 *2482:Y 5.60806e-05
3 *2483:A *2485:A 0
4 *2483:A *2486:A 0
5 *2303:A *2483:A 0
6 *2304:A *2483:A 0
*RES
1 *2482:Y *2483:A 40.5974 
*END

*D_NET *978 0.000408642
*CONN
*I *2484:A I *D sg13cmos5l_inv_1
*I *2473:Y O *D sg13cmos5l_inv_1
*CAP
1 *2484:A 0.000196621
2 *2473:Y 0.000196621
3 *2484:A *2506:A 1.54008e-05
*RES
1 *2473:Y *2484:A 41.9673 
*END

*D_NET *979 0.000407483
*CONN
*I *2485:A I *D sg13cmos5l_inv_1
*I *2483:Y O *D sg13cmos5l_inv_1
*CAP
1 *2485:A 0.000203742
2 *2483:Y 0.000203742
3 *2485:A *2486:A 0
4 *2259:A *2485:A 0
5 *2260:A *2485:A 0
6 *2483:A *2485:A 0
*RES
1 *2483:Y *2485:A 41.9982 
*END

*D_NET *980 0.000286735
*CONN
*I *2486:A I *D sg13cmos5l_inv_1
*I *2485:Y O *D sg13cmos5l_inv_1
*CAP
1 *2486:A 0.000105669
2 *2485:Y 0.000105669
3 *2486:A *2487:A 7.53965e-05
4 *2486:A *2488:A 0
5 *2260:A *2486:A 0
6 *2296:A *2486:A 0
7 *2483:A *2486:A 0
8 *2485:A *2486:A 0
*RES
1 *2485:Y *2486:A 41.3802 
*END

*D_NET *981 0.000452171
*CONN
*I *2487:A I *D sg13cmos5l_inv_1
*I *2486:Y O *D sg13cmos5l_inv_1
*CAP
1 *2487:A 0.000188387
2 *2486:Y 0.000188387
3 *2487:A *2488:A 0
4 *2487:A *2489:A 0
5 *2296:A *2487:A 0
6 *2486:A *2487:A 7.53965e-05
*RES
1 *2486:Y *2487:A 42.2145 
*END

*D_NET *982 0.000281081
*CONN
*I *2488:A I *D sg13cmos5l_inv_1
*I *2487:Y O *D sg13cmos5l_inv_1
*CAP
1 *2488:A 0.000132813
2 *2487:Y 0.000132813
3 *2488:A *2489:A 1.54556e-05
4 *2486:A *2488:A 0
5 *2487:A *2488:A 0
*RES
1 *2487:Y *2488:A 41.3802 
*END

*D_NET *983 0.000624657
*CONN
*I *2489:A I *D sg13cmos5l_inv_1
*I *2488:Y O *D sg13cmos5l_inv_1
*CAP
1 *2489:A 0.000304601
2 *2488:Y 0.000304601
3 *2487:A *2489:A 0
4 *2488:A *2489:A 1.54556e-05
*RES
1 *2488:Y *2489:A 43.09 
*END

*D_NET *984 9.45957e-05
*CONN
*I *2490:A I *D sg13cmos5l_inv_1
*I *2489:Y O *D sg13cmos5l_inv_1
*CAP
1 *2490:A 4.72978e-05
2 *2489:Y 4.72978e-05
*RES
1 *2489:Y *2490:A 40.5974 
*END

*D_NET *985 9.45957e-05
*CONN
*I *2491:A I *D sg13cmos5l_inv_1
*I *2490:Y O *D sg13cmos5l_inv_1
*CAP
1 *2491:A 4.72978e-05
2 *2490:Y 4.72978e-05
*RES
1 *2490:Y *2491:A 40.5974 
*END

*D_NET *986 9.45957e-05
*CONN
*I *2492:A I *D sg13cmos5l_inv_1
*I *2491:Y O *D sg13cmos5l_inv_1
*CAP
1 *2492:A 4.72978e-05
2 *2491:Y 4.72978e-05
3 *2492:A *2493:A 0
*RES
1 *2491:Y *2492:A 40.5974 
*END

*D_NET *987 0.000394501
*CONN
*I *2493:A I *D sg13cmos5l_inv_1
*I *2492:Y O *D sg13cmos5l_inv_1
*CAP
1 *2493:A 0.000178463
2 *2492:Y 0.000178463
3 *2493:A *2494:A 3.75762e-05
4 *2493:A *2500:A 0
5 *2254:A *2493:A 0
6 *2492:A *2493:A 0
*RES
1 *2492:Y *2493:A 41.9673 
*END

*D_NET *988 0.000324301
*CONN
*I *2494:A I *D sg13cmos5l_inv_1
*I *2493:Y O *D sg13cmos5l_inv_1
*CAP
1 *2494:A 0.000143362
2 *2493:Y 0.000143362
3 *2494:A *2496:A 0
4 *2494:A *2499:A 0
5 *2254:A *2494:A 0
6 *2480:A *2494:A 0
7 *2493:A *2494:A 3.75762e-05
*RES
1 *2493:Y *2494:A 41.9055 
*END

*D_NET *989 0.000147059
*CONN
*I *2495:A I *D sg13cmos5l_inv_1
*I *2484:Y O *D sg13cmos5l_inv_1
*CAP
1 *2495:A 7.35293e-05
2 *2484:Y 7.35293e-05
*RES
1 *2484:Y *2495:A 40.5974 
*END

*D_NET *990 0.000321949
*CONN
*I *2496:A I *D sg13cmos5l_inv_1
*I *2494:Y O *D sg13cmos5l_inv_1
*CAP
1 *2496:A 0.000160974
2 *2494:Y 0.000160974
3 *2496:A *1518:A2 0
4 *2496:A *2499:A 0
5 *2254:A *2496:A 0
6 *2479:A *2496:A 0
7 *2494:A *2496:A 0
8 *751:8 *2496:A 0
*RES
1 *2494:Y *2496:A 41.751 
*END

*D_NET *991 0.000747315
*CONN
*I *2497:A I *D sg13cmos5l_inv_1
*I *1518:A2 I *D sg13cmos5l_mux4_1
*I *2496:Y O *D sg13cmos5l_inv_1
*CAP
1 *2497:A 0
2 *1518:A2 0.00030364
3 *2496:Y 4.61469e-05
4 *991:6 0.000349786
5 *991:6 *2500:A 0
6 *1518:A1 *1518:A2 4.77425e-05
7 *2479:A *1518:A2 0
8 *2496:A *1518:A2 0
9 *751:8 *1518:A2 0
*RES
1 *2496:Y *991:6 20.5974 
2 *991:6 *1518:A2 22.9973 
3 *991:6 *2497:A 20 
*END

*D_NET *992 0.000132756
*CONN
*I *2498:A I *D sg13cmos5l_inv_1
*I *2497:Y O *D sg13cmos5l_inv_1
*CAP
1 *2498:A 6.63782e-05
2 *2497:Y 6.63782e-05
3 *2498:A *2499:A 0
4 *2498:A *2500:A 0
*RES
1 *2497:Y *2498:A 40.5974 
*END

*D_NET *993 0.000400371
*CONN
*I *2499:A I *D sg13cmos5l_inv_1
*I *2498:Y O *D sg13cmos5l_inv_1
*CAP
1 *2499:A 0.000200186
2 *2498:Y 0.000200186
3 *2256:A *2499:A 0
4 *2494:A *2499:A 0
5 *2496:A *2499:A 0
6 *2498:A *2499:A 0
7 *751:8 *2499:A 0
*RES
1 *2498:Y *2499:A 41.9982 
*END

*D_NET *994 0.000354449
*CONN
*I *2500:A I *D sg13cmos5l_inv_1
*I *2499:Y O *D sg13cmos5l_inv_1
*CAP
1 *2500:A 0.000177224
2 *2499:Y 0.000177224
3 *2493:A *2500:A 0
4 *2498:A *2500:A 0
5 *991:6 *2500:A 0
*RES
1 *2499:Y *2500:A 41.9673 
*END

*D_NET *995 9.45957e-05
*CONN
*I *2501:A I *D sg13cmos5l_inv_1
*I *2500:Y O *D sg13cmos5l_inv_1
*CAP
1 *2501:A 4.72978e-05
2 *2500:Y 4.72978e-05
*RES
1 *2500:Y *2501:A 40.5974 
*END

*D_NET *996 0.000256197
*CONN
*I *2502:A I *D sg13cmos5l_inv_1
*I *2501:Y O *D sg13cmos5l_inv_1
*CAP
1 *2502:A 0
2 *2501:Y 0.000128098
3 *996:8 0.000128098
4 *749:8 *996:8 0
5 *750:8 *996:8 0
*RES
1 *2501:Y *996:8 41.5862 
2 *996:8 *2502:A 40 
*END

*D_NET *997 9.45957e-05
*CONN
*I *2503:A I *D sg13cmos5l_inv_1
*I *2502:Y O *D sg13cmos5l_inv_1
*CAP
1 *2503:A 4.72978e-05
2 *2502:Y 4.72978e-05
*RES
1 *2502:Y *2503:A 40.5974 
*END

*D_NET *998 9.45957e-05
*CONN
*I *2504:A I *D sg13cmos5l_inv_1
*I *2503:Y O *D sg13cmos5l_inv_1
*CAP
1 *2504:A 4.72978e-05
2 *2503:Y 4.72978e-05
*RES
1 *2503:Y *2504:A 40.5974 
*END

*D_NET *999 9.45957e-05
*CONN
*I *2505:A I *D sg13cmos5l_inv_1
*I *2504:Y O *D sg13cmos5l_inv_1
*CAP
1 *2505:A 4.72978e-05
2 *2504:Y 4.72978e-05
*RES
1 *2504:Y *2505:A 40.5974 
*END

*D_NET *1000 0.000521704
*CONN
*I *2506:A I *D sg13cmos5l_inv_1
*I *2495:Y O *D sg13cmos5l_inv_1
*CAP
1 *2506:A 0.000245451
2 *2495:Y 0.000245451
3 *2506:A *2517:A 1.54008e-05
4 *1588:A *2506:A 0
5 *2484:A *2506:A 1.54008e-05
*RES
1 *2495:Y *2506:A 42.1218 
*END

*D_NET *1001 9.45957e-05
*CONN
*I *2507:A I *D sg13cmos5l_inv_1
*I *2505:Y O *D sg13cmos5l_inv_1
*CAP
1 *2507:A 4.72978e-05
2 *2505:Y 4.72978e-05
3 *2507:A *2509:A 0
*RES
1 *2505:Y *2507:A 40.5974 
*END

*D_NET *1002 0.00039169
*CONN
*I *2508:A I *D sg13cmos5l_inv_1
*I *2507:Y O *D sg13cmos5l_inv_1
*CAP
1 *2508:A 0.000177029
2 *2507:Y 0.000177029
3 *2508:A *2509:A 3.7631e-05
4 *2474:A *2508:A 0
*RES
1 *2507:Y *2508:A 41.9673 
*END

*D_NET *1003 0.000355473
*CONN
*I *2509:A I *D sg13cmos5l_inv_1
*I *2508:Y O *D sg13cmos5l_inv_1
*CAP
1 *2509:A 0.000140106
2 *2508:Y 0.000140106
3 *2509:A *2510:A 3.7631e-05
4 *2256:A *2509:A 0
5 *2475:A *2509:A 0
6 *2507:A *2509:A 0
7 *2508:A *2509:A 3.7631e-05
*RES
1 *2508:Y *2509:A 41.9055 
*END

*D_NET *1004 0.00035138
*CONN
*I *2510:A I *D sg13cmos5l_inv_1
*I *2509:Y O *D sg13cmos5l_inv_1
*CAP
1 *2510:A 0.000156874
2 *2509:Y 0.000156874
3 *2510:A *2512:A 0
4 *2509:A *2510:A 3.7631e-05
5 *751:8 *2510:A 0
*RES
1 *2509:Y *2510:A 41.751 
*END

*D_NET *1005 0.000222397
*CONN
*I *2511:A I *D sg13cmos5l_inv_1
*I *2510:Y O *D sg13cmos5l_inv_1
*CAP
1 *2511:A 0
2 *2510:Y 0.000111198
3 *1005:8 0.000111198
4 *973:10 *1005:8 0
*RES
1 *2510:Y *1005:8 41.339 
2 *1005:8 *2511:A 40 
*END

*D_NET *1006 0.000227882
*CONN
*I *2512:A I *D sg13cmos5l_inv_1
*I *2511:Y O *D sg13cmos5l_inv_1
*CAP
1 *2512:A 0.000113941
2 *2511:Y 0.000113941
3 *2512:A *2513:A 0
4 *2510:A *2512:A 0
5 *751:8 *2512:A 0
*RES
1 *2511:Y *2512:A 41.3802 
*END

*D_NET *1007 0.000974484
*CONN
*I *2513:A I *D sg13cmos5l_inv_1
*I *2512:Y O *D sg13cmos5l_inv_1
*CAP
1 *2513:A 0.000382424
2 *2512:Y 0.000382424
3 *2513:A *1518:A3 0.000209637
4 *2513:A *1518:S1 0
5 *2513:A *1080:66 0
6 *2512:A *2513:A 0
7 *751:8 *2513:A 0
*RES
1 *2512:Y *2513:A 43.9339 
*END

*D_NET *1008 0.00172254
*CONN
*I *1518:A3 I *D sg13cmos5l_mux4_1
*I *2514:A I *D sg13cmos5l_inv_1
*I *2513:Y O *D sg13cmos5l_inv_1
*CAP
1 *1518:A3 0.000130662
2 *2514:A 0
3 *2513:Y 0
4 *1008:12 0.000625789
5 *1008:4 0.00075645
6 *1008:12 *1523:S1 0
7 *1008:12 *1081:119 0
8 *2257:A *1008:12 0
9 *2302:A *1008:12 0
10 *2513:A *1518:A3 0.000209637
11 *751:8 *1518:A3 0
12 *803:8 *1008:12 0
*RES
1 *2513:Y *1008:4 20 
2 *1008:4 *1008:12 45.8298 
3 *1008:12 *2514:A 20 
4 *1008:4 *1518:A3 21.4008 
*END

*D_NET *1009 9.45957e-05
*CONN
*I *2515:A I *D sg13cmos5l_inv_1
*I *2514:Y O *D sg13cmos5l_inv_1
*CAP
1 *2515:A 4.72978e-05
2 *2514:Y 4.72978e-05
3 *2233:A *2515:A 0
4 *2304:A *2515:A 0
*RES
1 *2514:Y *2515:A 40.5974 
*END

*D_NET *1010 9.45957e-05
*CONN
*I *2516:A I *D sg13cmos5l_inv_1
*I *2515:Y O *D sg13cmos5l_inv_1
*CAP
1 *2516:A 4.72978e-05
2 *2515:Y 4.72978e-05
3 *2234:A *2516:A 0
4 *2303:A *2516:A 0
5 *2304:A *2516:A 0
*RES
1 *2515:Y *2516:A 40.5974 
*END

*D_NET *1011 0.00069195
*CONN
*I *2517:A I *D sg13cmos5l_inv_1
*I *2506:Y O *D sg13cmos5l_inv_1
*CAP
1 *2517:A 0.000338275
2 *2506:Y 0.000338275
3 *2517:A *2550:A 0
4 *2517:A *2561:A 0
5 *2517:A *2589:A 0
6 osc_tap[0] *2517:A 0
7 *1588:A *2517:A 0
8 *1589:A *2517:A 0
9 *2506:A *2517:A 1.54008e-05
*RES
1 *2506:Y *2517:A 42.8769 
*END

*D_NET *1012 0.000562045
*CONN
*I *2518:A I *D sg13cmos5l_inv_1
*I *2516:Y O *D sg13cmos5l_inv_1
*CAP
1 *2518:A 0.000273322
2 *2516:Y 0.000273322
3 *2518:A *2519:A 1.54008e-05
4 *1525:A0 *2518:A 0
5 *2302:A *2518:A 0
6 *2303:A *2518:A 0
*RES
1 *2516:Y *2518:A 43.0591 
*END

*D_NET *1013 0.000300336
*CONN
*I *2519:A I *D sg13cmos5l_inv_1
*I *2518:Y O *D sg13cmos5l_inv_1
*CAP
1 *2519:A 0.00013474
2 *2518:Y 0.00013474
3 *2519:A *2520:A 1.54556e-05
4 *1525:A0 *2519:A 0
5 *2518:A *2519:A 1.54008e-05
*RES
1 *2518:Y *2519:A 41.3802 
*END

*D_NET *1014 0.000433949
*CONN
*I *2520:A I *D sg13cmos5l_inv_1
*I *2519:Y O *D sg13cmos5l_inv_1
*CAP
1 *2520:A 0.000209246
2 *2519:Y 0.000209246
3 *2520:A *1017:10 0
4 *1525:A0 *2520:A 0
5 *2193:A *2520:A 0
6 *2519:A *2520:A 1.54556e-05
7 *688:10 *2520:A 0
*RES
1 *2519:Y *2520:A 42.1012 
*END

*D_NET *1015 0.000274317
*CONN
*I *2521:A I *D sg13cmos5l_inv_1
*I *2520:Y O *D sg13cmos5l_inv_1
*CAP
1 *2521:A 0.000137159
2 *2520:Y 0.000137159
3 *2190:A *2521:A 0
4 *2191:A *2521:A 0
*RES
1 *2520:Y *2521:A 41.3802 
*END

*D_NET *1016 0.000111256
*CONN
*I *2522:A I *D sg13cmos5l_inv_1
*I *2521:Y O *D sg13cmos5l_inv_1
*CAP
1 *2522:A 5.56282e-05
2 *2521:Y 5.56282e-05
3 *45:14 *2522:A 0
*RES
1 *2521:Y *2522:A 40.5974 
*END

*D_NET *1017 0.000639171
*CONN
*I *2523:A I *D sg13cmos5l_inv_1
*I *2522:Y O *D sg13cmos5l_inv_1
*CAP
1 *2523:A 9.38742e-05
2 *2522:Y 0.000153562
3 *1017:10 0.000247437
4 *1525:A0 *2523:A 0.000144298
5 *1525:A0 *1017:10 0
6 *2520:A *1017:10 0
*RES
1 *2522:Y *1017:10 41.3802 
2 *1017:10 *2523:A 40.9682 
*END

*D_NET *1018 0.000129475
*CONN
*I *2524:A I *D sg13cmos5l_inv_1
*I *2523:Y O *D sg13cmos5l_inv_1
*CAP
1 *2524:A 6.47374e-05
2 *2523:Y 6.47374e-05
*RES
1 *2523:Y *2524:A 40.5974 
*END

*D_NET *1019 0.000129475
*CONN
*I *2525:A I *D sg13cmos5l_inv_1
*I *2524:Y O *D sg13cmos5l_inv_1
*CAP
1 *2525:A 6.47374e-05
2 *2524:Y 6.47374e-05
*RES
1 *2524:Y *2525:A 40.5974 
*END

*D_NET *1020 0.000129475
*CONN
*I *2526:A I *D sg13cmos5l_inv_1
*I *2525:Y O *D sg13cmos5l_inv_1
*CAP
1 *2526:A 6.47374e-05
2 *2525:Y 6.47374e-05
*RES
1 *2525:Y *2526:A 40.5974 
*END

*D_NET *1021 0.000129475
*CONN
*I *2527:A I *D sg13cmos5l_inv_1
*I *2526:Y O *D sg13cmos5l_inv_1
*CAP
1 *2527:A 6.47374e-05
2 *2526:Y 6.47374e-05
*RES
1 *2526:Y *2527:A 40.5974 
*END

*D_NET *1022 0.000643804
*CONN
*I *2528:A I *D sg13cmos5l_inv_1
*I *2517:Y O *D sg13cmos5l_inv_1
*CAP
1 *2528:A 0.000200468
2 *2517:Y 0.000200468
3 *2528:A *2539:A 3.32624e-05
4 *1588:A *2528:A 0.000209605
5 *83:8 *2528:A 0
*RES
1 *2517:Y *2528:A 41.9673 
*END

*D_NET *1023 0.000724468
*CONN
*I *2529:A I *D sg13cmos5l_inv_1
*I *2527:Y O *D sg13cmos5l_inv_1
*CAP
1 *2529:A 0.000135762
2 *2527:Y 0.000202601
3 *1023:10 0.000338363
4 *2529:A *1024:10 4.77425e-05
*RES
1 *2527:Y *1023:10 41.8746 
2 *1023:10 *2529:A 40.9682 
*END

*D_NET *1024 0.00075439
*CONN
*I *2530:A I *D sg13cmos5l_inv_1
*I *2529:Y O *D sg13cmos5l_inv_1
*CAP
1 *2530:A 7.46009e-05
2 *2529:Y 0.000224628
3 *1024:10 0.000299229
4 *2530:A *2535:A 0
5 *2529:A *1024:10 4.77425e-05
6 *47:14 *2530:A 0.000108191
7 *738:8 *1024:10 0
*RES
1 *2529:Y *1024:10 41.9055 
2 *1024:10 *2530:A 40.7236 
*END

*D_NET *1025 0.00121197
*CONN
*I *2531:A I *D sg13cmos5l_inv_1
*I *2530:Y O *D sg13cmos5l_inv_1
*CAP
1 *2531:A 7.36333e-05
2 *2530:Y 0.000252299
3 *1025:10 0.000325933
4 *1025:10 *2532:A 0.000340288
5 *1025:10 *2535:A 0.000144691
6 *27:18 *1025:10 7.51285e-05
*RES
1 *2530:Y *1025:10 42.7707 
2 *1025:10 *2531:A 40.5356 
*END

*D_NET *1026 0.00227137
*CONN
*I *1524:A0 I *D sg13cmos5l_mux4_1
*I *2532:A I *D sg13cmos5l_inv_1
*I *2531:Y O *D sg13cmos5l_inv_1
*CAP
1 *1524:A0 0.000484897
2 *2532:A 0.000346589
3 *2531:Y 0
4 *1026:6 0.000831486
5 *1524:A0 *1086:10 0
6 *2532:A *2534:A 0.000144822
7 *2532:A *2535:A 4.77425e-05
8 *2532:A *1086:10 0
9 *1573:A *1524:A0 0
10 *27:18 *2532:A 7.55443e-05
11 *69:10 *1524:A0 0
12 *1025:10 *2532:A 0.000340288
*RES
1 *2531:Y *1026:6 40 
2 *1026:6 *2532:A 43.9449 
3 *1026:6 *1524:A0 44.5629 
*END

*D_NET *1027 0.000132748
*CONN
*I *2533:A I *D sg13cmos5l_inv_1
*I *2532:Y O *D sg13cmos5l_inv_1
*CAP
1 *2533:A 6.63738e-05
2 *2532:Y 6.63738e-05
*RES
1 *2532:Y *2533:A 40.5974 
*END

*D_NET *1028 0.000802583
*CONN
*I *2534:A I *D sg13cmos5l_inv_1
*I *2533:Y O *D sg13cmos5l_inv_1
*CAP
1 *2534:A 0.00032118
2 *2533:Y 0.00032118
3 *2534:A *2535:A 0
4 *2534:A *2546:A 0
5 *2534:A *2548:A 1.54008e-05
6 *2534:A *2564:A 0
7 *2532:A *2534:A 0.000144822
8 *27:18 *2534:A 0
*RES
1 *2533:Y *2534:A 43.5123 
*END

*D_NET *1029 0.00122497
*CONN
*I *2535:A I *D sg13cmos5l_inv_1
*I *2534:Y O *D sg13cmos5l_inv_1
*CAP
1 *2535:A 0.000411579
2 *2534:Y 0.000411579
3 *2535:A *2537:A 0
4 *2530:A *2535:A 0
5 *2532:A *2535:A 4.77425e-05
6 *2534:A *2535:A 0
7 *27:18 *2535:A 0
8 *47:14 *2535:A 0.000209374
9 *1025:10 *2535:A 0.000144691
*RES
1 *2534:Y *2535:A 44.3981 
*END

*D_NET *1030 0.000112035
*CONN
*I *2536:A I *D sg13cmos5l_inv_1
*I *2535:Y O *D sg13cmos5l_inv_1
*CAP
1 *2536:A 5.60176e-05
2 *2535:Y 5.60176e-05
*RES
1 *2535:Y *2536:A 40.5974 
*END

*D_NET *1031 0.000186088
*CONN
*I *2537:A I *D sg13cmos5l_inv_1
*I *2536:Y O *D sg13cmos5l_inv_1
*CAP
1 *2537:A 9.30442e-05
2 *2536:Y 9.30442e-05
3 *2535:A *2537:A 0
4 *27:18 *2537:A 0
*RES
1 *2536:Y *2537:A 41.1047 
*END

*D_NET *1032 0.00112808
*CONN
*I *2538:A I *D sg13cmos5l_inv_1
*I *2537:Y O *D sg13cmos5l_inv_1
*CAP
1 *2538:A 0.000362801
2 *2537:Y 0.000362801
3 *2538:A *2540:A 0
4 *2538:A *2541:A 0
5 *2538:A *1036:10 0
6 *2538:A *1068:16 0
7 *2538:A *1068:28 4.77425e-05
8 *2538:A *1087:8 0.000209681
9 *27:18 *2538:A 0.000145053
*RES
1 *2537:Y *2538:A 44.0479 
*END

*D_NET *1033 0.000391032
*CONN
*I *2539:A I *D sg13cmos5l_inv_1
*I *2528:Y O *D sg13cmos5l_inv_1
*CAP
1 *2539:A 0.000178885
2 *2528:Y 0.000178885
3 *1576:A *2539:A 0
4 *1586:A *2539:A 0
5 *1587:A *2539:A 0
6 *1588:A *2539:A 0
7 *2528:A *2539:A 3.32624e-05
8 *83:8 *2539:A 0
*RES
1 *2528:Y *2539:A 42.0935 
*END

*D_NET *1034 0.000334934
*CONN
*I *2540:A I *D sg13cmos5l_inv_1
*I *2538:Y O *D sg13cmos5l_inv_1
*CAP
1 *2540:A 0.000116195
2 *2538:Y 0.000116195
3 *2540:A *1068:16 0
4 *2270:A *2540:A 0
5 *2538:A *2540:A 0
6 *760:18 *2540:A 0.000102545
*RES
1 *2538:Y *2540:A 41.3802 
*END

*D_NET *1035 0.000321343
*CONN
*I *2541:A I *D sg13cmos5l_inv_1
*I *2540:Y O *D sg13cmos5l_inv_1
*CAP
1 *2541:A 0.000160672
2 *2540:Y 0.000160672
3 *2538:A *2541:A 0
4 *760:18 *2541:A 0
*RES
1 *2540:Y *2541:A 41.663 
*END

*D_NET *1036 0.0008011
*CONN
*I *2542:A I *D sg13cmos5l_inv_1
*I *2541:Y O *D sg13cmos5l_inv_1
*CAP
1 *2542:A 5.22069e-05
2 *2541:Y 0.000348343
3 *1036:10 0.00040055
4 *2542:A *2543:A 0
5 *1036:10 *1068:28 0
6 *1036:10 *1087:14 0
7 *2538:A *1036:10 0
8 *27:18 *2542:A 0
9 *47:8 *1036:10 0
10 *47:14 *1036:10 0
*RES
1 *2541:Y *1036:10 44.0067 
2 *1036:10 *2542:A 40.5356 
*END

*D_NET *1037 0.000264578
*CONN
*I *2543:A I *D sg13cmos5l_inv_1
*I *2542:Y O *D sg13cmos5l_inv_1
*CAP
1 *2543:A 0.000124561
2 *2542:Y 0.000124561
3 *2543:A *2544:A 1.54556e-05
4 *2542:A *2543:A 0
5 *27:18 *2543:A 0
*RES
1 *2542:Y *2543:A 41.3802 
*END

*D_NET *1038 0.000526181
*CONN
*I *2544:A I *D sg13cmos5l_inv_1
*I *2543:Y O *D sg13cmos5l_inv_1
*CAP
1 *2544:A 0.000175213
2 *2543:Y 0.000175213
3 *2544:A *2545:A 1.54008e-05
4 *2543:A *2544:A 1.54556e-05
5 *27:18 *2544:A 0.000144899
*RES
1 *2543:Y *2544:A 41.751 
*END

*D_NET *1039 0.000332291
*CONN
*I *2545:A I *D sg13cmos5l_inv_1
*I *2544:Y O *D sg13cmos5l_inv_1
*CAP
1 *2545:A 0.000158445
2 *2544:Y 0.000158445
3 *2544:A *2545:A 1.54008e-05
*RES
1 *2544:Y *2545:A 41.3802 
*END

*D_NET *1040 0.000478896
*CONN
*I *2546:A I *D sg13cmos5l_inv_1
*I *2545:Y O *D sg13cmos5l_inv_1
*CAP
1 *2546:A 0.000142132
2 *2545:Y 0.000142132
3 *2546:A *2547:A 1.73259e-05
4 *2546:A *2548:A 0
5 *2534:A *2546:A 0
6 *2579:A *2546:A 0
7 *27:18 *2546:A 0.000177306
*RES
1 *2545:Y *2546:A 41.6171 
*END

*D_NET *1041 0.000166258
*CONN
*I *2547:A I *D sg13cmos5l_inv_1
*I *2546:Y O *D sg13cmos5l_inv_1
*CAP
1 *2547:A 7.44661e-05
2 *2546:Y 7.44661e-05
3 *2546:A *2547:A 1.73259e-05
*RES
1 *2546:Y *2547:A 40.8292 
*END

*D_NET *1042 0.000183391
*CONN
*I *2548:A I *D sg13cmos5l_inv_1
*I *2547:Y O *D sg13cmos5l_inv_1
*CAP
1 *2548:A 8.3995e-05
2 *2547:Y 8.3995e-05
3 *2548:A *2551:A 0
4 *2534:A *2548:A 1.54008e-05
5 *2546:A *2548:A 0
*RES
1 *2547:Y *2548:A 40.9167 
*END

*D_NET *1043 0.00307191
*CONN
*I *1524:A1 I *D sg13cmos5l_mux4_1
*I *2549:A I *D sg13cmos5l_inv_1
*I *2548:Y O *D sg13cmos5l_inv_1
*CAP
1 *1524:A1 0
2 *2549:A 0
3 *2548:Y 0.000162655
4 *1043:29 0.00084018
5 *1043:6 0.00100284
6 *1043:29 *1524:A2 8.01776e-05
7 *1043:29 *2564:A 4.77425e-05
8 *1043:29 *2565:A 0
9 *1043:29 *2566:A 0
10 *1043:29 *1058:12 0
11 *1043:29 *1059:10 0.000181695
12 *1043:29 *1061:8 0
13 *1573:A *1043:29 8.01776e-05
14 *27:26 *1043:6 0
15 *27:26 *1043:29 1.53882e-05
16 *70:8 *1043:29 0.000661056
*RES
1 *2548:Y *1043:6 21.4008 
2 *1043:6 *2549:A 20 
3 *1043:6 *1043:29 49.0331 
4 *1043:29 *1524:A1 20 
*END

*D_NET *1044 0.000661267
*CONN
*I *2550:A I *D sg13cmos5l_inv_1
*I *2539:Y O *D sg13cmos5l_inv_1
*CAP
1 *2550:A 0.000220119
2 *2539:Y 0.000220119
3 *2550:A *2561:A 1.11944e-05
4 osc_tap[0] *2550:A 0
5 *1588:A *2550:A 0
6 *2517:A *2550:A 0
7 *84:12 *2550:A 0.000209835
*RES
1 *2539:Y *2550:A 42.2145 
*END

*D_NET *1045 0.000179277
*CONN
*I *2551:A I *D sg13cmos5l_inv_1
*I *2549:Y O *D sg13cmos5l_inv_1
*CAP
1 *2551:A 8.96386e-05
2 *2549:Y 8.96386e-05
3 *2551:A *2554:A 0
4 *2551:A *2566:A 0
5 *2548:A *2551:A 0
*RES
1 *2549:Y *2551:A 41.0197 
*END

*D_NET *1046 0.0001976
*CONN
*I *2552:A I *D sg13cmos5l_inv_1
*I *2551:Y O *D sg13cmos5l_inv_1
*CAP
1 *2552:A 9.88e-05
2 *2551:Y 9.88e-05
*RES
1 *2551:Y *2552:A 40.9167 
*END

*D_NET *1047 0.000467599
*CONN
*I *2553:A I *D sg13cmos5l_inv_1
*I *2552:Y O *D sg13cmos5l_inv_1
*CAP
1 *2553:A 0.000226099
2 *2552:Y 0.000226099
3 *2553:A *2554:A 1.54008e-05
4 *2553:A *2555:A 0
*RES
1 *2552:Y *2553:A 42.3999 
*END

*D_NET *1048 0.000259752
*CONN
*I *2554:A I *D sg13cmos5l_inv_1
*I *2553:Y O *D sg13cmos5l_inv_1
*CAP
1 *2554:A 0.000122176
2 *2553:Y 0.000122176
3 *2554:A *2557:A 0
4 *2554:A *1058:12 0
5 *2551:A *2554:A 0
6 *2553:A *2554:A 1.54008e-05
7 *2579:A *2554:A 0
*RES
1 *2553:Y *2554:A 41.3802 
*END

*D_NET *1049 0.000424574
*CONN
*I *2555:A I *D sg13cmos5l_inv_1
*I *2554:Y O *D sg13cmos5l_inv_1
*CAP
1 *2555:A 0.000212287
2 *2554:Y 0.000212287
3 *2555:A *2558:A 0
4 *2555:A *2562:A 0
5 *2555:A *1058:12 0
6 *2553:A *2555:A 0
*RES
1 *2554:Y *2555:A 42.3175 
*END

*D_NET *1050 0.000278368
*CONN
*I *2556:A I *D sg13cmos5l_inv_1
*I *2555:Y O *D sg13cmos5l_inv_1
*CAP
1 *2556:A 0
2 *2555:Y 0.000139184
3 *1050:8 0.000139184
4 *1050:8 *1054:8 0
*RES
1 *2555:Y *1050:8 41.5862 
2 *1050:8 *2556:A 40 
*END

*D_NET *1051 0.000248093
*CONN
*I *2557:A I *D sg13cmos5l_inv_1
*I *2556:Y O *D sg13cmos5l_inv_1
*CAP
1 *2557:A 0.000116319
2 *2556:Y 0.000116319
3 *2557:A *2558:A 1.54556e-05
4 *2557:A *1058:12 0
5 *2554:A *2557:A 0
*RES
1 *2556:Y *2557:A 41.3802 
*END

*D_NET *1052 0.000872965
*CONN
*I *2558:A I *D sg13cmos5l_inv_1
*I *2557:Y O *D sg13cmos5l_inv_1
*CAP
1 *2558:A 0.000372396
2 *2557:Y 0.000372396
3 *2558:A *2559:A 0.000112716
4 *2558:A *2562:A 0
5 *2558:A *2563:A 0
6 *2558:A *1058:12 0
7 *1637:A *2558:A 0
8 *1638:A *2558:A 0
9 *2555:A *2558:A 0
10 *2557:A *2558:A 1.54556e-05
11 *2578:A *2558:A 0
12 *27:26 *2558:A 0
*RES
1 *2557:Y *2558:A 44.017 
*END

*D_NET *1053 0.000494647
*CONN
*I *2559:A I *D sg13cmos5l_inv_1
*I *2558:Y O *D sg13cmos5l_inv_1
*CAP
1 *2559:A 0.000190965
2 *2558:Y 0.000190965
3 *1635:A *2559:A 0
4 *2558:A *2559:A 0.000112716
*RES
1 *2558:Y *2559:A 41.9673 
*END

*D_NET *1054 0.000156734
*CONN
*I *2560:A I *D sg13cmos5l_inv_1
*I *2559:Y O *D sg13cmos5l_inv_1
*CAP
1 *2560:A 0
2 *2559:Y 7.83672e-05
3 *1054:8 7.83672e-05
4 *1054:8 *1085:12 0
5 *1050:8 *1054:8 0
*RES
1 *2559:Y *1054:8 40.8446 
2 *1054:8 *2560:A 40 
*END

*D_NET *1055 0.000205424
*CONN
*I *2561:A I *D sg13cmos5l_inv_1
*I *2550:Y O *D sg13cmos5l_inv_1
*CAP
1 *2561:A 9.7115e-05
2 *2550:Y 9.7115e-05
3 *2517:A *2561:A 0
4 *2550:A *2561:A 1.11944e-05
*RES
1 *2550:Y *2561:A 40.9317 
*END

*D_NET *1056 0.000315579
*CONN
*I *2562:A I *D sg13cmos5l_inv_1
*I *2560:Y O *D sg13cmos5l_inv_1
*CAP
1 *2562:A 0.000157789
2 *2560:Y 0.000157789
3 *2562:A *2563:A 0
4 *1638:A *2562:A 0
5 *1639:A *2562:A 0
6 *2555:A *2562:A 0
7 *2558:A *2562:A 0
8 *27:26 *2562:A 0
*RES
1 *2560:Y *2562:A 41.8746 
*END

*D_NET *1057 0.000255827
*CONN
*I *2563:A I *D sg13cmos5l_inv_1
*I *2562:Y O *D sg13cmos5l_inv_1
*CAP
1 *2563:A 0.000120186
2 *2562:Y 0.000120186
3 *2563:A *2566:A 0
4 *2563:A *1058:12 1.54556e-05
5 *2558:A *2563:A 0
6 *2562:A *2563:A 0
7 *27:26 *2563:A 0
*RES
1 *2562:Y *2563:A 41.3802 
*END

*D_NET *1058 0.00141324
*CONN
*I *2564:A I *D sg13cmos5l_inv_1
*I *2563:Y O *D sg13cmos5l_inv_1
*CAP
1 *2564:A 4.43155e-05
2 *2563:Y 0.000513928
3 *1058:12 0.000558244
4 *1058:12 *2565:A 0
5 *1058:12 *2566:A 0
6 *1058:12 *1059:10 0.000233558
7 *2534:A *2564:A 0
8 *2554:A *1058:12 0
9 *2555:A *1058:12 0
10 *2557:A *1058:12 0
11 *2558:A *1058:12 0
12 *2563:A *1058:12 1.54556e-05
13 *27:26 *1058:12 0
14 *1043:29 *2564:A 4.77425e-05
15 *1043:29 *1058:12 0
*RES
1 *2563:Y *1058:12 45.1882 
2 *1058:12 *2564:A 40.43 
*END

*D_NET *1059 0.00094411
*CONN
*I *2565:A I *D sg13cmos5l_inv_1
*I *2564:Y O *D sg13cmos5l_inv_1
*CAP
1 *2565:A 0.000145624
2 *2564:Y 0.000118804
3 *1059:10 0.000264429
4 *2565:A *2566:A 0
5 *27:26 *2565:A 0
6 *1043:29 *2565:A 0
7 *1043:29 *1059:10 0.000181695
8 *1058:12 *2565:A 0
9 *1058:12 *1059:10 0.000233558
*RES
1 *2564:Y *1059:10 41.8746 
2 *1059:10 *2565:A 41.4008 
*END

*D_NET *1060 0.000250997
*CONN
*I *2566:A I *D sg13cmos5l_inv_1
*I *2565:Y O *D sg13cmos5l_inv_1
*CAP
1 *2566:A 0.000125498
2 *2565:Y 0.000125498
3 *2551:A *2566:A 0
4 *2563:A *2566:A 0
5 *2565:A *2566:A 0
6 *27:26 *2566:A 0
7 *1043:29 *2566:A 0
8 *1058:12 *2566:A 0
*RES
1 *2565:Y *2566:A 41.3802 
*END

*D_NET *1061 0.00188365
*CONN
*I *1524:A2 I *D sg13cmos5l_mux4_1
*I *2567:A I *D sg13cmos5l_inv_1
*I *2566:Y O *D sg13cmos5l_inv_1
*CAP
1 *1524:A2 0.000717528
2 *2567:A 7.15915e-05
3 *2566:Y 5.62321e-05
4 *1061:8 0.000845351
5 *1524:A2 *1062:8 0
6 *1524:A2 *1080:45 0
7 *27:26 *2567:A 0.000112766
8 *47:14 *2567:A 0
9 *47:20 *1524:A2 0
10 *1043:29 *1524:A2 8.01776e-05
11 *1043:29 *1061:8 0
*RES
1 *2566:Y *1061:8 40.5974 
2 *1061:8 *2567:A 40.7519 
3 *1061:8 *1524:A2 46.5508 
*END

*D_NET *1062 0.00102228
*CONN
*I *2568:A I *D sg13cmos5l_inv_1
*I *2567:Y O *D sg13cmos5l_inv_1
*CAP
1 *2568:A 0
2 *2567:Y 0.000207913
3 *1062:8 0.000207913
4 *1062:8 *1063:10 0
5 *1524:A2 *1062:8 0
6 *47:20 *1062:8 0.000606453
*RES
1 *2567:Y *1062:8 43.0694 
2 *1062:8 *2568:A 40 
*END

*D_NET *1063 0.00150574
*CONN
*I *2569:A I *D sg13cmos5l_inv_1
*I *2568:Y O *D sg13cmos5l_inv_1
*CAP
1 *2569:A 5.95724e-05
2 *2568:Y 0.000381667
3 *1063:10 0.000441239
4 *1063:10 *1064:10 0.00034079
5 *1063:10 *1082:33 0
6 *1063:10 *1085:12 0
7 *1564:A *2569:A 4.77425e-05
8 *1568:A *1063:10 0
9 *1570:A *1063:10 0
10 *27:26 *2569:A 0
11 *58:10 *1063:10 0.000234726
12 *1062:8 *1063:10 0
*RES
1 *2568:Y *1063:10 44.7483 
2 *1063:10 *2569:A 40.6695 
*END

*D_NET *1064 0.000594318
*CONN
*I *2570:A I *D sg13cmos5l_inv_1
*I *2569:Y O *D sg13cmos5l_inv_1
*CAP
1 *2570:A 0
2 *2569:Y 0.000126764
3 *1064:10 0.000126764
4 *1064:10 *1085:12 0
5 *1063:10 *1064:10 0.00034079
*RES
1 *2569:Y *1064:10 41.9055 
2 *1064:10 *2570:A 40 
*END

*D_NET *1065 0.000435602
*CONN
*I *2571:A I *D sg13cmos5l_inv_1
*I *2570:Y O *D sg13cmos5l_inv_1
*CAP
1 *2571:A 0.000145384
2 *2570:Y 0.000145384
3 *58:10 *2571:A 0.000144833
*RES
1 *2570:Y *2571:A 41.4008 
*END

*D_NET *1066 0.0014332
*CONN
*I *2572:A I *D sg13cmos5l_inv_1
*I *1529:A3 I *D sg13cmos5l_mux4_1
*I *2561:Y O *D sg13cmos5l_inv_1
*CAP
1 *2572:A 0
2 *1529:A3 0.000594403
3 *2561:Y 8.43813e-05
4 *1066:10 0.000678785
5 *84:12 *1066:10 7.56299e-05
6 *356:10 *1529:A3 0
7 *711:16 *1529:A3 0
*RES
1 *2561:Y *1066:10 41.1639 
2 *1066:10 *1529:A3 46.5302 
3 *1066:10 *2572:A 40 
*END

*D_NET *1067 0.000468383
*CONN
*I *2573:A I *D sg13cmos5l_inv_1
*I *2462:Y O *D sg13cmos5l_inv_1
*CAP
1 *2573:A 0.000226464
2 *2462:Y 0.000226464
3 *1585:A *2573:A 1.54556e-05
4 *1596:A *2573:A 0
5 *434:10 *2573:A 0
*RES
1 *2462:Y *2573:A 42.5647 
*END

*D_NET *1068 0.00265193
*CONN
*I *1545:B_N I *D sg13cmos5l_nor2b_1
*I *1527:B I *D sg13cmos5l_nand2_1
*I *2574:X O *D sg13cmos5l_buf_1
*CAP
1 *1545:B_N 0
2 *1527:B 0
3 *2574:X 0.000881055
4 *1068:28 0.000163017
5 *1068:16 0.00104407
6 *1068:16 *1087:8 0
7 *1068:28 *1087:8 0
8 *1068:28 *1087:14 0.000128247
9 *2264:A *1068:16 0
10 *2274:A *1068:16 0
11 *2538:A *1068:16 0
12 *2538:A *1068:28 4.77425e-05
13 *2540:A *1068:16 0
14 *2580:A *1068:16 0.000177598
15 *760:18 *1068:16 0
16 *766:12 *1068:16 0.000210196
17 *770:10 *1068:16 0
18 *1036:10 *1068:28 0
*RES
1 *2574:X *1068:16 30.3026 
2 *1068:16 *1068:28 42.0986 
3 *1068:28 *1527:B 20 
4 *1068:16 *1545:B_N 20 
*END

*D_NET *1069 0.000246198
*CONN
*I *2581:A I *D sg13cmos5l_buf_1
*I *1556:X O *D sg13cmos5l_buf_1
*CAP
1 *2581:A 0.000123099
2 *1556:X 0.000123099
3 *2003:A *2581:A 0
4 *2007:A *2581:A 0
5 *2010:A *2581:A 0
6 *2011:A *2581:A 0
7 *2012:A *2581:A 0
*RES
1 *1556:X *2581:A 41.4111 
*END

*D_NET *1070 0.000264997
*CONN
*I *2582:A I *D sg13cmos5l_buf_1
*I *1557:X O *D sg13cmos5l_buf_1
*CAP
1 *2582:A 0.000132499
2 *1557:X 0.000132499
3 *1977:A *2582:A 0
4 *1979:A *2582:A 0
*RES
1 *1557:X *2582:A 41.4008 
*END

*D_NET *1071 0.000296577
*CONN
*I *2583:A I *D sg13cmos5l_buf_1
*I *1558:X O *D sg13cmos5l_buf_1
*CAP
1 *2583:A 0.000148288
2 *1558:X 0.000148288
3 *2077:A *2583:A 0
4 *2078:A *2583:A 0
*RES
1 *1558:X *2583:A 41.6171 
*END

*D_NET *1072 0.000231149
*CONN
*I *2584:A I *D sg13cmos5l_buf_1
*I *1559:X O *D sg13cmos5l_buf_1
*CAP
1 *2584:A 0.000115574
2 *1559:X 0.000115574
3 *1559:A *2584:A 0
4 *2083:A *2584:A 0
5 *2085:A *2584:A 0
6 *2086:A *2584:A 0
7 *2093:A *2584:A 0
8 *2096:A *2584:A 0
*RES
1 *1559:X *2584:A 41.5141 
*END

*D_NET *1073 0.000981368
*CONN
*I *2585:A I *D sg13cmos5l_buf_1
*I *1560:X O *D sg13cmos5l_buf_1
*CAP
1 *2585:A 0.0004267
2 *1560:X 0.0004267
3 osc_tap[5] *2585:A 8.00998e-05
4 *2085:A *2585:A 0
5 *2087:A *2585:A 0
6 *2440:A *2585:A 0
7 *582:10 *2585:A 0
8 *929:14 *2585:A 4.78688e-05
*RES
1 *1560:X *2585:A 44.2642 
*END

*D_NET *1074 0.00027659
*CONN
*I *2586:A I *D sg13cmos5l_buf_1
*I *1561:X O *D sg13cmos5l_buf_1
*CAP
1 *2586:A 0.000138295
2 *1561:X 0.000138295
3 osc_tap[6] *2586:A 0
4 *2448:A *2586:A 0
*RES
1 *1561:X *2586:A 41.4008 
*END

*D_NET *1075 0.000277526
*CONN
*I *2587:A I *D sg13cmos5l_buf_1
*I *1562:X O *D sg13cmos5l_buf_1
*CAP
1 *2587:A 0.000138763
2 *1562:X 0.000138763
3 *2454:A *2587:A 0
*RES
1 *1562:X *2587:A 41.5141 
*END

*D_NET *1076 0.0190164
*CONN
*I *1513:S1 I *D sg13cmos5l_mux4_1
*I *1511:S1 I *D sg13cmos5l_mux4_1
*I *1512:S1 I *D sg13cmos5l_mux4_1
*I *1510:S1 I *D sg13cmos5l_mux4_1
*I *1530:S1 I *D sg13cmos5l_mux4_1
*I *1529:S1 I *D sg13cmos5l_mux4_1
*I *1541:A I *D sg13cmos5l_nand2_1
*I *1535:S I *D sg13cmos5l_mux2_1
*I *1549:X O *D sg13cmos5l_buf_1
*CAP
1 *1513:S1 0.000235858
2 *1511:S1 2.25236e-05
3 *1512:S1 0
4 *1510:S1 0
5 *1530:S1 0
6 *1529:S1 0.000258455
7 *1541:A 0
8 *1535:S 0.00040491
9 *1549:X 2.69158e-05
10 *1076:154 0.000357796
11 *1076:148 0.000930104
12 *1076:123 0.000909233
13 *1076:121 0.00102007
14 *1076:96 0.00103434
15 *1076:80 0.00100485
16 *1076:72 0.00140201
17 *1076:64 0.000748421
18 *1076:62 0.00118076
19 *1076:32 0.00159725
20 *1076:14 0.001488
21 *1076:6 0.00150334
22 *1076:14 *1078:73 0
23 *1076:14 *1084:36 0
24 *1076:32 *1541:B 0
25 *1076:32 *1543:S1 2.69898e-05
26 *1076:32 *1078:41 0.000598937
27 *1076:32 *1082:48 0
28 *1076:62 *1078:73 0
29 *1076:62 *1078:103 0
30 *1076:62 *1080:131 0
31 *1076:72 *1542:S1 0
32 *1076:72 *1082:79 0
33 *1076:96 *1542:S1 0
34 *1076:96 *1082:79 0
35 *1076:121 *1082:79 0
36 *1076:121 *1082:89 0
37 *1510:A0 *1076:62 0
38 *1510:A2 *1076:121 0
39 *1510:A3 *1076:121 0.000145442
40 *1511:A2 *1511:S1 0
41 *1511:A2 *1513:S1 0
42 *1511:A3 *1076:154 0.00023547
43 *1513:A2 *1513:S1 0
44 *1513:A3 *1076:154 0
45 *1514:A0 *1076:121 0
46 *1514:A1 *1076:121 0.00014395
47 *1514:A2 *1076:121 0
48 *1514:A2 *1076:123 4.78028e-05
49 *1529:A1 *1529:S1 0
50 *1531:A0 *1529:S1 0
51 *1531:A1 *1529:S1 0
52 *1542:A3 *1076:72 0.000499817
53 *1543:A1 *1076:32 0
54 *1543:A3 *1076:32 0
55 *1544:A1 *1076:32 0.000192642
56 *1546:A1 *1076:32 0
57 *1546:A2 *1076:6 0
58 *1546:A2 *1076:14 0
59 *1546:A2 *1076:32 0
60 *1581:A *1529:S1 0
61 *1581:A *1076:80 0
62 *1597:A *1535:S 0
63 *1597:A *1076:32 0
64 *1701:A *1076:32 0
65 *1702:A *1076:32 4.78195e-05
66 *1730:A *1076:32 0.000112536
67 *1731:A *1076:32 0
68 *1733:A *1076:32 0
69 *1807:A *1076:80 0
70 *1818:A *1076:80 0
71 *1829:A *1076:80 0
72 *1837:A *1535:S 0
73 *1838:A *1535:S 0
74 *1947:A *1076:32 0
75 *1948:A *1076:32 0
76 *1961:A *1076:72 0
77 *1963:A *1076:72 0
78 *1964:A *1076:72 8.02598e-05
79 *1981:A *1076:72 0.000307166
80 *1987:A *1076:80 4.77425e-05
81 *1989:A *1076:80 0
82 *1990:A *1076:80 4.77425e-05
83 *1991:A *1076:80 0.000209856
84 *1992:A *1076:80 0
85 *2016:A *1076:72 0.000341535
86 *2016:A *1076:80 0
87 *2019:A *1076:72 0
88 *2019:A *1076:80 0
89 *2021:A *1076:80 0
90 *2035:A *1076:62 0
91 *2132:A *1076:121 0.000208859
92 *2144:A *1076:121 0
93 *2150:A *1076:148 0
94 *2152:A *1076:148 0.000108802
95 *2409:A *1513:S1 0
96 *2410:A *1513:S1 0
97 *2424:A *1076:148 4.35073e-05
98 *2425:A *1076:154 0.000128247
99 *30:16 *1076:121 0.000144767
100 *31:20 *1513:S1 0
101 *31:20 *1076:121 0
102 *31:20 *1076:123 0
103 *31:20 *1076:148 0
104 *33:16 *1513:S1 0
105 *33:16 *1076:148 0
106 *33:24 *1076:121 0
107 *51:14 *1076:80 0
108 *51:32 *1076:62 0
109 *55:20 *1535:S 0
110 *55:20 *1076:32 0
111 *57:16 *1076:6 0
112 *57:16 *1076:14 0
113 *225:8 *1076:32 7.51285e-05
114 *331:25 *1076:72 0.00034112
115 *356:10 *1529:S1 0
116 *356:10 *1076:80 0
117 *443:12 *1076:32 0.000177739
118 *455:23 *1076:62 0
119 *482:10 *1076:80 0
120 *513:12 *1076:80 0
121 *530:8 *1076:62 0
122 *557:8 *1076:62 0
123 *559:8 *1076:62 0.000341205
124 *560:8 *1076:62 0
125 *564:16 *1076:62 0
126 *625:10 *1076:121 7.99147e-05
127 *643:8 *1076:148 7.56308e-05
128 *646:12 *1076:148 8.09545e-05
129 *647:12 *1076:148 0
130 *705:21 *1076:148 0
*RES
1 *1549:X *1076:6 20.3193 
2 *1076:6 *1076:14 42.987 
3 *1076:14 *1076:32 32.9368 
4 *1076:32 *1535:S 44.0015 
5 *1076:14 *1541:A 20 
6 *1076:6 *1076:62 33.2046 
7 *1076:62 *1076:64 20 
8 *1076:64 *1076:72 47.9619 
9 *1076:72 *1076:80 7.57565 
10 *1076:80 *1529:S1 22.4797 
11 *1076:80 *1530:S1 20 
12 *1076:64 *1076:96 0.955325 
13 *1076:96 *1510:S1 20 
14 *1076:96 *1076:121 49.9524 
15 *1076:121 *1076:123 0.739025 
16 *1076:123 *1512:S1 20 
17 *1076:123 *1076:148 48.1705 
18 *1076:148 *1076:154 41.5862 
19 *1076:154 *1511:S1 20.2833 
20 *1076:154 *1513:S1 22.8582 
*END

*D_NET *1077 0.00311819
*CONN
*I *1526:B2 I *D sg13cmos5l_a22oi_1
*I *1522:A I *D sg13cmos5l_nor2_1
*I *1517:A I *D sg13cmos5l_nor2_1
*I *1540:A I *D sg13cmos5l_nor3_1
*I *1550:X O *D sg13cmos5l_buf_1
*CAP
1 *1526:B2 2.68585e-05
2 *1522:A 0
3 *1517:A 0
4 *1540:A 0
5 *1550:X 0.000188483
6 *1077:42 0.000130289
7 *1077:34 0.000613217
8 *1077:19 0.000721829
9 *1077:12 0.00026576
10 *1077:10 0.000188483
11 *1077:10 *1550:A 8.02267e-05
12 *1077:19 *1085:12 0
13 *1077:19 *1085:25 0
14 *1077:34 *1085:25 0
15 *1077:34 *1086:40 0
16 *1077:42 *1086:34 8.00842e-05
17 *1517:B *1077:19 0
18 *1517:B *1077:34 0
19 *1520:A1 *1077:34 0.000144836
20 *1520:A2 *1077:34 0
21 *1520:A2 *1077:42 8.00842e-05
22 *1520:B1 *1077:34 0.000134602
23 *1526:A2 *1526:B2 4.77425e-05
24 *1526:A2 *1077:34 1.54008e-05
25 *1528:A2 *1077:34 0.00011262
26 *1540:B *1077:19 0
27 *1540:C *1077:10 0
28 *1939:A *1077:19 0
29 *27:32 *1077:10 0
30 *36:21 *1077:19 0
31 *39:10 *1077:19 0
32 *40:8 *1077:42 0
33 *48:8 *1077:42 0
34 *666:8 *1077:42 0.000287672
*RES
1 *1550:X *1077:10 41.8746 
2 *1077:10 *1077:12 20 
3 *1077:12 *1540:A 20 
4 *1077:12 *1077:19 2.266 
5 *1077:19 *1517:A 20 
6 *1077:19 *1077:34 4.7174 
7 *1077:34 *1077:42 41.8746 
8 *1077:42 *1522:A 20 
9 *1077:34 *1526:B2 20.3193 
*END

*D_NET *1078 0.0238804
*CONN
*I *1534:S1 I *D sg13cmos5l_mux4_1
*I *1543:S1 I *D sg13cmos5l_mux4_1
*I *1510:S0 I *D sg13cmos5l_mux4_1
*I *1537:S1 I *D sg13cmos5l_mux4_1
*I *1538:S1 I *D sg13cmos5l_mux4_1
*I *1529:S0 I *D sg13cmos5l_mux4_1
*I *1530:S0 I *D sg13cmos5l_mux4_1
*I *1533:S1 I *D sg13cmos5l_mux4_1
*I *1551:X O *D sg13cmos5l_buf_1
*CAP
1 *1534:S1 3.52398e-05
2 *1543:S1 2.25299e-05
3 *1510:S0 0
4 *1537:S1 7.83585e-05
5 *1538:S1 0.000811011
6 *1529:S0 0.000301898
7 *1530:S0 0
8 *1533:S1 1.12926e-05
9 *1551:X 0.000100989
10 *1078:103 0.000568215
11 *1078:73 0.0021894
12 *1078:69 0.00278322
13 *1078:51 0.00137479
14 *1078:47 0.00275854
15 *1078:41 0.00112805
16 *1078:39 0.00106786
17 *1078:29 0.00130658
18 *1078:16 0.000887786
19 *1078:8 0.00043915
20 *1537:S1 *1081:149 0
21 *1538:S1 *1081:53 0
22 *1538:S1 *1081:149 0
23 *1538:S1 *1083:39 0
24 *1078:8 *1082:48 0.000446853
25 *1078:29 *1081:25 0
26 *1078:39 *1082:48 0
27 *1078:73 *1084:30 0
28 *1510:A0 *1078:103 0.000242292
29 *1529:A0 *1529:S0 1.54556e-05
30 *1530:A0 *1529:S0 0.000256358
31 *1530:A1 *1529:S0 0
32 *1530:A2 *1078:51 0
33 *1534:A1 *1078:29 0.00055425
34 *1539:A0 *1537:S1 0
35 *1539:A1 *1537:S1 0
36 *1539:S *1078:73 0
37 *1543:A2 *1078:47 0.000235556
38 *1544:S *1078:73 0
39 *1712:A *1078:47 0
40 *1717:A *1078:41 0
41 *1726:A *1078:41 0
42 *1728:A *1078:41 4.50783e-05
43 *1751:A *1078:51 0.000241979
44 *1795:A *1529:S0 0
45 *1795:A *1078:51 0
46 *1809:A *1078:16 0.000127958
47 *1811:A *1078:16 0
48 *1818:A *1078:51 0
49 *1829:A *1078:51 0
50 *1862:A *1529:S0 0
51 *1896:A *1538:S1 0
52 *1957:A *1078:69 0
53 *2024:A *1078:69 0
54 *2025:A *1078:51 0
55 *2025:A *1078:69 0
56 *2027:A *1078:69 0
57 *2032:A *1078:69 0.00024122
58 *2034:A *1078:69 0
59 *2034:A *1078:103 0
60 *2035:A *1078:73 0.00103918
61 *2066:A *1078:103 0
62 *2067:A *1078:103 0
63 *20:8 *1538:S1 0
64 *20:8 *1078:73 0
65 *24:12 *1078:73 0
66 *53:12 *1078:29 0.00188411
67 *55:20 *1534:S1 1.73259e-05
68 *55:20 *1078:39 1.54446e-05
69 *93:8 *1078:39 0
70 *205:8 *1078:47 0
71 *206:8 *1078:47 0.000234726
72 *207:8 *1078:51 0
73 *210:8 *1078:47 0.000693894
74 *215:8 *1078:47 0
75 *225:8 *1078:39 0
76 *267:18 *1078:29 0
77 *272:30 *1533:S1 0
78 *272:30 *1078:16 0
79 *273:18 *1078:39 0
80 *302:8 *1078:8 0.000341619
81 *307:10 *1078:29 0
82 *313:8 *1078:29 0.000181279
83 *316:8 *1078:29 0.000234311
84 *331:25 *1078:47 0
85 *369:12 *1078:29 0
86 *386:14 *1538:S1 0
87 *405:10 *1538:S1 0
88 *440:14 *1078:73 0
89 *440:25 *1538:S1 0
90 *440:25 *1078:73 0
91 *441:8 *1078:73 0
92 *528:8 *1078:73 0
93 *560:8 *1078:103 0.000340704
94 *562:8 *1078:103 0
95 *1076:14 *1078:73 0
96 *1076:32 *1543:S1 2.69898e-05
97 *1076:32 *1078:41 0.000598937
98 *1076:62 *1078:73 0
99 *1076:62 *1078:103 0
*RES
1 *1551:X *1078:8 42.0806 
2 *1078:8 *1078:16 23.1827 
3 *1078:16 *1533:S1 20.1159 
4 *1078:16 *1078:29 49.2494 
5 *1078:29 *1078:39 46.9525 
6 *1078:39 *1078:41 3.9964 
7 *1078:41 *1078:47 49.2494 
8 *1078:47 *1078:51 6.5405 
9 *1078:51 *1530:S0 20 
10 *1078:51 *1529:S0 23.399 
11 *1078:47 *1078:69 5.2942 
12 *1078:69 *1078:73 34.935 
13 *1078:73 *1538:S1 47.7276 
14 *1078:73 *1537:S1 40.7648 
15 *1078:69 *1078:103 45.0985 
16 *1078:103 *1510:S0 20 
17 *1078:41 *1543:S1 20.2833 
18 *1078:29 *1534:S1 20.4661 
*END

*D_NET *1079 0.00425526
*CONN
*I *1554:A I *D sg13cmos5l_buf_1
*I *2575:X O *D sg13cmos5l_buf_1
*CAP
1 *1554:A 0.000348555
2 *2575:X 0.000213388
3 *1079:16 0.00089967
4 *1079:8 0.000764503
5 *1533:A0 *1079:16 0.000234224
6 *1767:A *1079:16 0
7 *1768:A *1079:16 0.000144767
8 *248:12 *1079:16 0
9 *254:22 *1079:8 0.000715247
10 *258:18 *1079:8 0.000555321
11 *263:30 *1079:16 0.000379587
12 *264:8 *1079:8 0
*RES
1 *2575:X *1079:8 44.0582 
2 *1079:8 *1079:16 44.223 
3 *1079:16 *1554:A 42.4823 
*END

*D_NET *1080 0.0234871
*CONN
*I *1513:S0 I *D sg13cmos5l_mux4_1
*I *1511:S0 I *D sg13cmos5l_mux4_1
*I *1542:S1 I *D sg13cmos5l_mux4_1
*I *1512:S0 I *D sg13cmos5l_mux4_1
*I *1518:S1 I *D sg13cmos5l_mux4_1
*I *1523:S1 I *D sg13cmos5l_mux4_1
*I *1521:S1 I *D sg13cmos5l_mux4_1
*I *1551:A I *D sg13cmos5l_buf_1
*I *1552:X O *D sg13cmos5l_buf_1
*CAP
1 *1513:S0 0.000204466
2 *1511:S0 0
3 *1542:S1 0.000526572
4 *1512:S0 0.000132349
5 *1518:S1 0.000123272
6 *1523:S1 0.000889134
7 *1521:S1 0
8 *1551:A 0.000187102
9 *1552:X 0.000144742
10 *1080:131 0.00165936
11 *1080:100 0.00173727
12 *1080:94 0.00059364
13 *1080:90 0.00134868
14 *1080:66 0.00121764
15 *1080:60 0.00187045
16 *1080:49 0.000678389
17 *1080:45 0.00193144
18 *1080:39 0.00205092
19 *1080:31 0.0011528
20 *1080:10 0.00132928
21 *1523:S1 *1518:S0 0
22 *1523:S1 *1523:S0 0
23 *1551:A *1081:38 0
24 *1551:A *1083:8 0.000128663
25 *1080:10 *1552:A 0
26 *1080:10 *1083:8 0.000106392
27 *1080:31 *1081:53 0
28 *1080:31 *1082:33 0
29 *1080:31 *1083:39 0
30 *1080:39 *1081:53 0
31 *1080:45 *1083:39 0
32 *1080:45 *1083:49 0
33 *1080:45 *1086:19 0.00199424
34 *1080:131 *1082:97 0
35 *1510:A0 *1542:S1 0
36 *1510:A2 *1080:131 0
37 *1510:A3 *1542:S1 0.000177224
38 *1510:A3 *1080:131 4.81157e-05
39 *1511:A0 *1513:S0 0
40 *1511:A0 *1080:94 0.000202477
41 *1511:A0 *1080:100 8.11419e-06
42 *1511:A1 *1513:S0 0
43 *1511:A2 *1513:S0 0
44 *1512:A2 *1080:131 0
45 *1512:A3 *1080:131 0
46 *1520:A2 *1080:60 0
47 *1521:A3 *1080:60 0
48 *1524:A2 *1080:45 0
49 *1524:A3 *1080:45 8.0216e-05
50 *1525:A1 *1080:45 0
51 *1538:A0 *1080:31 0
52 *1538:A3 *1080:31 0
53 *1567:A *1080:45 0
54 *1568:A *1080:45 0
55 *1570:A *1080:45 0
56 *1572:A *1080:45 0
57 *1573:A *1080:45 0
58 *1605:A *1080:31 0
59 *1664:A *1080:31 0
60 *1667:A *1080:31 0
61 *1743:A *1080:31 0
62 *1760:A *1080:31 8.02927e-05
63 *1770:A *1080:31 4.78521e-05
64 *1896:A *1080:31 0
65 *1910:A *1080:45 0
66 *1911:A *1080:45 0
67 *1913:A *1080:45 0
68 *1914:A *1080:45 0
69 *1917:A *1080:45 0
70 *1919:A *1080:45 0
71 *1958:A *1542:S1 0
72 *1959:A *1542:S1 0
73 *1960:A *1542:S1 0
74 *1961:A *1542:S1 8.02267e-05
75 *1963:A *1542:S1 0
76 *2020:A *1542:S1 0
77 *2118:A *1080:131 0
78 *2119:A *1080:131 8.03692e-05
79 *2124:A *1080:131 8.02924e-05
80 *2200:A *1080:60 0.000144298
81 *2224:A *1080:60 0
82 *2224:A *1080:66 0.000145031
83 *2225:A *1080:60 8.02267e-05
84 *2257:A *1523:S1 0
85 *2301:A *1523:S1 0.000112426
86 *2302:A *1523:S1 0
87 *2310:A *1518:S1 0
88 *2310:A *1080:66 0
89 *2388:A *1080:100 0.000208747
90 *2392:A *1080:94 4.71556e-05
91 *2479:A *1523:S1 0
92 *2513:A *1518:S1 0
93 *2513:A *1080:66 0
94 *34:8 *1080:131 0.000112618
95 *38:8 *1080:90 0
96 *43:8 *1523:S1 0.000128663
97 *99:8 *1551:A 0
98 *99:8 *1080:10 0
99 *121:27 *1080:31 0
100 *156:10 *1080:31 0
101 *256:10 *1080:31 1.54008e-05
102 *272:30 *1080:31 0
103 *273:10 *1080:31 0
104 *547:25 *1512:S0 1.54008e-05
105 *547:25 *1080:131 0.000208879
106 *564:8 *1542:S1 0
107 *564:16 *1080:131 0
108 *652:10 *1080:100 0
109 *653:8 *1512:S0 0.000175618
110 *653:8 *1080:100 0
111 *694:10 *1080:60 7.96143e-05
112 *710:8 *1080:90 0
113 *712:8 *1080:90 0
114 *715:8 *1080:90 0
115 *718:8 *1080:60 0
116 *752:8 *1523:S1 0
117 *753:10 *1523:S1 0
118 *795:6 *1523:S1 1.73259e-05
119 *803:8 *1518:S1 0
120 *803:8 *1080:60 0
121 *803:8 *1080:90 0
122 *813:8 *1080:90 0
123 *830:12 *1513:S0 1.5412e-05
124 *866:18 *1080:90 0
125 *872:8 *1080:90 0
126 *881:14 *1080:100 0.000213981
127 *886:10 *1080:90 0.000874321
128 *954:24 *1523:S1 0
129 *1008:12 *1523:S1 0
130 *1076:62 *1080:131 0
131 *1076:72 *1542:S1 0
132 *1076:96 *1542:S1 0
*RES
1 *1552:X *1080:10 41.7819 
2 *1080:10 *1551:A 42.2145 
3 *1080:10 *1080:31 29.0764 
4 *1080:31 *1080:39 41.8128 
5 *1080:39 *1080:45 39.0021 
6 *1080:45 *1080:49 20.3322 
7 *1080:49 *1521:S1 20 
8 *1080:49 *1080:60 26.6203 
9 *1080:60 *1080:66 42.0497 
10 *1080:66 *1523:S1 49.767 
11 *1080:66 *1518:S1 40.8078 
12 *1080:60 *1080:90 12.9574 
13 *1080:90 *1080:94 21.4008 
14 *1080:94 *1080:100 5.0985 
15 *1080:100 *1512:S0 21.5347 
16 *1080:100 *1080:131 33.0192 
17 *1080:131 *1542:S1 45.8865 
18 *1080:94 *1511:S0 20 
19 *1080:90 *1513:S0 41.8128 
*END

*D_NET *1081 0.0229732
*CONN
*I *1543:S0 I *D sg13cmos5l_mux4_1
*I *1518:S0 I *D sg13cmos5l_mux4_1
*I *1523:S0 I *D sg13cmos5l_mux4_1
*I *1521:S0 I *D sg13cmos5l_mux4_1
*I *1537:S0 I *D sg13cmos5l_mux4_1
*I *1538:S0 I *D sg13cmos5l_mux4_1
*I *1534:S0 I *D sg13cmos5l_mux4_1
*I *1533:S0 I *D sg13cmos5l_mux4_1
*I *1553:X O *D sg13cmos5l_buf_1
*CAP
1 *1543:S0 0
2 *1518:S0 0.000177749
3 *1523:S0 0.000645063
4 *1521:S0 0
5 *1537:S0 0
6 *1538:S0 0
7 *1534:S0 4.94959e-05
8 *1533:S0 0
9 *1553:X 0.000261452
10 *1081:161 0.000555612
11 *1081:149 0.00119044
12 *1081:119 0.00166936
13 *1081:96 0.00130731
14 *1081:86 0.00134973
15 *1081:66 0.00161854
16 *1081:53 0.000875201
17 *1081:38 0.00234264
18 *1081:25 0.00103122
19 *1081:14 0.00139878
20 *1081:10 0.00197923
21 *1081:8 0.000261452
22 *1081:8 *1553:A 7.55443e-05
23 *1081:8 *1082:8 0.000319524
24 *1081:8 *1082:48 0.000212456
25 *1081:53 *1083:39 0
26 *1081:53 *1084:30 0
27 *1081:66 *1083:39 0
28 *1081:86 *1083:39 0.000695935
29 *1081:86 *1085:12 0
30 *1081:161 *1084:30 0.000555408
31 *1518:A1 *1518:S0 0
32 *1521:A0 *1081:96 0
33 *1521:A0 *1081:119 1.54008e-05
34 *1521:A1 *1081:119 0.000144745
35 *1523:A0 *1523:S0 0.000155256
36 *1523:S1 *1518:S0 0
37 *1523:S1 *1523:S0 0
38 *1533:A0 *1081:25 0
39 *1534:A0 *1534:S0 1.54008e-05
40 *1537:A0 *1081:53 0.000176614
41 *1537:A0 *1081:66 1.54118e-05
42 *1537:A0 *1081:149 0
43 *1537:A2 *1081:86 0
44 *1537:A2 *1081:149 0
45 *1537:S1 *1081:149 0
46 *1538:A0 *1081:38 0
47 *1538:A0 *1081:53 1.54008e-05
48 *1538:S1 *1081:53 0
49 *1538:S1 *1081:149 0
50 *1551:A *1081:38 0
51 *1608:A *1081:38 0.000209637
52 *1659:A *1081:38 4.78195e-05
53 *1661:A *1081:38 0
54 *1682:A *1081:161 0
55 *1683:A *1081:161 0
56 *1688:A *1081:149 0
57 *1688:A *1081:161 0
58 *1689:A *1081:149 0
59 *1693:A *1081:161 0
60 *1694:A *1081:161 0
61 *1774:A *1534:S0 8.00842e-05
62 *1806:A *1081:14 0
63 *1806:A *1081:25 0
64 *1889:A *1081:149 0
65 *1922:A *1081:86 0
66 *1924:A *1081:86 0
67 *1926:A *1081:86 0
68 *1927:A *1081:66 0
69 *1927:A *1081:86 0
70 *1931:A *1081:86 0
71 *1933:A *1081:86 0
72 *1934:A *1081:86 0
73 *2178:A *1081:96 0.000199465
74 *2179:A *1081:86 0
75 *2181:A *1081:86 0
76 *2185:A *1081:86 0
77 *2185:A *1081:96 0
78 *2186:A *1081:96 0
79 *2189:A *1081:96 0
80 *2189:A *1081:119 0
81 *2192:A *1081:119 0
82 *2230:A *1081:119 0
83 *2232:A *1081:119 0
84 *2254:A *1523:S0 0
85 *2307:A *1518:S0 0
86 *2308:A *1081:119 0
87 *2479:A *1518:S0 0.000235055
88 *20:8 *1081:53 0.000448929
89 *20:8 *1081:161 0
90 *27:32 *1081:149 0
91 *47:20 *1081:86 0
92 *53:12 *1081:25 0.00108656
93 *55:20 *1081:161 0
94 *139:20 *1081:53 0
95 *174:10 *1081:161 0
96 *263:30 *1081:25 0
97 *298:27 *1081:25 0
98 *307:10 *1081:25 0
99 *394:8 *1081:53 0
100 *405:10 *1081:149 0
101 *688:14 *1081:119 0.000128897
102 *724:20 *1081:119 0.000369222
103 *751:8 *1518:S0 0
104 *753:10 *1523:S0 0.000875588
105 *777:24 *1523:S0 0.000181608
106 *792:8 *1523:S0 0
107 *793:8 *1523:S0 0
108 *954:24 *1081:119 0
109 *976:8 *1523:S0 0
110 *1008:12 *1081:119 0
111 *1078:29 *1081:25 0
112 *1080:31 *1081:53 0
113 *1080:39 *1081:53 0
*RES
1 *1553:X *1081:8 42.8222 
2 *1081:8 *1081:10 20 
3 *1081:10 *1081:14 2.8634 
4 *1081:14 *1533:S0 20 
5 *1081:14 *1081:25 30.0322 
6 *1081:25 *1534:S0 40.5356 
7 *1081:10 *1081:38 10.2176 
8 *1081:38 *1538:S0 20 
9 *1081:38 *1081:53 48.4666 
10 *1081:53 *1537:S0 20 
11 *1081:53 *1081:66 1.3184 
12 *1081:66 *1081:86 49.9137 
13 *1081:86 *1081:96 4.93885 
14 *1081:96 *1521:S0 20 
15 *1081:96 *1081:119 29.0751 
16 *1081:119 *1523:S0 48.7653 
17 *1081:119 *1518:S0 42.2501 
18 *1081:66 *1081:149 46.1388 
19 *1081:149 *1081:161 46.6847 
20 *1081:161 *1543:S0 20 
*END

*D_NET *1082 0.0243504
*CONN
*I *1542:S0 I *D sg13cmos5l_mux4_1
*I *1514:S1 I *D sg13cmos5l_mux4_1
*I *1531:S I *D sg13cmos5l_mux2_1
*I *1524:S0 I *D sg13cmos5l_mux4_1
*I *1553:A I *D sg13cmos5l_buf_1
*I *1554:X O *D sg13cmos5l_buf_1
*CAP
1 *1542:S0 0
2 *1514:S1 0
3 *1531:S 0.000133405
4 *1524:S0 0
5 *1553:A 0.000122345
6 *1554:X 0
7 *1082:97 0.000357932
8 *1082:89 0.000820509
9 *1082:79 0.00119129
10 *1082:63 0.00179517
11 *1082:48 0.0043603
12 *1082:33 0.00214533
13 *1082:25 0.00375104
14 *1082:8 0.00183326
15 *1082:6 0.00326564
16 *1082:8 *1083:8 0
17 *1082:48 *1083:8 0
18 *1082:97 *1086:64 0
19 *1510:A2 *1082:89 0
20 *1510:A3 *1082:89 0.000128248
21 *1514:A0 *1082:89 0.000434829
22 *1530:A2 *1082:48 0
23 *1530:A2 *1082:63 0
24 *1542:A0 *1082:63 1.54008e-05
25 *1542:A0 *1082:79 0
26 *1542:A2 *1082:63 0
27 *1542:A3 *1082:79 0
28 *1567:A *1082:33 0
29 *1568:A *1082:33 0
30 *1570:A *1082:33 0
31 *1572:A *1082:33 0
32 *1573:A *1082:33 0
33 *1591:A *1082:48 0.000878035
34 *1610:A *1082:25 0
35 *1611:A *1082:25 0
36 *1612:A *1082:25 0
37 *1613:A *1082:25 0
38 *1614:A *1553:A 0
39 *1648:A *1082:25 0
40 *1652:A *1082:25 0
41 *1655:A *1082:25 0
42 *1656:A *1082:25 0
43 *1964:A *1082:79 0
44 *1981:A *1082:79 0.000235228
45 *1993:A *1082:63 0
46 *1998:A *1082:63 0
47 *1999:A *1082:63 0
48 *2003:A *1082:63 0
49 *2004:A *1082:63 0
50 *2013:A *1082:63 0
51 *2104:A *1082:79 0
52 *2107:A *1082:79 0
53 *2132:A *1082:89 0.000208823
54 *2417:A *1082:63 0
55 *30:16 *1082:79 0
56 *30:16 *1082:89 0
57 *33:24 *1082:97 0
58 *34:8 *1082:97 0
59 *51:14 *1531:S 0
60 *87:8 *1082:48 0
61 *89:8 *1082:48 0
62 *93:8 *1082:48 0
63 *121:10 *1082:25 0
64 *139:20 *1082:25 8.02269e-05
65 *139:20 *1082:33 0
66 *219:8 *1082:48 0
67 *221:8 *1082:48 0
68 *231:8 *1082:48 0
69 *235:8 *1082:48 0
70 *236:8 *1082:48 0
71 *242:16 *1553:A 8.0216e-05
72 *242:16 *1082:25 0
73 *246:8 *1082:48 0
74 *267:10 *1082:48 0.000343266
75 *302:8 *1082:48 0.000235228
76 *371:8 *1082:48 0
77 *394:8 *1082:33 0
78 *395:8 *1082:33 0
79 *475:8 *1082:79 0.000288917
80 *487:10 *1082:48 0
81 *510:10 *1082:63 0.000143358
82 *625:10 *1082:97 0.000234224
83 *636:10 *1082:89 0.000213787
84 *889:8 *1082:63 0
85 *900:12 *1531:S 0
86 *900:12 *1082:63 0
87 *933:8 *1082:63 0
88 *1063:10 *1082:33 0
89 *1076:32 *1082:48 0
90 *1076:72 *1082:79 0
91 *1076:96 *1082:79 0
92 *1076:121 *1082:79 0
93 *1076:121 *1082:89 0
94 *1078:8 *1082:48 0.000446853
95 *1078:39 *1082:48 0
96 *1080:31 *1082:33 0
97 *1080:131 *1082:97 0
98 *1081:8 *1553:A 7.55443e-05
99 *1081:8 *1082:8 0.000319524
100 *1081:8 *1082:48 0.000212456
*RES
1 *1554:X *1082:6 40 
2 *1082:6 *1082:8 1.5862 
3 *1082:8 *1553:A 41.3802 
4 *1082:8 *1082:25 49.8365 
5 *1082:25 *1082:33 34.523 
6 *1082:33 *1524:S0 20 
7 *1082:6 *1082:48 34.814 
8 *1082:48 *1531:S 41.1845 
9 *1082:48 *1082:63 30.8047 
10 *1082:63 *1082:79 48.0494 
11 *1082:79 *1082:89 45.6856 
12 *1082:89 *1082:97 44.1123 
13 *1082:97 *1514:S1 20 
14 *1082:63 *1542:S0 20 
*END

*D_NET *1083 0.00896048
*CONN
*I *1524:S1 I *D sg13cmos5l_mux4_1
*I *1552:A I *D sg13cmos5l_buf_1
*I *2576:X O *D sg13cmos5l_buf_1
*CAP
1 *1524:S1 0
2 *1552:A 0.000150695
3 *2576:X 0.000907514
4 *1083:49 0.000460529
5 *1083:39 0.00251378
6 *1083:8 0.00311146
7 *1083:49 *1085:12 0
8 *1524:A3 *1083:49 0
9 *1525:A1 *1083:49 8.41464e-05
10 *1538:S1 *1083:39 0
11 *1551:A *1083:8 0.000128663
12 *1667:A *1083:39 0
13 *1669:A *1083:39 0.000241346
14 *1885:A *1083:39 0
15 *1886:A *1083:39 0
16 *1888:A *1083:39 0
17 *1889:A *1083:39 0
18 *1891:A *1083:39 0
19 *1893:A *1083:39 0
20 *1896:A *1083:39 0
21 *1910:A *1083:39 0
22 *1911:A *1083:39 0
23 *1912:A *1083:39 0
24 *1913:A *1083:39 0
25 *1914:A *1083:39 0
26 *1917:A *1083:39 0
27 *1919:A *1083:39 0
28 *1922:A *1083:39 0
29 *2182:A *1083:49 0
30 *2185:A *1083:49 4.78195e-05
31 *2186:A *1083:49 0
32 *45:14 *1083:49 0
33 *47:20 *1083:49 0
34 *95:8 *1083:39 0.000288173
35 *97:8 *1083:39 0
36 *104:14 *1083:8 0
37 *105:10 *1083:8 0
38 *117:8 *1083:8 0
39 *165:8 *1083:39 0
40 *240:8 *1083:8 0
41 *255:14 *1083:39 0
42 *272:30 *1552:A 0.000176274
43 *272:30 *1083:39 0
44 *381:10 *1083:39 0
45 *386:14 *1083:39 4.77534e-05
46 *415:8 *1083:49 0
47 *1080:10 *1552:A 0
48 *1080:10 *1083:8 0.000106392
49 *1080:31 *1083:39 0
50 *1080:45 *1083:39 0
51 *1080:45 *1083:49 0
52 *1081:53 *1083:39 0
53 *1081:66 *1083:39 0
54 *1081:86 *1083:39 0.000695935
55 *1082:8 *1083:8 0
56 *1082:48 *1083:8 0
*RES
1 *2576:X *1083:8 49.4966 
2 *1083:8 *1552:A 41.4008 
3 *1083:8 *1083:39 41.4929 
4 *1083:39 *1083:49 45.0316 
5 *1083:49 *1524:S1 20 
*END

*D_NET *1084 0.00872961
*CONN
*I *1550:A I *D sg13cmos5l_buf_1
*I *1549:A I *D sg13cmos5l_buf_1
*I *2577:X O *D sg13cmos5l_buf_1
*CAP
1 *1550:A 0.000298177
2 *1549:A 0
3 *2577:X 0.000686333
4 *1084:36 0.000401438
5 *1084:30 0.00253861
6 *1084:12 0.00252533
7 *1517:B *1550:A 0
8 *1538:A3 *1084:30 0
9 *1540:C *1550:A 0.000161883
10 *1540:C *1084:30 0.000209966
11 *1544:S *1084:30 0
12 *1544:S *1084:36 0
13 *1661:A *1084:30 0
14 *1697:A *1084:30 0.00017718
15 *1947:A *1084:30 8.00521e-05
16 *20:8 *1084:30 0
17 *27:32 *1084:36 0
18 *36:21 *1550:A 0.000112684
19 *52:8 *1084:36 0
20 *55:20 *1084:30 0
21 *55:30 *1550:A 4.77425e-05
22 *55:30 *1084:30 0.000278642
23 *121:27 *1084:12 0
24 *121:27 *1084:30 0
25 *139:20 *1084:30 0
26 *148:8 *1084:12 0.000341292
27 *153:8 *1084:12 0
28 *181:8 *1084:30 0
29 *192:10 *1084:30 0.00023464
30 *264:20 *1084:12 0
31 *381:10 *1084:30 0
32 *384:8 *1084:30 0
33 *386:14 *1084:30 0
34 *1076:14 *1084:36 0
35 *1077:10 *1550:A 8.02267e-05
36 *1078:73 *1084:30 0
37 *1081:53 *1084:30 0
38 *1081:161 *1084:30 0.000555408
*RES
1 *2577:X *1084:12 48.034 
2 *1084:12 *1084:30 40.6412 
3 *1084:30 *1084:36 43.811 
4 *1084:36 *1549:A 20 
5 *1084:30 *1550:A 23.3166 
*END

*D_NET *1085 0.00728353
*CONN
*I *1532:A I *D sg13cmos5l_nor3_1
*I *1536:A I *D sg13cmos5l_nor3_1
*I *1541:B I *D sg13cmos5l_nand2_1
*I *1515:A I *D sg13cmos5l_or2_1
*I *1519:A I *D sg13cmos5l_inv_1
*I *2578:X O *D sg13cmos5l_buf_1
*CAP
1 *1532:A 0
2 *1536:A 0
3 *1541:B 0.000356463
4 *1515:A 0.000173618
5 *1519:A 0
6 *2578:X 0
7 *1085:74 0.000142135
8 *1085:50 0.000629897
9 *1085:36 0.000688303
10 *1085:25 0.000715687
11 *1085:12 0.00205006
12 *1085:6 0.00178073
13 *1515:A *1086:40 0
14 *1085:25 *1086:48 0.000128663
15 *1085:36 *1086:48 0
16 *1085:74 *1086:48 0
17 *1517:B *1085:36 0
18 *1544:S *1541:B 0
19 *1546:A1 *1541:B 0
20 *1546:A2 *1541:B 0
21 *1547:B *1085:50 0
22 *1548:A1 *1515:A 0
23 *1548:A1 *1085:36 0
24 *1548:B1 *1515:A 0
25 *1548:B1 *1085:36 0
26 *1939:A *1085:12 0
27 *1948:A *1541:B 0
28 *22:8 *1085:25 0
29 *22:8 *1085:74 0.000181608
30 *27:32 *1085:12 0
31 *36:21 *1085:36 0
32 *36:21 *1085:50 1.54556e-05
33 *36:25 *1541:B 0
34 *39:10 *1085:12 8.02063e-05
35 *48:8 *1085:25 0
36 *52:8 *1085:74 0.000340704
37 *56:8 *1085:74 0
38 *59:8 *1085:12 0
39 *60:8 *1085:12 0
40 *415:8 *1085:12 0
41 *419:8 *1085:12 0
42 *436:8 *1085:12 0
43 *443:12 *1541:B 0
44 *1054:8 *1085:12 0
45 *1063:10 *1085:12 0
46 *1064:10 *1085:12 0
47 *1076:32 *1541:B 0
48 *1077:19 *1085:12 0
49 *1077:19 *1085:25 0
50 *1077:34 *1085:25 0
51 *1081:86 *1085:12 0
52 *1083:49 *1085:12 0
*RES
1 *2578:X *1085:6 40 
2 *1085:6 *1085:12 40.7545 
3 *1085:12 *1519:A 20 
4 *1085:12 *1085:25 43.1415 
5 *1085:25 *1515:A 21.6171 
6 *1085:25 *1085:36 2.6786 
7 *1085:36 *1085:50 2.95095 
8 *1085:50 *1541:B 23.4608 
9 *1085:50 *1536:A 20 
10 *1085:36 *1085:74 42.1527 
11 *1085:74 *1532:A 20 
*END

*D_NET *1086 0.0143829
*CONN
*I *1514:S0 I *D sg13cmos5l_mux4_1
*I *1516:A I *D sg13cmos5l_inv_1
*I *1532:B I *D sg13cmos5l_nor3_1
*I *1522:B I *D sg13cmos5l_nor2_1
*I *1525:S I *D sg13cmos5l_mux2_1
*I *2579:X O *D sg13cmos5l_buf_1
*CAP
1 *1514:S0 0
2 *1516:A 0
3 *1532:B 0
4 *1522:B 0.000183917
5 *1525:S 0
6 *2579:X 0.00102027
7 *1086:64 0.00119338
8 *1086:48 0.000508348
9 *1086:40 0.000771224
10 *1086:34 0.00196942
11 *1086:19 0.0014704
12 *1086:10 0.0017936
13 *1512:A2 *1086:64 0
14 *1512:A3 *1086:64 0
15 *1515:A *1086:40 0
16 *1517:B *1086:40 0
17 *1520:A1 *1086:40 0
18 *1520:A2 *1522:B 0.000272878
19 *1520:A2 *1086:34 0
20 *1520:A2 *1086:40 0
21 *1521:A2 *1086:19 0
22 *1524:A0 *1086:10 0
23 *1526:A1 *1522:B 0
24 *1547:D *1086:48 0
25 *1548:A1 *1086:34 0
26 *1548:A1 *1086:40 0
27 *1548:B1 *1086:48 0
28 *2532:A *1086:10 0
29 *2579:A *1086:10 0
30 *22:8 *1086:48 0
31 *27:18 *1086:10 0.00012816
32 *33:24 *1086:64 0
33 *34:12 *1086:64 0.00252755
34 *48:8 *1086:48 0
35 *48:8 *1086:64 0
36 *57:16 *1086:48 0
37 *551:8 *1086:64 0
38 *582:22 *1086:64 0
39 *616:8 *1086:64 0.00034079
40 *618:12 *1086:64 0
41 *625:10 *1086:64 0
42 *629:8 *1086:64 0
43 *666:8 *1086:64 0
44 *724:20 *1086:19 0
45 *1077:34 *1086:40 0
46 *1077:42 *1086:34 8.00842e-05
47 *1080:45 *1086:19 0.00199424
48 *1082:97 *1086:64 0
49 *1085:25 *1086:48 0.000128663
50 *1085:36 *1086:48 0
51 *1085:74 *1086:48 0
*RES
1 *2579:X *1086:10 49.785 
2 *1086:10 *1525:S 40 
3 *1086:10 *1086:19 11.227 
4 *1086:19 *1522:B 41.8334 
5 *1086:19 *1086:34 24.6247 
6 *1086:34 *1086:40 2.4149 
7 *1086:40 *1086:48 45.5826 
8 *1086:48 *1532:B 20 
9 *1086:40 *1516:A 20 
10 *1086:34 *1086:64 37.2319 
11 *1086:64 *1514:S0 40 
*END

*D_NET *1087 0.00090947
*CONN
*I *1545:A I *D sg13cmos5l_nor2b_1
*I *1527:A I *D sg13cmos5l_nand2_1
*I *2580:X O *D sg13cmos5l_buf_1
*CAP
1 *1545:A 0
2 *1527:A 0
3 *2580:X 0.000201794
4 *1087:14 8.39767e-05
5 *1087:8 0.000285771
6 *2538:A *1087:8 0.000209681
7 *47:8 *1087:14 0
8 *1036:10 *1087:14 0
9 *1068:16 *1087:8 0
10 *1068:28 *1087:8 0
11 *1068:28 *1087:14 0.000128247
*RES
1 *2580:X *1087:8 22.2454 
2 *1087:8 *1087:14 41.0918 
3 *1087:14 *1527:A 20 
4 *1087:8 *1545:A 20 
*END

*D_NET *1088 0.00940943
*CONN
*I *1796:A I *D sg13cmos5l_inv_1
*I *2588:A I *D sg13cmos5l_buf_1
*I *1685:Y O *D sg13cmos5l_inv_1
*CAP
1 *1796:A 7.28918e-05
2 *2588:A 0
3 *1685:Y 0.000134915
4 *1088:20 0.00173479
5 *1088:14 0.00385362
6 *1088:8 0.00218085
7 *1591:A *1088:14 0
8 *1640:A *1088:14 0
9 *1651:A *1088:14 0
10 *1662:A *1088:14 0
11 *1684:A *1088:14 4.77425e-05
12 *1712:A *1088:14 0.000241428
13 *1713:A *1088:14 0
14 *1722:A *1088:14 0
15 *1723:A *1088:14 0
16 *1895:A *1088:20 0
17 *1907:A *1796:A 0
18 *1907:A *1088:20 0.000209582
19 *24:12 *1088:8 0
20 *51:24 *1088:14 0.000273786
21 *77:12 *1088:20 0
22 *401:24 *1088:14 0
23 *423:8 *1088:20 0.000659812
24 *434:10 *1088:20 0
25 *445:8 *1088:20 0
26 *467:8 *1088:20 0
*RES
1 *1685:Y *1088:8 41.339 
2 *1088:8 *1088:14 33.8638 
3 *1088:14 *1088:20 38.4988 
4 *1088:20 *2588:A 40 
5 *1088:14 *1796:A 20.9167 
*END

*D_NET *1089 0.000384173
*CONN
*I *2589:A I *D sg13cmos5l_buf_1
*I *1555:X O *D sg13cmos5l_buf_1
*CAP
1 *2589:A 0.000192087
2 *1555:X 0.000192087
3 osc_tap[0] *2589:A 0
4 *2517:A *2589:A 0
*RES
1 *1555:X *2589:A 41.6171 
*END
