*SPEF "ieee 1481-1999"
*DESIGN "simple_ro"
*DATE "17:21:54 Thursday August 06, 2026"
*VENDOR "The OpenROAD Project"
*PROGRAM "OpenROAD"
*VERSION "dcf36133a369abc8f3c5e5738cd4d82e4903c0e0"
*DESIGN_FLOW "NAME_SCOPE LOCAL" "PIN_CAP NONE"
*DIVIDER /
*DELIMITER :
*BUS_DELIMITER []
*T_UNIT 1 NS
*C_UNIT 1 PF
*R_UNIT 1 OHM
*L_UNIT 1 HENRY

*NAME_MAP
*3 enable
*4 osc
*5 inverter_out\[0\]
*6 inverter_out\[1\]
*7 inverter_out\[2\]
*8 inverter_out\[3\]
*9 inverter_out\[4\]
*10 inverter_out\[5\]
*11 inverter_out\[6\]
*12 inverter_out\[7\]
*13 inverter_out\[8\]
*14 net1
*15 net2
*16 FILLER_0_0
*17 FILLER_0_105
*18 FILLER_0_112
*19 FILLER_0_119
*20 FILLER_0_126
*21 FILLER_0_133
*22 FILLER_0_14
*23 FILLER_0_140
*24 FILLER_0_147
*25 FILLER_0_149
*26 FILLER_0_21
*27 FILLER_0_28
*28 FILLER_0_35
*29 FILLER_0_42
*30 FILLER_0_49
*31 FILLER_0_56
*32 FILLER_0_63
*33 FILLER_0_7
*34 FILLER_0_70
*35 FILLER_0_77
*36 FILLER_0_84
*37 FILLER_0_91
*38 FILLER_0_98
*39 FILLER_10_104
*40 FILLER_10_11
*41 FILLER_10_111
*42 FILLER_10_118
*43 FILLER_10_125
*44 FILLER_10_132
*45 FILLER_10_139
*46 FILLER_10_146
*47 FILLER_10_18
*48 FILLER_10_25
*49 FILLER_10_32
*50 FILLER_10_4
*51 FILLER_10_55
*52 FILLER_10_62
*53 FILLER_10_69
*54 FILLER_10_76
*55 FILLER_10_83
*56 FILLER_10_90
*57 FILLER_10_97
*58 FILLER_11_0
*59 FILLER_11_105
*60 FILLER_11_112
*61 FILLER_11_119
*62 FILLER_11_126
*63 FILLER_11_133
*64 FILLER_11_14
*65 FILLER_11_140
*66 FILLER_11_147
*67 FILLER_11_149
*68 FILLER_11_21
*69 FILLER_11_28
*70 FILLER_11_37
*71 FILLER_11_63
*72 FILLER_11_7
*73 FILLER_11_70
*74 FILLER_11_77
*75 FILLER_11_84
*76 FILLER_11_91
*77 FILLER_11_98
*78 FILLER_12_0
*79 FILLER_12_101
*80 FILLER_12_108
*81 FILLER_12_115
*82 FILLER_12_122
*83 FILLER_12_129
*84 FILLER_12_136
*85 FILLER_12_14
*86 FILLER_12_143
*87 FILLER_12_21
*88 FILLER_12_28
*89 FILLER_12_35
*90 FILLER_12_42
*91 FILLER_12_66
*92 FILLER_12_7
*93 FILLER_12_73
*94 FILLER_12_80
*95 FILLER_12_87
*96 FILLER_12_94
*97 FILLER_13_0
*98 FILLER_13_104
*99 FILLER_13_111
*100 FILLER_13_118
*101 FILLER_13_125
*102 FILLER_13_132
*103 FILLER_13_139
*104 FILLER_13_14
*105 FILLER_13_146
*106 FILLER_13_21
*107 FILLER_13_28
*108 FILLER_13_48
*109 FILLER_13_55
*110 FILLER_13_62
*111 FILLER_13_69
*112 FILLER_13_7
*113 FILLER_13_76
*114 FILLER_13_83
*115 FILLER_13_90
*116 FILLER_13_97
*117 FILLER_14_0
*118 FILLER_14_105
*119 FILLER_14_112
*120 FILLER_14_119
*121 FILLER_14_126
*122 FILLER_14_133
*123 FILLER_14_14
*124 FILLER_14_140
*125 FILLER_14_147
*126 FILLER_14_149
*127 FILLER_14_21
*128 FILLER_14_28
*129 FILLER_14_35
*130 FILLER_14_42
*131 FILLER_14_49
*132 FILLER_14_56
*133 FILLER_14_63
*134 FILLER_14_7
*135 FILLER_14_70
*136 FILLER_14_77
*137 FILLER_14_84
*138 FILLER_14_91
*139 FILLER_14_98
*140 FILLER_15_0
*141 FILLER_15_105
*142 FILLER_15_112
*143 FILLER_15_119
*144 FILLER_15_126
*145 FILLER_15_133
*146 FILLER_15_14
*147 FILLER_15_140
*148 FILLER_15_147
*149 FILLER_15_149
*150 FILLER_15_21
*151 FILLER_15_28
*152 FILLER_15_35
*153 FILLER_15_42
*154 FILLER_15_49
*155 FILLER_15_56
*156 FILLER_15_63
*157 FILLER_15_7
*158 FILLER_15_70
*159 FILLER_15_77
*160 FILLER_15_84
*161 FILLER_15_91
*162 FILLER_15_98
*163 FILLER_16_0
*164 FILLER_16_105
*165 FILLER_16_112
*166 FILLER_16_119
*167 FILLER_16_126
*168 FILLER_16_133
*169 FILLER_16_14
*170 FILLER_16_140
*171 FILLER_16_147
*172 FILLER_16_149
*173 FILLER_16_21
*174 FILLER_16_28
*175 FILLER_16_35
*176 FILLER_16_42
*177 FILLER_16_49
*178 FILLER_16_56
*179 FILLER_16_63
*180 FILLER_16_7
*181 FILLER_16_70
*182 FILLER_16_77
*183 FILLER_16_84
*184 FILLER_16_91
*185 FILLER_16_98
*186 FILLER_17_0
*187 FILLER_17_105
*188 FILLER_17_112
*189 FILLER_17_119
*190 FILLER_17_126
*191 FILLER_17_133
*192 FILLER_17_14
*193 FILLER_17_140
*194 FILLER_17_147
*195 FILLER_17_149
*196 FILLER_17_21
*197 FILLER_17_28
*198 FILLER_17_35
*199 FILLER_17_42
*200 FILLER_17_49
*201 FILLER_17_56
*202 FILLER_17_63
*203 FILLER_17_7
*204 FILLER_17_70
*205 FILLER_17_77
*206 FILLER_17_84
*207 FILLER_17_91
*208 FILLER_17_98
*209 FILLER_18_0
*210 FILLER_18_100
*211 FILLER_18_107
*212 FILLER_18_114
*213 FILLER_18_121
*214 FILLER_18_128
*215 FILLER_18_135
*216 FILLER_18_14
*217 FILLER_18_142
*218 FILLER_18_149
*219 FILLER_18_21
*220 FILLER_18_28
*221 FILLER_18_35
*222 FILLER_18_42
*223 FILLER_18_49
*224 FILLER_18_56
*225 FILLER_18_63
*226 FILLER_18_7
*227 FILLER_18_70
*228 FILLER_18_74
*229 FILLER_18_79
*230 FILLER_18_86
*231 FILLER_18_93
*232 FILLER_1_0
*233 FILLER_1_105
*234 FILLER_1_112
*235 FILLER_1_119
*236 FILLER_1_126
*237 FILLER_1_133
*238 FILLER_1_14
*239 FILLER_1_140
*240 FILLER_1_147
*241 FILLER_1_149
*242 FILLER_1_21
*243 FILLER_1_28
*244 FILLER_1_35
*245 FILLER_1_42
*246 FILLER_1_49
*247 FILLER_1_56
*248 FILLER_1_63
*249 FILLER_1_7
*250 FILLER_1_70
*251 FILLER_1_77
*252 FILLER_1_84
*253 FILLER_1_91
*254 FILLER_1_98
*255 FILLER_2_0
*256 FILLER_2_105
*257 FILLER_2_112
*258 FILLER_2_119
*259 FILLER_2_126
*260 FILLER_2_133
*261 FILLER_2_14
*262 FILLER_2_140
*263 FILLER_2_147
*264 FILLER_2_149
*265 FILLER_2_21
*266 FILLER_2_28
*267 FILLER_2_35
*268 FILLER_2_42
*269 FILLER_2_49
*270 FILLER_2_56
*271 FILLER_2_63
*272 FILLER_2_7
*273 FILLER_2_70
*274 FILLER_2_77
*275 FILLER_2_84
*276 FILLER_2_91
*277 FILLER_2_98
*278 FILLER_3_0
*279 FILLER_3_105
*280 FILLER_3_112
*281 FILLER_3_119
*282 FILLER_3_126
*283 FILLER_3_133
*284 FILLER_3_14
*285 FILLER_3_140
*286 FILLER_3_147
*287 FILLER_3_149
*288 FILLER_3_21
*289 FILLER_3_28
*290 FILLER_3_35
*291 FILLER_3_42
*292 FILLER_3_49
*293 FILLER_3_56
*294 FILLER_3_63
*295 FILLER_3_7
*296 FILLER_3_70
*297 FILLER_3_77
*298 FILLER_3_84
*299 FILLER_3_91
*300 FILLER_3_98
*301 FILLER_4_0
*302 FILLER_4_105
*303 FILLER_4_112
*304 FILLER_4_119
*305 FILLER_4_126
*306 FILLER_4_133
*307 FILLER_4_14
*308 FILLER_4_140
*309 FILLER_4_147
*310 FILLER_4_149
*311 FILLER_4_21
*312 FILLER_4_28
*313 FILLER_4_35
*314 FILLER_4_42
*315 FILLER_4_49
*316 FILLER_4_56
*317 FILLER_4_63
*318 FILLER_4_7
*319 FILLER_4_70
*320 FILLER_4_77
*321 FILLER_4_84
*322 FILLER_4_91
*323 FILLER_4_98
*324 FILLER_5_0
*325 FILLER_5_105
*326 FILLER_5_112
*327 FILLER_5_119
*328 FILLER_5_126
*329 FILLER_5_133
*330 FILLER_5_14
*331 FILLER_5_140
*332 FILLER_5_147
*333 FILLER_5_149
*334 FILLER_5_21
*335 FILLER_5_28
*336 FILLER_5_35
*337 FILLER_5_42
*338 FILLER_5_49
*339 FILLER_5_56
*340 FILLER_5_63
*341 FILLER_5_7
*342 FILLER_5_70
*343 FILLER_5_77
*344 FILLER_5_84
*345 FILLER_5_91
*346 FILLER_5_98
*347 FILLER_6_0
*348 FILLER_6_105
*349 FILLER_6_112
*350 FILLER_6_119
*351 FILLER_6_126
*352 FILLER_6_133
*353 FILLER_6_14
*354 FILLER_6_140
*355 FILLER_6_147
*356 FILLER_6_149
*357 FILLER_6_21
*358 FILLER_6_28
*359 FILLER_6_35
*360 FILLER_6_42
*361 FILLER_6_49
*362 FILLER_6_56
*363 FILLER_6_63
*364 FILLER_6_7
*365 FILLER_6_70
*366 FILLER_6_77
*367 FILLER_6_84
*368 FILLER_6_91
*369 FILLER_6_98
*370 FILLER_7_0
*371 FILLER_7_105
*372 FILLER_7_112
*373 FILLER_7_119
*374 FILLER_7_126
*375 FILLER_7_133
*376 FILLER_7_14
*377 FILLER_7_140
*378 FILLER_7_147
*379 FILLER_7_149
*380 FILLER_7_21
*381 FILLER_7_28
*382 FILLER_7_35
*383 FILLER_7_42
*384 FILLER_7_49
*385 FILLER_7_56
*386 FILLER_7_63
*387 FILLER_7_7
*388 FILLER_7_70
*389 FILLER_7_77
*390 FILLER_7_84
*391 FILLER_7_91
*392 FILLER_7_98
*393 FILLER_8_0
*394 FILLER_8_105
*395 FILLER_8_112
*396 FILLER_8_119
*397 FILLER_8_126
*398 FILLER_8_133
*399 FILLER_8_14
*400 FILLER_8_140
*401 FILLER_8_147
*402 FILLER_8_149
*403 FILLER_8_21
*404 FILLER_8_28
*405 FILLER_8_35
*406 FILLER_8_42
*407 FILLER_8_49
*408 FILLER_8_56
*409 FILLER_8_63
*410 FILLER_8_7
*411 FILLER_8_70
*412 FILLER_8_77
*413 FILLER_8_84
*414 FILLER_8_91
*415 FILLER_8_98
*416 FILLER_9_0
*417 FILLER_9_105
*418 FILLER_9_112
*419 FILLER_9_119
*420 FILLER_9_126
*421 FILLER_9_133
*422 FILLER_9_14
*423 FILLER_9_140
*424 FILLER_9_147
*425 FILLER_9_149
*426 FILLER_9_21
*427 FILLER_9_28
*428 FILLER_9_49
*429 FILLER_9_56
*430 FILLER_9_63
*431 FILLER_9_7
*432 FILLER_9_70
*433 FILLER_9_77
*434 FILLER_9_84
*435 FILLER_9_91
*436 FILLER_9_98
*437 _0_
*438 genblk1\[0\]\.genblk1\.inverter_inst
*439 genblk1\[1\]\.genblk1\.genblk1\.inverter_inst
*440 genblk1\[2\]\.genblk1\.genblk1\.inverter_inst
*441 genblk1\[3\]\.genblk1\.genblk1\.inverter_inst
*442 genblk1\[4\]\.genblk1\.genblk1\.inverter_inst
*443 genblk1\[5\]\.genblk1\.genblk1\.inverter_inst
*444 genblk1\[6\]\.genblk1\.genblk1\.inverter_inst
*445 genblk1\[7\]\.genblk1\.genblk1\.inverter_inst
*446 genblk1\[8\]\.genblk1\.genblk1\.inverter_inst
*447 input1
*448 output2

*PORTS
enable I
osc O

*D_NET *3 0.000715249
*CONN
*P enable I
*I *447:A I *D sg13cmos5l_buf_1
*CAP
1 enable 0.000357625
2 *447:A 0.000357625
*RES
1 enable *447:A 44.223 
*END

*D_NET *4 0.00049185
*CONN
*P osc O
*I *448:X O *D sg13cmos5l_buf_1
*CAP
1 osc 0.000245925
2 *448:X 0.000245925
*RES
1 *448:X osc 22.9973 
*END

*D_NET *5 0.000390866
*CONN
*I *439:A I *D sg13cmos5l_inv_1
*I *438:Y O *D sg13cmos5l_inv_16
*CAP
1 *439:A 0.000195433
2 *438:Y 0.000195433
3 *439:A *440:A 0
4 *439:A *15:12 0
*RES
1 *438:Y *439:A 42.0497 
*END

*D_NET *6 0.000222534
*CONN
*I *440:A I *D sg13cmos5l_inv_16
*I *439:Y O *D sg13cmos5l_inv_1
*CAP
1 *440:A 0.000111267
2 *439:Y 0.000111267
3 *439:A *440:A 0
*RES
1 *439:Y *440:A 41.3802 
*END

*D_NET *7 0.000133739
*CONN
*I *441:A I *D sg13cmos5l_inv_1
*I *440:Y O *D sg13cmos5l_inv_16
*CAP
1 *441:A 6.68694e-05
2 *440:Y 6.68694e-05
3 *441:A *445:A 0
*RES
1 *440:Y *441:A 40.8446 
*END

*D_NET *8 0.00038592
*CONN
*I *442:A I *D sg13cmos5l_inv_16
*I *441:Y O *D sg13cmos5l_inv_1
*CAP
1 *442:A 0.00019296
2 *441:Y 0.00019296
3 *442:A *444:A 0
4 *442:A *445:A 0
*RES
1 *441:Y *442:A 41.9673 
*END

*D_NET *9 0.00113014
*CONN
*I *443:A I *D sg13cmos5l_inv_1
*I *442:Y O *D sg13cmos5l_inv_16
*CAP
1 *443:A 0.000314236
2 *442:Y 0.000314236
3 *443:A *444:A 0.000501666
4 *443:A *445:A 0
*RES
1 *442:Y *443:A 43.7801 
*END

*D_NET *10 0.001499
*CONN
*I *444:A I *D sg13cmos5l_inv_16
*I *443:Y O *D sg13cmos5l_inv_1
*CAP
1 *444:A 0.000498667
2 *443:Y 0.000498667
3 *444:A *445:A 0
4 *442:A *444:A 0
5 *443:A *444:A 0.000501666
*RES
1 *443:Y *444:A 45.8916 
*END

*D_NET *11 0.00126232
*CONN
*I *445:A I *D sg13cmos5l_inv_1
*I *444:Y O *D sg13cmos5l_inv_16
*CAP
1 *445:A 0.000631161
2 *444:Y 0.000631161
3 *445:A *437:A 0
4 *445:A *437:B 0
5 *441:A *445:A 0
6 *442:A *445:A 0
7 *443:A *445:A 0
8 *444:A *445:A 0
*RES
1 *444:Y *445:A 46.3213 
*END

*D_NET *12 0.000502602
*CONN
*I *446:A I *D sg13cmos5l_inv_16
*I *445:Y O *D sg13cmos5l_inv_1
*CAP
1 *446:A 0.000251301
2 *445:Y 0.000251301
3 *446:A *437:B 0
*RES
1 *445:Y *446:A 42.9561 
*END

*D_NET *13 0.000769302
*CONN
*I *437:B I *D sg13cmos5l_and2_1
*I *446:Y O *D sg13cmos5l_inv_16
*CAP
1 *437:B 0.000344466
2 *446:Y 0.000344466
3 *437:B *437:A 8.03692e-05
4 *445:A *437:B 0
5 *446:A *437:B 0
*RES
1 *446:Y *437:B 43.7801 
*END

*D_NET *14 0.00164354
*CONN
*I *437:A I *D sg13cmos5l_and2_1
*I *447:X O *D sg13cmos5l_buf_1
*CAP
1 *437:A 0.000178458
2 *447:X 0.000603128
3 *14:8 0.000781587
4 *437:B *437:A 8.03692e-05
5 *445:A *437:A 0
*RES
1 *447:X *14:8 47.519 
2 *14:8 *437:A 42.0497 
*END

*D_NET *15 0.00425971
*CONN
*I *438:A I *D sg13cmos5l_inv_16
*I *448:A I *D sg13cmos5l_buf_1
*I *437:X O *D sg13cmos5l_and2_1
*CAP
1 *438:A 0
2 *448:A 0.00114017
3 *437:X 0.000567881
4 *15:18 0.00141901
5 *15:12 0.000421802
6 *15:8 0.000710848
7 *439:A *15:12 0
*RES
1 *437:X *15:8 47.0246 
2 *15:8 *15:12 21.4008 
3 *15:12 *15:18 43.5638 
4 *15:18 *448:A 31.9995 
5 *15:12 *438:A 20 
*END
