*SPEF "ieee 1481-1999"
*DESIGN "e_load_uniform"
*DATE "22:17:50 Thursday October 01, 2026"
*VENDOR "The OpenROAD Project"
*PROGRAM "OpenROAD"
*VERSION "dcf36133a369abc8f3c5e5738cd4d82e4903c0e0"
*DESIGN_FLOW "NAME_SCOPE LOCAL" "PIN_CAP NONE"
*DIVIDER /
*DELIMITER :
*BUS_DELIMITER []
*T_UNIT 1 NS
*C_UNIT 1 PF
*R_UNIT 1 OHM
*L_UNIT 1 HENRY

*NAME_MAP
*3 en[0]
*4 en[1]
*5 en[2]
*6 en[3]
*7 en[4]
*8 en[5]
*9 en[6]
*10 en[7]
*11 osc[0]
*12 osc[1]
*13 osc[2]
*14 osc[3]
*15 osc[4]
*16 osc[5]
*17 osc[6]
*18 osc[7]
*19 _00_
*20 _01_
*21 _02_
*22 _03_
*23 _04_
*24 _05_
*25 _06_
*26 _07_
*27 genblk1\[0\]\.n1
*28 genblk1\[0\]\.n10
*29 genblk1\[0\]\.n11
*30 genblk1\[0\]\.n12
*31 genblk1\[0\]\.n13
*32 genblk1\[0\]\.n14
*33 genblk1\[0\]\.n15
*34 genblk1\[0\]\.n16
*35 genblk1\[0\]\.n17
*36 genblk1\[0\]\.n18
*37 genblk1\[0\]\.n2
*38 genblk1\[0\]\.n3
*39 genblk1\[0\]\.n4
*40 genblk1\[0\]\.n5
*41 genblk1\[0\]\.n6
*42 genblk1\[0\]\.n7
*43 genblk1\[0\]\.n8
*44 genblk1\[0\]\.n9
*45 genblk1\[1\]\.n1
*46 genblk1\[1\]\.n10
*47 genblk1\[1\]\.n11
*48 genblk1\[1\]\.n12
*49 genblk1\[1\]\.n13
*50 genblk1\[1\]\.n14
*51 genblk1\[1\]\.n15
*52 genblk1\[1\]\.n16
*53 genblk1\[1\]\.n17
*54 genblk1\[1\]\.n18
*55 genblk1\[1\]\.n2
*56 genblk1\[1\]\.n3
*57 genblk1\[1\]\.n4
*58 genblk1\[1\]\.n5
*59 genblk1\[1\]\.n6
*60 genblk1\[1\]\.n7
*61 genblk1\[1\]\.n8
*62 genblk1\[1\]\.n9
*63 genblk1\[2\]\.n1
*64 genblk1\[2\]\.n10
*65 genblk1\[2\]\.n11
*66 genblk1\[2\]\.n12
*67 genblk1\[2\]\.n13
*68 genblk1\[2\]\.n14
*69 genblk1\[2\]\.n15
*70 genblk1\[2\]\.n16
*71 genblk1\[2\]\.n17
*72 genblk1\[2\]\.n18
*73 genblk1\[2\]\.n2
*74 genblk1\[2\]\.n3
*75 genblk1\[2\]\.n4
*76 genblk1\[2\]\.n5
*77 genblk1\[2\]\.n6
*78 genblk1\[2\]\.n7
*79 genblk1\[2\]\.n8
*80 genblk1\[2\]\.n9
*81 genblk1\[3\]\.n1
*82 genblk1\[3\]\.n10
*83 genblk1\[3\]\.n11
*84 genblk1\[3\]\.n12
*85 genblk1\[3\]\.n13
*86 genblk1\[3\]\.n14
*87 genblk1\[3\]\.n15
*88 genblk1\[3\]\.n16
*89 genblk1\[3\]\.n17
*90 genblk1\[3\]\.n18
*91 genblk1\[3\]\.n2
*92 genblk1\[3\]\.n3
*93 genblk1\[3\]\.n4
*94 genblk1\[3\]\.n5
*95 genblk1\[3\]\.n6
*96 genblk1\[3\]\.n7
*97 genblk1\[3\]\.n8
*98 genblk1\[3\]\.n9
*99 genblk1\[4\]\.n1
*100 genblk1\[4\]\.n10
*101 genblk1\[4\]\.n11
*102 genblk1\[4\]\.n12
*103 genblk1\[4\]\.n13
*104 genblk1\[4\]\.n14
*105 genblk1\[4\]\.n15
*106 genblk1\[4\]\.n16
*107 genblk1\[4\]\.n17
*108 genblk1\[4\]\.n18
*109 genblk1\[4\]\.n2
*110 genblk1\[4\]\.n3
*111 genblk1\[4\]\.n4
*112 genblk1\[4\]\.n5
*113 genblk1\[4\]\.n6
*114 genblk1\[4\]\.n7
*115 genblk1\[4\]\.n8
*116 genblk1\[4\]\.n9
*117 genblk1\[5\]\.n1
*118 genblk1\[5\]\.n10
*119 genblk1\[5\]\.n11
*120 genblk1\[5\]\.n12
*121 genblk1\[5\]\.n13
*122 genblk1\[5\]\.n14
*123 genblk1\[5\]\.n15
*124 genblk1\[5\]\.n16
*125 genblk1\[5\]\.n17
*126 genblk1\[5\]\.n18
*127 genblk1\[5\]\.n2
*128 genblk1\[5\]\.n3
*129 genblk1\[5\]\.n4
*130 genblk1\[5\]\.n5
*131 genblk1\[5\]\.n6
*132 genblk1\[5\]\.n7
*133 genblk1\[5\]\.n8
*134 genblk1\[5\]\.n9
*135 genblk1\[6\]\.n1
*136 genblk1\[6\]\.n10
*137 genblk1\[6\]\.n11
*138 genblk1\[6\]\.n12
*139 genblk1\[6\]\.n13
*140 genblk1\[6\]\.n14
*141 genblk1\[6\]\.n15
*142 genblk1\[6\]\.n16
*143 genblk1\[6\]\.n17
*144 genblk1\[6\]\.n18
*145 genblk1\[6\]\.n2
*146 genblk1\[6\]\.n3
*147 genblk1\[6\]\.n4
*148 genblk1\[6\]\.n5
*149 genblk1\[6\]\.n6
*150 genblk1\[6\]\.n7
*151 genblk1\[6\]\.n8
*152 genblk1\[6\]\.n9
*153 genblk1\[7\]\.n1
*154 genblk1\[7\]\.n10
*155 genblk1\[7\]\.n11
*156 genblk1\[7\]\.n12
*157 genblk1\[7\]\.n13
*158 genblk1\[7\]\.n14
*159 genblk1\[7\]\.n15
*160 genblk1\[7\]\.n16
*161 genblk1\[7\]\.n17
*162 genblk1\[7\]\.n18
*163 genblk1\[7\]\.n2
*164 genblk1\[7\]\.n3
*165 genblk1\[7\]\.n4
*166 genblk1\[7\]\.n5
*167 genblk1\[7\]\.n6
*168 genblk1\[7\]\.n7
*169 genblk1\[7\]\.n8
*170 genblk1\[7\]\.n9
*171 net1
*172 net10
*173 net11
*174 net12
*175 net13
*176 net14
*177 net15
*178 net16
*179 net2
*180 net3
*181 net4
*182 net5
*183 net6
*184 net7
*185 net8
*186 net9
*187 FILLER_0_123
*188 FILLER_0_130
*189 FILLER_0_132
*190 FILLER_0_147
*191 FILLER_0_177
*192 FILLER_0_184
*193 FILLER_0_19
*194 FILLER_0_191
*195 FILLER_0_21
*196 FILLER_0_228
*197 FILLER_0_235
*198 FILLER_0_26
*199 FILLER_0_260
*200 FILLER_0_267
*201 FILLER_0_28
*202 FILLER_0_292
*203 FILLER_0_34
*204 FILLER_0_69
*205 FILLER_0_99
*206 FILLER_10_123
*207 FILLER_10_130
*208 FILLER_10_137
*209 FILLER_10_139
*210 FILLER_10_159
*211 FILLER_10_166
*212 FILLER_10_173
*213 FILLER_10_19
*214 FILLER_10_215
*215 FILLER_10_222
*216 FILLER_10_229
*217 FILLER_10_236
*218 FILLER_10_256
*219 FILLER_10_26
*220 FILLER_10_295
*221 FILLER_10_30
*222 FILLER_10_70
*223 FILLER_10_77
*224 FILLER_10_97
*225 FILLER_11_102
*226 FILLER_11_123
*227 FILLER_11_130
*228 FILLER_11_137
*229 FILLER_11_158
*230 FILLER_11_165
*231 FILLER_11_172
*232 FILLER_11_176
*233 FILLER_11_19
*234 FILLER_11_196
*235 FILLER_11_203
*236 FILLER_11_207
*237 FILLER_11_21
*238 FILLER_11_228
*239 FILLER_11_235
*240 FILLER_11_237
*241 FILLER_11_257
*242 FILLER_11_26
*243 FILLER_11_264
*244 FILLER_11_266
*245 FILLER_11_28
*246 FILLER_11_291
*247 FILLER_11_295
*248 FILLER_11_33
*249 FILLER_11_40
*250 FILLER_11_42
*251 FILLER_11_62
*252 FILLER_11_69
*253 FILLER_11_95
*254 FILLER_1_123
*255 FILLER_1_130
*256 FILLER_1_132
*257 FILLER_1_152
*258 FILLER_1_175
*259 FILLER_1_177
*260 FILLER_1_19
*261 FILLER_1_21
*262 FILLER_1_228
*263 FILLER_1_235
*264 FILLER_1_256
*265 FILLER_1_26
*266 FILLER_1_28
*267 FILLER_1_32
*268 FILLER_1_37
*269 FILLER_2_122
*270 FILLER_2_129
*271 FILLER_2_136
*272 FILLER_2_143
*273 FILLER_2_166
*274 FILLER_2_19
*275 FILLER_2_198
*276 FILLER_2_205
*277 FILLER_2_21
*278 FILLER_2_212
*279 FILLER_2_217
*280 FILLER_2_224
*281 FILLER_2_231
*282 FILLER_2_238
*283 FILLER_2_240
*284 FILLER_2_26
*285 FILLER_2_260
*286 FILLER_2_264
*287 FILLER_2_28
*288 FILLER_2_284
*289 FILLER_2_291
*290 FILLER_2_295
*291 FILLER_2_61
*292 FILLER_2_87
*293 FILLER_2_94
*294 FILLER_2_96
*295 FILLER_3_102
*296 FILLER_3_123
*297 FILLER_3_130
*298 FILLER_3_137
*299 FILLER_3_144
*300 FILLER_3_148
*301 FILLER_3_169
*302 FILLER_3_176
*303 FILLER_3_19
*304 FILLER_3_196
*305 FILLER_3_203
*306 FILLER_3_223
*307 FILLER_3_230
*308 FILLER_3_256
*309 FILLER_3_26
*310 FILLER_3_263
*311 FILLER_3_286
*312 FILLER_3_293
*313 FILLER_3_295
*314 FILLER_3_33
*315 FILLER_3_59
*316 FILLER_3_63
*317 FILLER_3_69
*318 FILLER_3_95
*319 FILLER_4_123
*320 FILLER_4_130
*321 FILLER_4_132
*322 FILLER_4_138
*323 FILLER_4_145
*324 FILLER_4_149
*325 FILLER_4_19
*326 FILLER_4_21
*327 FILLER_4_226
*328 FILLER_4_233
*329 FILLER_4_26
*330 FILLER_4_294
*331 FILLER_4_33
*332 FILLER_4_37
*333 FILLER_4_58
*334 FILLER_4_65
*335 FILLER_4_72
*336 FILLER_4_79
*337 FILLER_4_83
*338 FILLER_5_102
*339 FILLER_5_123
*340 FILLER_5_130
*341 FILLER_5_134
*342 FILLER_5_139
*343 FILLER_5_146
*344 FILLER_5_153
*345 FILLER_5_157
*346 FILLER_5_19
*347 FILLER_5_196
*348 FILLER_5_203
*349 FILLER_5_21
*350 FILLER_5_226
*351 FILLER_5_233
*352 FILLER_5_242
*353 FILLER_5_249
*354 FILLER_5_256
*355 FILLER_5_26
*356 FILLER_5_263
*357 FILLER_5_286
*358 FILLER_5_293
*359 FILLER_5_295
*360 FILLER_5_30
*361 FILLER_5_51
*362 FILLER_5_58
*363 FILLER_5_65
*364 FILLER_5_70
*365 FILLER_5_74
*366 FILLER_5_95
*367 FILLER_6_123
*368 FILLER_6_130
*369 FILLER_6_132
*370 FILLER_6_149
*371 FILLER_6_156
*372 FILLER_6_19
*373 FILLER_6_196
*374 FILLER_6_203
*375 FILLER_6_207
*376 FILLER_6_228
*377 FILLER_6_230
*378 FILLER_6_234
*379 FILLER_6_236
*380 FILLER_6_243
*381 FILLER_6_245
*382 FILLER_6_26
*383 FILLER_6_265
*384 FILLER_6_269
*385 FILLER_6_289
*386 FILLER_6_30
*387 FILLER_6_51
*388 FILLER_6_58
*389 FILLER_6_76
*390 FILLER_6_97
*391 FILLER_7_123
*392 FILLER_7_130
*393 FILLER_7_132
*394 FILLER_7_152
*395 FILLER_7_159
*396 FILLER_7_166
*397 FILLER_7_173
*398 FILLER_7_180
*399 FILLER_7_187
*400 FILLER_7_19
*401 FILLER_7_194
*402 FILLER_7_21
*403 FILLER_7_214
*404 FILLER_7_228
*405 FILLER_7_235
*406 FILLER_7_241
*407 FILLER_7_245
*408 FILLER_7_26
*409 FILLER_7_28
*410 FILLER_7_284
*411 FILLER_7_291
*412 FILLER_7_295
*413 FILLER_7_48
*414 FILLER_7_52
*415 FILLER_7_73
*416 FILLER_7_80
*417 FILLER_7_84
*418 FILLER_8_115
*419 FILLER_8_122
*420 FILLER_8_129
*421 FILLER_8_136
*422 FILLER_8_138
*423 FILLER_8_158
*424 FILLER_8_165
*425 FILLER_8_185
*426 FILLER_8_19
*427 FILLER_8_192
*428 FILLER_8_194
*429 FILLER_8_214
*430 FILLER_8_221
*431 FILLER_8_228
*432 FILLER_8_235
*433 FILLER_8_237
*434 FILLER_8_257
*435 FILLER_8_26
*436 FILLER_8_264
*437 FILLER_8_271
*438 FILLER_8_292
*439 FILLER_8_33
*440 FILLER_8_35
*441 FILLER_8_55
*442 FILLER_8_62
*443 FILLER_8_69
*444 FILLER_8_76
*445 FILLER_9_102
*446 FILLER_9_123
*447 FILLER_9_130
*448 FILLER_9_132
*449 FILLER_9_152
*450 FILLER_9_159
*451 FILLER_9_19
*452 FILLER_9_204
*453 FILLER_9_208
*454 FILLER_9_21
*455 FILLER_9_228
*456 FILLER_9_235
*457 FILLER_9_256
*458 FILLER_9_26
*459 FILLER_9_263
*460 FILLER_9_28
*461 FILLER_9_290
*462 FILLER_9_294
*463 FILLER_9_48
*464 FILLER_9_71
*465 FILLER_9_75
*466 FILLER_9_95
*467 _08_
*468 _09_
*469 _10_
*470 _11_
*471 _12_
*472 _13_
*473 _14_
*474 _15_
*475 genblk1\[0\]\.i_inv1
*476 genblk1\[0\]\.i_inv16
*477 genblk1\[0\]\.i_inv16b
*478 genblk1\[0\]\.i_inv16c
*479 genblk1\[0\]\.i_inv16d
*480 genblk1\[0\]\.i_inv16e
*481 genblk1\[0\]\.i_inv16f
*482 genblk1\[0\]\.i_inv16g
*483 genblk1\[0\]\.i_inv16h
*484 genblk1\[0\]\.i_inv16i
*485 genblk1\[0\]\.i_inv16j
*486 genblk1\[0\]\.i_inv16k
*487 genblk1\[0\]\.i_inv16l
*488 genblk1\[0\]\.i_inv16m
*489 genblk1\[0\]\.i_inv16n
*490 genblk1\[0\]\.i_inv2
*491 genblk1\[0\]\.i_inv4
*492 genblk1\[0\]\.i_inv8
*493 genblk1\[1\]\.i_inv1
*494 genblk1\[1\]\.i_inv16
*495 genblk1\[1\]\.i_inv16b
*496 genblk1\[1\]\.i_inv16c
*497 genblk1\[1\]\.i_inv16d
*498 genblk1\[1\]\.i_inv16e
*499 genblk1\[1\]\.i_inv16f
*500 genblk1\[1\]\.i_inv16g
*501 genblk1\[1\]\.i_inv16h
*502 genblk1\[1\]\.i_inv16i
*503 genblk1\[1\]\.i_inv16j
*504 genblk1\[1\]\.i_inv16k
*505 genblk1\[1\]\.i_inv16l
*506 genblk1\[1\]\.i_inv16m
*507 genblk1\[1\]\.i_inv16n
*508 genblk1\[1\]\.i_inv2
*509 genblk1\[1\]\.i_inv4
*510 genblk1\[1\]\.i_inv8
*511 genblk1\[2\]\.i_inv1
*512 genblk1\[2\]\.i_inv16
*513 genblk1\[2\]\.i_inv16b
*514 genblk1\[2\]\.i_inv16c
*515 genblk1\[2\]\.i_inv16d
*516 genblk1\[2\]\.i_inv16e
*517 genblk1\[2\]\.i_inv16f
*518 genblk1\[2\]\.i_inv16g
*519 genblk1\[2\]\.i_inv16h
*520 genblk1\[2\]\.i_inv16i
*521 genblk1\[2\]\.i_inv16j
*522 genblk1\[2\]\.i_inv16k
*523 genblk1\[2\]\.i_inv16l
*524 genblk1\[2\]\.i_inv16m
*525 genblk1\[2\]\.i_inv16n
*526 genblk1\[2\]\.i_inv2
*527 genblk1\[2\]\.i_inv4
*528 genblk1\[2\]\.i_inv8
*529 genblk1\[3\]\.i_inv1
*530 genblk1\[3\]\.i_inv16
*531 genblk1\[3\]\.i_inv16b
*532 genblk1\[3\]\.i_inv16c
*533 genblk1\[3\]\.i_inv16d
*534 genblk1\[3\]\.i_inv16e
*535 genblk1\[3\]\.i_inv16f
*536 genblk1\[3\]\.i_inv16g
*537 genblk1\[3\]\.i_inv16h
*538 genblk1\[3\]\.i_inv16i
*539 genblk1\[3\]\.i_inv16j
*540 genblk1\[3\]\.i_inv16k
*541 genblk1\[3\]\.i_inv16l
*542 genblk1\[3\]\.i_inv16m
*543 genblk1\[3\]\.i_inv16n
*544 genblk1\[3\]\.i_inv2
*545 genblk1\[3\]\.i_inv4
*546 genblk1\[3\]\.i_inv8
*547 genblk1\[4\]\.i_inv1
*548 genblk1\[4\]\.i_inv16
*549 genblk1\[4\]\.i_inv16b
*550 genblk1\[4\]\.i_inv16c
*551 genblk1\[4\]\.i_inv16d
*552 genblk1\[4\]\.i_inv16e
*553 genblk1\[4\]\.i_inv16f
*554 genblk1\[4\]\.i_inv16g
*555 genblk1\[4\]\.i_inv16h
*556 genblk1\[4\]\.i_inv16i
*557 genblk1\[4\]\.i_inv16j
*558 genblk1\[4\]\.i_inv16k
*559 genblk1\[4\]\.i_inv16l
*560 genblk1\[4\]\.i_inv16m
*561 genblk1\[4\]\.i_inv16n
*562 genblk1\[4\]\.i_inv2
*563 genblk1\[4\]\.i_inv4
*564 genblk1\[4\]\.i_inv8
*565 genblk1\[5\]\.i_inv1
*566 genblk1\[5\]\.i_inv16
*567 genblk1\[5\]\.i_inv16b
*568 genblk1\[5\]\.i_inv16c
*569 genblk1\[5\]\.i_inv16d
*570 genblk1\[5\]\.i_inv16e
*571 genblk1\[5\]\.i_inv16f
*572 genblk1\[5\]\.i_inv16g
*573 genblk1\[5\]\.i_inv16h
*574 genblk1\[5\]\.i_inv16i
*575 genblk1\[5\]\.i_inv16j
*576 genblk1\[5\]\.i_inv16k
*577 genblk1\[5\]\.i_inv16l
*578 genblk1\[5\]\.i_inv16m
*579 genblk1\[5\]\.i_inv16n
*580 genblk1\[5\]\.i_inv2
*581 genblk1\[5\]\.i_inv4
*582 genblk1\[5\]\.i_inv8
*583 genblk1\[6\]\.i_inv1
*584 genblk1\[6\]\.i_inv16
*585 genblk1\[6\]\.i_inv16b
*586 genblk1\[6\]\.i_inv16c
*587 genblk1\[6\]\.i_inv16d
*588 genblk1\[6\]\.i_inv16e
*589 genblk1\[6\]\.i_inv16f
*590 genblk1\[6\]\.i_inv16g
*591 genblk1\[6\]\.i_inv16h
*592 genblk1\[6\]\.i_inv16i
*593 genblk1\[6\]\.i_inv16j
*594 genblk1\[6\]\.i_inv16k
*595 genblk1\[6\]\.i_inv16l
*596 genblk1\[6\]\.i_inv16m
*597 genblk1\[6\]\.i_inv16n
*598 genblk1\[6\]\.i_inv2
*599 genblk1\[6\]\.i_inv4
*600 genblk1\[6\]\.i_inv8
*601 genblk1\[7\]\.i_inv1
*602 genblk1\[7\]\.i_inv16
*603 genblk1\[7\]\.i_inv16b
*604 genblk1\[7\]\.i_inv16c
*605 genblk1\[7\]\.i_inv16d
*606 genblk1\[7\]\.i_inv16e
*607 genblk1\[7\]\.i_inv16f
*608 genblk1\[7\]\.i_inv16g
*609 genblk1\[7\]\.i_inv16h
*610 genblk1\[7\]\.i_inv16i
*611 genblk1\[7\]\.i_inv16j
*612 genblk1\[7\]\.i_inv16k
*613 genblk1\[7\]\.i_inv16l
*614 genblk1\[7\]\.i_inv16m
*615 genblk1\[7\]\.i_inv16n
*616 genblk1\[7\]\.i_inv2
*617 genblk1\[7\]\.i_inv4
*618 genblk1\[7\]\.i_inv8
*619 input1
*620 input10
*621 input11
*622 input12
*623 input13
*624 input14
*625 input15
*626 input16
*627 input2
*628 input3
*629 input4
*630 input5
*631 input6
*632 input7
*633 input8
*634 input9

*PORTS
en[0] I
en[1] I
en[2] I
en[3] I
en[4] I
en[5] I
en[6] I
en[7] I
osc[0] I
osc[1] I
osc[2] I
osc[3] I
osc[4] I
osc[5] I
osc[6] I
osc[7] I

*D_NET *3 0.000941475
*CONN
*P en[0] I
*I *619:A I *D sg13cmos5l_buf_1
*CAP
1 en[0] 0.000470737
2 *619:A 0
3 *3:11 0.000470737
4 *3:11 *487:A 0
5 *3:11 *620:A 0
6 *3:11 *11:11 0
*RES
1 en[0] *3:11 45.0573 
2 *3:11 *619:A 20 
*END

*D_NET *4 0.00111764
*CONN
*P en[1] I
*I *627:A I *D sg13cmos5l_buf_1
*CAP
1 en[1] 0.000558822
2 *627:A 0
3 *4:11 0.000558822
4 *4:11 *467:B 0
5 *4:11 *38:8 0
6 *4:11 *175:22 0
7 *4:11 *176:16 0
*RES
1 en[1] *4:11 45.7989 
2 *4:11 *627:A 20 
*END

*D_NET *5 0.00134234
*CONN
*P en[2] I
*I *628:A I *D sg13cmos5l_buf_1
*CAP
1 en[2] 0.000526668
2 *628:A 0
3 *5:11 0.000526668
4 *5:11 *45:14 0
5 *5:11 *60:10 0.000289002
6 *5:11 *175:22 0
7 *5:11 *176:16 0
*RES
1 en[2] *5:11 46.0461 
2 *5:11 *628:A 20 
*END

*D_NET *6 0.00192261
*CONN
*P en[3] I
*I *629:A I *D sg13cmos5l_buf_1
*CAP
1 en[3] 0.000737507
2 *629:A 0
3 *6:11 0.000737507
4 *6:11 *57:10 0.000447597
5 *6:11 *100:8 0
6 *6:11 *100:18 0
7 *6:11 *175:22 0
*RES
1 en[3] *6:11 47.2821 
2 *6:11 *629:A 20 
*END

*D_NET *7 0.00106697
*CONN
*P en[4] I
*I *630:A I *D sg13cmos5l_buf_1
*CAP
1 en[4] 0.000509528
2 *630:A 0
3 *7:11 0.000509528
4 *7:11 *470:A 0
5 *7:11 *23:8 0
6 *7:11 *114:16 4.79124e-05
7 *7:11 *175:22 0
8 *7:11 *176:22 0
*RES
1 en[4] *7:11 45.3045 
2 *7:11 *630:A 20 
*END

*D_NET *8 0.000690266
*CONN
*P en[5] I
*I *631:A I *D sg13cmos5l_buf_1
*CAP
1 en[5] 0.000345133
2 *631:A 0
3 *8:13 0.000345133
*RES
1 en[5] *8:13 43.9243 
2 *8:13 *631:A 20 
*END

*D_NET *9 0.00130928
*CONN
*P en[6] I
*I *632:A I *D sg13cmos5l_buf_1
*CAP
1 en[6] 0.000598259
2 *632:A 0
3 *9:13 0.000598259
4 *9:13 *117:14 0
5 *9:13 *184:12 0.000112766
*RES
1 en[6] *9:13 47.1379 
2 *9:13 *632:A 20 
*END

*D_NET *10 0.000963492
*CONN
*P en[7] I
*I *633:A I *D sg13cmos5l_buf_1
*CAP
1 en[7] 0.000481746
2 *633:A 0
3 *10:13 0.000481746
4 *10:13 *185:10 0
*RES
1 en[7] *10:13 45.6547 
2 *10:13 *633:A 20 
*END

*D_NET *11 0.002217
*CONN
*P osc[0] I
*I *634:A I *D sg13cmos5l_buf_1
*CAP
1 osc[0] 0.000987345
2 *634:A 0
3 *11:11 0.000987345
4 *11:11 *186:10 0.000242313
5 *3:11 *11:11 0
*RES
1 osc[0] *11:11 31.124 
2 *11:11 *634:A 20 
*END

*D_NET *12 0.00185211
*CONN
*P osc[1] I
*I *620:A I *D sg13cmos5l_buf_1
*CAP
1 osc[1] 0.000821302
2 *620:A 0.000821302
3 *620:A *176:8 0.000209505
4 *3:11 *620:A 0
*RES
1 osc[1] *620:A 49.2288 
*END

*D_NET *13 0.00212656
*CONN
*P osc[2] I
*I *621:A I *D sg13cmos5l_buf_1
*CAP
1 osc[2] 0.000910394
2 *621:A 0.000910394
3 *621:A *42:10 0
4 *621:A *176:8 0.000305772
*RES
1 osc[2] *621:A 49.6614 
*END

*D_NET *14 0.00126273
*CONN
*P osc[3] I
*I *622:A I *D sg13cmos5l_buf_1
*CAP
1 osc[3] 0.000631366
2 *622:A 0.000631366
3 *622:A *43:8 0
*RES
1 osc[3] *622:A 47.931 
*END

*D_NET *15 0.00154553
*CONN
*P osc[4] I
*I *623:A I *D sg13cmos5l_buf_1
*CAP
1 osc[4] 0.000716596
2 *623:A 0.000716596
3 *623:A *485:A 0
4 *623:A *43:8 0
5 *623:A *176:8 0.000112335
*RES
1 osc[4] *623:A 48.3636 
*END

*D_NET *16 0.00163201
*CONN
*P osc[5] I
*I *624:A I *D sg13cmos5l_buf_1
*CAP
1 osc[5] 0.000760163
2 *624:A 0.000760163
3 *624:A *78:20 0
4 *624:A *176:8 0.000111683
*RES
1 osc[5] *624:A 48.7962 
*END

*D_NET *17 0.00162275
*CONN
*P osc[6] I
*I *625:A I *D sg13cmos5l_buf_1
*CAP
1 osc[6] 0.000811376
2 *625:A 0.000811376
3 *625:A *78:20 0
*RES
1 osc[6] *625:A 49.2288 
*END

*D_NET *18 0.00185071
*CONN
*P osc[7] I
*I *626:A I *D sg13cmos5l_buf_1
*CAP
1 osc[7] 0.000925353
2 *626:A 0
3 *18:9 0.000925353
4 *18:9 *177:8 0
*RES
1 osc[7] *18:9 31.3918 
2 *18:9 *626:A 20 
*END

*D_NET *19 0.000489161
*CONN
*I *475:A I *D sg13cmos5l_inv_1
*I *474:X O *D sg13cmos5l_and2_1
*CAP
1 *475:A 0.000244581
2 *474:X 0.000244581
3 *475:A *175:16 0
*RES
1 *474:X *475:A 42.4308 
*END

*D_NET *20 0.00215244
*CONN
*I *493:A I *D sg13cmos5l_inv_1
*I *467:X O *D sg13cmos5l_and2_1
*CAP
1 *493:A 0.000137735
2 *467:X 0.000777534
3 *20:10 0.000915269
4 *493:A *468:A 0
5 *493:A *476:A 0
6 *493:A *45:8 8.0057e-05
7 *20:10 *467:B 0
8 *20:10 *476:A 0
9 *20:10 *478:A 0
10 *20:10 *492:A 0.000241847
*RES
1 *467:X *20:10 47.4366 
2 *20:10 *493:A 41.4008 
*END

*D_NET *21 0.000477139
*CONN
*I *511:A I *D sg13cmos5l_inv_1
*I *468:X O *D sg13cmos5l_and2_1
*CAP
1 *511:A 0.00023857
2 *468:X 0.00023857
3 *511:A *173:12 0
*RES
1 *468:X *511:A 41.9982 
*END

*D_NET *22 0.000711587
*CONN
*I *529:A I *D sg13cmos5l_inv_1
*I *469:X O *D sg13cmos5l_and2_1
*CAP
1 *529:A 0.000214957
2 *469:X 0.000140836
3 *22:8 0.000355793
4 *22:8 *174:12 0
*RES
1 *469:X *22:8 41.339 
2 *22:8 *529:A 41.6171 
*END

*D_NET *23 0.00079502
*CONN
*I *547:A I *D sg13cmos5l_inv_1
*I *470:X O *D sg13cmos5l_and2_1
*CAP
1 *547:A 0.000224782
2 *470:X 0.000172728
3 *23:8 0.00039751
4 *547:A *470:A 0
5 *547:A *114:8 0
6 *7:11 *23:8 0
*RES
1 *470:X *23:8 41.8334 
2 *23:8 *547:A 42.4823 
*END

*D_NET *24 0.000675701
*CONN
*I *565:A I *D sg13cmos5l_inv_1
*I *471:X O *D sg13cmos5l_and2_1
*CAP
1 *565:A 0.000337851
2 *471:X 0.000337851
3 *565:A *471:A 0
4 *565:A *117:8 0
*RES
1 *471:X *565:A 43.2342 
*END

*D_NET *25 0.000605031
*CONN
*I *583:A I *D sg13cmos5l_inv_1
*I *472:X O *D sg13cmos5l_and2_1
*CAP
1 *583:A 0.000171751
2 *472:X 0.000130764
3 *25:8 0.000302515
4 *25:8 *135:8 0
5 *25:8 *177:16 0
*RES
1 *472:X *25:8 41.339 
2 *25:8 *583:A 41.4008 
*END

*D_NET *26 0.00137187
*CONN
*I *601:A I *D sg13cmos5l_inv_1
*I *473:X O *D sg13cmos5l_and2_1
*CAP
1 *601:A 3.20201e-05
2 *473:X 0.000288342
3 *26:8 0.000320362
4 *601:A *163:10 1.54008e-05
5 *26:8 *163:10 0.000715748
*RES
1 *473:X *26:8 44.5526 
2 *26:8 *601:A 40.3193 
*END

*D_NET *27 0.000227208
*CONN
*I *490:A I *D sg13cmos5l_inv_2
*I *475:Y O *D sg13cmos5l_inv_1
*CAP
1 *490:A 0
2 *475:Y 0.000113604
3 *27:8 0.000113604
4 *27:8 *175:22 0
5 *27:8 *176:16 0
6 *27:8 *186:10 0
*RES
1 *475:Y *27:8 41.0918 
2 *27:8 *490:A 40 
*END

*D_NET *28 0.00188433
*CONN
*I *488:A I *D sg13cmos5l_inv_16
*I *487:A I *D sg13cmos5l_inv_16
*I *481:Y O *D sg13cmos5l_inv_16
*CAP
1 *488:A 0.000656351
2 *487:A 0.000165222
3 *481:Y 0.000821573
4 *488:A *481:A 0
5 *488:A *482:A 0
6 *488:A *489:A 0.000241187
7 *3:11 *487:A 0
*RES
1 *481:Y *487:A 41.6171 
2 *481:Y *488:A 45.6444 
*END

*D_NET *29 0.000774928
*CONN
*I *489:A I *D sg13cmos5l_inv_16
*I *482:Y O *D sg13cmos5l_inv_16
*CAP
1 *489:A 0.000138727
2 *482:Y 0.000138727
3 *489:A *481:A 0.000176521
4 *489:A *482:A 7.97663e-05
5 *488:A *489:A 0.000241187
*RES
1 *482:Y *489:A 41.6171 
*END

*D_NET *37 0.000251168
*CONN
*I *491:A I *D sg13cmos5l_inv_4
*I *490:Y O *D sg13cmos5l_inv_2
*CAP
1 *491:A 0.000125584
2 *490:Y 0.000125584
*RES
1 *490:Y *491:A 41.5862 
*END

*D_NET *38 0.000915521
*CONN
*I *492:A I *D sg13cmos5l_inv_8
*I *491:Y O *D sg13cmos5l_inv_4
*CAP
1 *492:A 0.000150787
2 *491:Y 6.88948e-05
3 *38:8 0.000219682
4 *38:8 *176:16 0.000234311
5 *4:11 *38:8 0
6 *20:10 *492:A 0.000241847
*RES
1 *491:Y *38:8 41.0918 
2 *38:8 *492:A 41.6171 
*END

*D_NET *39 0.000395644
*CONN
*I *476:A I *D sg13cmos5l_inv_16
*I *492:Y O *D sg13cmos5l_inv_8
*CAP
1 *476:A 0.000197822
2 *492:Y 0.000197822
3 *476:A *468:A 0
4 *476:A *478:A 0
5 *493:A *476:A 0
6 *20:10 *476:A 0
*RES
1 *492:Y *476:A 41.9673 
*END

*D_NET *40 0.000924887
*CONN
*I *477:A I *D sg13cmos5l_inv_16
*I *478:A I *D sg13cmos5l_inv_16
*I *476:Y O *D sg13cmos5l_inv_16
*CAP
1 *477:A 0.000160006
2 *478:A 0.000197731
3 *476:Y 0.000357737
4 *477:A *468:A 0
5 *477:A *173:12 0
6 *478:A *467:B 0.000209413
7 *476:A *478:A 0
8 *20:10 *478:A 0
*RES
1 *476:Y *478:A 42.0497 
2 *476:Y *477:A 41.4008 
*END

*D_NET *41 0.00074819
*CONN
*I *479:A I *D sg13cmos5l_inv_16
*I *480:A I *D sg13cmos5l_inv_16
*I *477:Y O *D sg13cmos5l_inv_16
*CAP
1 *479:A 0.000162414
2 *480:A 0
3 *477:Y 0.000211682
4 *41:6 0.000374095
*RES
1 *477:Y *41:6 22.0497 
2 *41:6 *480:A 20 
3 *41:6 *479:A 21.8334 
*END

*D_NET *42 0.00316931
*CONN
*I *482:A I *D sg13cmos5l_inv_16
*I *481:A I *D sg13cmos5l_inv_16
*I *478:Y O *D sg13cmos5l_inv_16
*CAP
1 *482:A 0.000146833
2 *481:A 0.000338212
3 *478:Y 0.000747826
4 *42:12 0.000485045
5 *42:10 0.000747826
6 *42:10 *172:10 0.00044728
7 *488:A *481:A 0
8 *488:A *482:A 0
9 *489:A *481:A 0.000176521
10 *489:A *482:A 7.97663e-05
11 *621:A *42:10 0
*RES
1 *478:Y *42:10 44.841 
2 *42:10 *42:12 20 
3 *42:12 *481:A 23.2651 
4 *42:12 *482:A 21.5347 
*END

*D_NET *43 0.00122236
*CONN
*I *483:A I *D sg13cmos5l_inv_16
*I *484:A I *D sg13cmos5l_inv_16
*I *479:Y O *D sg13cmos5l_inv_16
*CAP
1 *483:A 0
2 *484:A 0.000192472
3 *479:Y 0.000383816
4 *43:12 0.000227362
5 *43:8 0.000418706
6 *43:8 *44:10 0
7 *43:8 *175:8 0
8 *43:8 *177:16 0
9 *622:A *43:8 0
10 *623:A *43:8 0
*RES
1 *479:Y *43:8 44.3054 
2 *43:8 *43:12 20.3193 
3 *43:12 *484:A 21.8334 
4 *43:12 *483:A 20 
*END

*D_NET *44 0.0014337
*CONN
*I *486:A I *D sg13cmos5l_inv_16
*I *485:A I *D sg13cmos5l_inv_16
*I *480:Y O *D sg13cmos5l_inv_16
*CAP
1 *486:A 0
2 *485:A 0.000295207
3 *480:Y 0.000421642
4 *44:10 0.000716849
5 *485:A *175:8 0
6 *44:10 *175:16 0
7 *44:10 *177:12 0
8 *623:A *485:A 0
9 *43:8 *44:10 0
*RES
1 *480:Y *44:10 44.6556 
2 *44:10 *485:A 43.0694 
3 *44:10 *486:A 40 
*END

*D_NET *45 0.004586
*CONN
*I *508:A I *D sg13cmos5l_inv_2
*I *493:Y O *D sg13cmos5l_inv_1
*CAP
1 *508:A 0
2 *493:Y 5.41165e-05
3 *45:14 0.00219885
4 *45:8 0.00225297
5 *45:14 *55:12 0
6 *493:A *45:8 8.0057e-05
7 *5:11 *45:14 0
*RES
1 *493:Y *45:8 40.5356 
2 *45:8 *45:14 35.3161 
3 *45:14 *508:A 20 
*END

*D_NET *46 0.00110586
*CONN
*I *506:A I *D sg13cmos5l_inv_16
*I *505:A I *D sg13cmos5l_inv_16
*I *499:Y O *D sg13cmos5l_inv_16
*CAP
1 *506:A 0.000225079
2 *505:A 0.000119708
3 *499:Y 0.000208143
4 *46:10 0.00055293
5 *505:A *175:22 0
6 *505:A *176:16 0
7 *505:A *180:8 0
8 *506:A *468:A 0
9 *46:10 *468:A 0
10 *46:10 *180:8 0
*RES
1 *499:Y *46:10 41.9982 
2 *46:10 *505:A 41.0918 
3 *46:10 *506:A 42.266 
*END

*D_NET *47 0.000346155
*CONN
*I *507:A I *D sg13cmos5l_inv_16
*I *500:Y O *D sg13cmos5l_inv_16
*CAP
1 *507:A 0.000173077
2 *500:Y 0.000173077
3 *507:A *60:10 0
*RES
1 *500:Y *507:A 41.9673 
*END

*D_NET *55 0.00261523
*CONN
*I *509:A I *D sg13cmos5l_inv_4
*I *508:Y O *D sg13cmos5l_inv_2
*CAP
1 *509:A 0.000135773
2 *508:Y 0.00109947
3 *55:12 0.00123524
4 *55:12 *495:A 0
5 *55:12 *58:10 0
6 *55:12 *59:6 0.00014474
7 *45:14 *55:12 0
*RES
1 *508:Y *55:12 48.7447 
2 *55:12 *509:A 41.1845 
*END

*D_NET *56 0.00277338
*CONN
*I *510:A I *D sg13cmos5l_inv_8
*I *509:Y O *D sg13cmos5l_inv_4
*CAP
1 *510:A 0.000524074
2 *509:Y 0.000822575
3 *56:10 0.00134665
4 *510:A *469:A 0
5 *510:A *57:10 8.00842e-05
6 *510:A *100:12 0
*RES
1 *509:Y *56:10 45.0882 
2 *56:10 *510:A 45.0779 
*END

*D_NET *57 0.00183705
*CONN
*I *494:A I *D sg13cmos5l_inv_16
*I *510:Y O *D sg13cmos5l_inv_8
*CAP
1 *494:A 0
2 *510:Y 0.000244564
3 *57:10 0.000244564
4 *57:10 *100:18 0
5 *57:10 *175:22 0.000820239
6 *510:A *57:10 8.00842e-05
7 *6:11 *57:10 0.000447597
*RES
1 *510:Y *57:10 44.3466 
2 *57:10 *494:A 40 
*END

*D_NET *58 0.00120394
*CONN
*I *495:A I *D sg13cmos5l_inv_16
*I *496:A I *D sg13cmos5l_inv_16
*I *494:Y O *D sg13cmos5l_inv_16
*CAP
1 *495:A 0.000307039
2 *496:A 0
3 *494:Y 0.000511333
4 *58:10 0.000204294
5 *58:10 *175:22 0
6 *58:10 *176:22 0.000181279
7 *55:12 *495:A 0
8 *55:12 *58:10 0
*RES
1 *494:Y *58:10 42.4617 
2 *58:10 *496:A 40 
3 *494:Y *495:A 43.7801 
*END

*D_NET *59 0.00103065
*CONN
*I *497:A I *D sg13cmos5l_inv_16
*I *498:A I *D sg13cmos5l_inv_16
*I *495:Y O *D sg13cmos5l_inv_16
*CAP
1 *497:A 6.47374e-05
2 *498:A 0
3 *495:Y 0.000378218
4 *59:6 0.000442956
5 *59:6 *503:A 0
6 *55:12 *59:6 0.00014474
*RES
1 *495:Y *59:6 23.7801 
2 *59:6 *498:A 20 
3 *59:6 *497:A 20.5974 
*END

*D_NET *60 0.00136647
*CONN
*I *499:A I *D sg13cmos5l_inv_16
*I *500:A I *D sg13cmos5l_inv_16
*I *496:Y O *D sg13cmos5l_inv_16
*CAP
1 *499:A 0.000185342
2 *500:A 0
3 *496:Y 0.000393983
4 *60:10 0.000208641
5 *60:10 *175:22 0.000289504
6 *507:A *60:10 0
7 *5:11 *60:10 0.000289002
*RES
1 *496:Y *60:10 42.9561 
2 *60:10 *500:A 40 
3 *496:Y *499:A 41.751 
*END

*D_NET *61 0.000641001
*CONN
*I *502:A I *D sg13cmos5l_inv_16
*I *501:A I *D sg13cmos5l_inv_16
*I *497:Y O *D sg13cmos5l_inv_16
*CAP
1 *502:A 0.000169726
2 *501:A 0.000150774
3 *497:Y 0.0003205
*RES
1 *497:Y *501:A 41.4008 
2 *497:Y *502:A 41.6171 
*END

*D_NET *62 0.000844323
*CONN
*I *504:A I *D sg13cmos5l_inv_16
*I *503:A I *D sg13cmos5l_inv_16
*I *498:Y O *D sg13cmos5l_inv_16
*CAP
1 *504:A 0.000204465
2 *503:A 0.000217696
3 *498:Y 0
4 *62:4 0.000422161
5 *59:6 *503:A 0
*RES
1 *498:Y *62:4 20 
2 *62:4 *503:A 22.0497 
3 *62:4 *504:A 22.0497 
*END

*D_NET *63 0.000444568
*CONN
*I *526:A I *D sg13cmos5l_inv_2
*I *511:Y O *D sg13cmos5l_inv_1
*CAP
1 *526:A 0.000222284
2 *511:Y 0.000222284
3 *526:A *527:A 0
*RES
1 *511:Y *526:A 42.2145 
*END

*D_NET *64 0.000702186
*CONN
*I *524:A I *D sg13cmos5l_inv_16
*I *523:A I *D sg13cmos5l_inv_16
*I *517:Y O *D sg13cmos5l_inv_16
*CAP
1 *524:A 0.000215114
2 *523:A 0
3 *517:Y 0.000135978
4 *64:6 0.000351093
*RES
1 *517:Y *64:6 21.4008 
2 *64:6 *523:A 20 
3 *64:6 *524:A 22.266 
*END

*D_NET *65 0.00170698
*CONN
*I *525:A I *D sg13cmos5l_inv_16
*I *518:Y O *D sg13cmos5l_inv_16
*CAP
1 *525:A 0.000228919
2 *518:Y 0.000268402
3 *65:8 0.000497322
4 *65:8 *78:10 0
5 *65:8 *78:20 0.000712342
*RES
1 *518:Y *65:8 43.811 
2 *65:8 *525:A 42.0497 
*END

*D_NET *73 0.000525795
*CONN
*I *527:A I *D sg13cmos5l_inv_4
*I *526:Y O *D sg13cmos5l_inv_2
*CAP
1 *527:A 0.00025517
2 *526:Y 0.00025517
3 *527:A *528:A 1.54556e-05
4 *526:A *527:A 0
*RES
1 *526:Y *527:A 43.0282 
*END

*D_NET *74 0.000307157
*CONN
*I *528:A I *D sg13cmos5l_inv_8
*I *527:Y O *D sg13cmos5l_inv_4
*CAP
1 *528:A 0.000145851
2 *527:Y 0.000145851
3 *528:A *512:A 0
4 *527:A *528:A 1.54556e-05
*RES
1 *527:Y *528:A 41.8437 
*END

*D_NET *75 0.000290577
*CONN
*I *512:A I *D sg13cmos5l_inv_16
*I *528:Y O *D sg13cmos5l_inv_8
*CAP
1 *512:A 0.000145289
2 *528:Y 0.000145289
3 *528:A *512:A 0
*RES
1 *528:Y *512:A 41.6171 
*END

*D_NET *76 0.00074425
*CONN
*I *513:A I *D sg13cmos5l_inv_16
*I *514:A I *D sg13cmos5l_inv_16
*I *512:Y O *D sg13cmos5l_inv_16
*CAP
1 *513:A 0.000196664
2 *514:A 0
3 *512:Y 0.000175461
4 *76:8 0.000372125
*RES
1 *512:Y *76:8 21.9982 
2 *76:8 *514:A 20 
3 *76:8 *513:A 22.266 
*END

*D_NET *77 0.000681781
*CONN
*I *515:A I *D sg13cmos5l_inv_16
*I *516:A I *D sg13cmos5l_inv_16
*I *513:Y O *D sg13cmos5l_inv_16
*CAP
1 *515:A 0
2 *516:A 0
3 *513:Y 0.000137785
4 *77:12 0.000203105
5 *77:6 0.00034089
6 *77:12 *178:10 0
*RES
1 *513:Y *77:6 21.4008 
2 *77:6 *77:12 42.575 
3 *77:12 *516:A 20 
4 *77:6 *515:A 20 
*END

*D_NET *78 0.00186417
*CONN
*I *518:A I *D sg13cmos5l_inv_16
*I *517:A I *D sg13cmos5l_inv_16
*I *514:Y O *D sg13cmos5l_inv_16
*CAP
1 *518:A 0
2 *517:A 0
3 *514:Y 0.000211715
4 *78:20 0.000234154
5 *78:14 0.000364197
6 *78:10 0.000341758
7 *78:10 *177:12 0
8 *78:14 *177:12 0
9 *624:A *78:20 0
10 *625:A *78:20 0
11 *65:8 *78:10 0
12 *65:8 *78:20 0.000712342
*RES
1 *514:Y *78:10 42.369 
2 *78:10 *78:14 21.1845 
3 *78:14 *78:20 43.5638 
4 *78:20 *517:A 20 
5 *78:14 *518:A 20 
*END

*D_NET *79 0.00063975
*CONN
*I *519:A I *D sg13cmos5l_inv_16
*I *520:A I *D sg13cmos5l_inv_16
*I *515:Y O *D sg13cmos5l_inv_16
*CAP
1 *519:A 0.000253006
2 *520:A 6.68694e-05
3 *515:Y 0.000319875
*RES
1 *515:Y *520:A 40.8446 
2 *515:Y *519:A 43.1003 
*END

*D_NET *80 0.00054403
*CONN
*I *522:A I *D sg13cmos5l_inv_16
*I *521:A I *D sg13cmos5l_inv_16
*I *516:Y O *D sg13cmos5l_inv_16
*CAP
1 *522:A 0.000143852
2 *521:A 0.000128163
3 *516:Y 0.000272015
*RES
1 *516:Y *521:A 41.4008 
2 *516:Y *522:A 41.6171 
*END

*D_NET *81 0.000712285
*CONN
*I *544:A I *D sg13cmos5l_inv_2
*I *529:Y O *D sg13cmos5l_inv_1
*CAP
1 *544:A 0
2 *529:Y 0.000132257
3 *81:8 0.000132257
4 *81:8 *93:8 0
5 *81:8 *177:16 0.00044777
*RES
1 *529:Y *81:8 42.0806 
2 *81:8 *544:A 40 
*END

*D_NET *82 0.000851893
*CONN
*I *541:A I *D sg13cmos5l_inv_16
*I *542:A I *D sg13cmos5l_inv_16
*I *535:Y O *D sg13cmos5l_inv_16
*CAP
1 *541:A 0.000350923
2 *542:A 2.77263e-05
3 *535:Y 4.72978e-05
4 *82:6 0.000425947
5 *541:A *543:A 0
*RES
1 *535:Y *82:6 20.5974 
2 *82:6 *542:A 20.3502 
3 *82:6 *541:A 23.9964 
*END

*D_NET *83 0.000614676
*CONN
*I *543:A I *D sg13cmos5l_inv_16
*I *536:Y O *D sg13cmos5l_inv_16
*CAP
1 *543:A 0.000307338
2 *536:Y 0.000307338
3 *543:A *535:A 0
4 *543:A *536:A 0
5 *541:A *543:A 0
*RES
1 *536:Y *543:A 43.5432 
*END

*D_NET *91 0.000355787
*CONN
*I *545:A I *D sg13cmos5l_inv_4
*I *544:Y O *D sg13cmos5l_inv_2
*CAP
1 *545:A 0.000159078
2 *544:Y 0.000159078
3 *545:A *546:A 3.7631e-05
*RES
1 *544:Y *545:A 41.854 
*END

*D_NET *92 0.00033295
*CONN
*I *546:A I *D sg13cmos5l_inv_8
*I *545:Y O *D sg13cmos5l_inv_4
*CAP
1 *546:A 0.00014766
2 *545:Y 0.00014766
3 *545:A *546:A 3.7631e-05
*RES
1 *545:Y *546:A 41.8437 
*END

*D_NET *93 0.000748358
*CONN
*I *530:A I *D sg13cmos5l_inv_16
*I *546:Y O *D sg13cmos5l_inv_8
*CAP
1 *530:A 0.000178523
2 *546:Y 0.000187956
3 *93:8 0.000366479
4 *530:A *94:12 1.54008e-05
5 *93:8 *94:12 0
6 *81:8 *93:8 0
*RES
1 *546:Y *93:8 42.3278 
2 *93:8 *530:A 41.6171 
*END

*D_NET *94 0.00137338
*CONN
*I *531:A I *D sg13cmos5l_inv_16
*I *532:A I *D sg13cmos5l_inv_16
*I *530:Y O *D sg13cmos5l_inv_16
*CAP
1 *531:A 0.000335554
2 *532:A 0
3 *530:Y 0
4 *94:12 0.000343437
5 *94:4 0.000678991
6 *531:A *95:6 0
7 *530:A *94:12 1.54008e-05
8 *93:8 *94:12 0
*RES
1 *530:Y *94:4 20 
2 *94:4 *94:12 43.8522 
3 *94:12 *532:A 20 
4 *94:4 *531:A 23.5638 
*END

*D_NET *95 0.00118957
*CONN
*I *534:A I *D sg13cmos5l_inv_16
*I *533:A I *D sg13cmos5l_inv_16
*I *531:Y O *D sg13cmos5l_inv_16
*CAP
1 *534:A 0
2 *533:A 0
3 *531:Y 0.000189161
4 *95:12 0.000405625
5 *95:6 0.000594786
6 *95:12 *178:10 0
7 *531:A *95:6 0
*RES
1 *531:Y *95:6 22.0497 
2 *95:6 *95:12 44.7998 
3 *95:12 *533:A 20 
4 *95:6 *534:A 20 
*END

*D_NET *96 0.000668764
*CONN
*I *535:A I *D sg13cmos5l_inv_16
*I *536:A I *D sg13cmos5l_inv_16
*I *532:Y O *D sg13cmos5l_inv_16
*CAP
1 *535:A 0.000179539
2 *536:A 0.000154843
3 *532:Y 0.000334382
4 *543:A *535:A 0
5 *543:A *536:A 0
*RES
1 *532:Y *536:A 41.6171 
2 *532:Y *535:A 42.0497 
*END

*D_NET *97 0.000573888
*CONN
*I *538:A I *D sg13cmos5l_inv_16
*I *537:A I *D sg13cmos5l_inv_16
*I *533:Y O *D sg13cmos5l_inv_16
*CAP
1 *538:A 0.000151989
2 *537:A 0.000134955
3 *533:Y 0.000286944
*RES
1 *533:Y *537:A 41.4008 
2 *533:Y *538:A 41.6171 
*END

*D_NET *98 0.000921048
*CONN
*I *539:A I *D sg13cmos5l_inv_16
*I *540:A I *D sg13cmos5l_inv_16
*I *534:Y O *D sg13cmos5l_inv_16
*CAP
1 *539:A 0.000143852
2 *540:A 0.000316672
3 *534:Y 0.000460524
*RES
1 *534:Y *540:A 43.5638 
2 *534:Y *539:A 41.6171 
*END

*D_NET *99 9.45957e-05
*CONN
*I *562:A I *D sg13cmos5l_inv_2
*I *547:Y O *D sg13cmos5l_inv_1
*CAP
1 *562:A 4.72978e-05
2 *547:Y 4.72978e-05
*RES
1 *547:Y *562:A 40.5974 
*END

*D_NET *100 0.00228303
*CONN
*I *559:A I *D sg13cmos5l_inv_16
*I *560:A I *D sg13cmos5l_inv_16
*I *553:Y O *D sg13cmos5l_inv_16
*CAP
1 *559:A 0
2 *560:A 0
3 *553:Y 0.00040095
4 *100:18 0.000211879
5 *100:12 0.000383728
6 *100:8 0.000572799
7 *100:8 *175:22 0
8 *100:8 *176:22 0
9 *100:18 *176:22 0.000713674
10 *510:A *100:12 0
11 *6:11 *100:8 0
12 *6:11 *100:18 0
13 *57:10 *100:18 0
*RES
1 *553:Y *100:8 44.0582 
2 *100:8 *100:12 21.6171 
3 *100:12 *100:18 43.3166 
4 *100:18 *560:A 20 
5 *100:12 *559:A 20 
*END

*D_NET *101 0.000417932
*CONN
*I *561:A I *D sg13cmos5l_inv_16
*I *554:Y O *D sg13cmos5l_inv_16
*CAP
1 *561:A 0.000208966
2 *554:Y 0.000208966
3 *561:A *114:16 0
*RES
1 *554:Y *561:A 42.0497 
*END

*D_NET *109 0.00134761
*CONN
*I *563:A I *D sg13cmos5l_inv_4
*I *562:Y O *D sg13cmos5l_inv_2
*CAP
1 *563:A 0.000132946
2 *562:Y 0.000158195
3 *109:8 0.000291142
4 *563:A *549:A 0.000209505
5 *563:A *550:A 0
6 *109:8 *176:22 0.000555823
*RES
1 *562:Y *109:8 42.575 
2 *109:8 *563:A 41.4008 
*END

*D_NET *110 0.000716213
*CONN
*I *564:A I *D sg13cmos5l_inv_8
*I *563:Y O *D sg13cmos5l_inv_4
*CAP
1 *564:A 0.000358106
2 *563:Y 0.000358106
3 *564:A *471:A 0
4 *564:A *548:A 0
5 *564:A *549:A 0
*RES
1 *563:Y *564:A 43.7801 
*END

*D_NET *111 0.000345554
*CONN
*I *548:A I *D sg13cmos5l_inv_16
*I *564:Y O *D sg13cmos5l_inv_8
*CAP
1 *548:A 0.000172777
2 *564:Y 0.000172777
3 *548:A *471:A 0
4 *564:A *548:A 0
*RES
1 *564:Y *548:A 41.6171 
*END

*D_NET *112 0.00137883
*CONN
*I *549:A I *D sg13cmos5l_inv_16
*I *550:A I *D sg13cmos5l_inv_16
*I *548:Y O *D sg13cmos5l_inv_16
*CAP
1 *549:A 0.00038194
2 *550:A 0.000202722
3 *548:Y 0.000584661
4 *549:A *113:6 0
5 *563:A *549:A 0.000209505
6 *563:A *550:A 0
7 *564:A *549:A 0
*RES
1 *548:Y *550:A 42.0497 
2 *548:Y *549:A 44.2127 
*END

*D_NET *113 0.00263365
*CONN
*I *552:A I *D sg13cmos5l_inv_16
*I *551:A I *D sg13cmos5l_inv_16
*I *549:Y O *D sg13cmos5l_inv_16
*CAP
1 *552:A 0
2 *551:A 0
3 *549:Y 0.000211382
4 *113:19 0.000534194
5 *113:6 0.000745575
6 *113:19 *597:A 0
7 *113:19 *177:16 0.0011425
8 *549:A *113:6 0
*RES
1 *549:Y *113:6 22.0497 
2 *113:6 *551:A 20 
3 *113:6 *113:19 47.5602 
4 *113:19 *552:A 20 
*END

*D_NET *114 0.00150181
*CONN
*I *554:A I *D sg13cmos5l_inv_16
*I *553:A I *D sg13cmos5l_inv_16
*I *550:Y O *D sg13cmos5l_inv_16
*CAP
1 *554:A 0
2 *553:A 0
3 *550:Y 0.000167708
4 *114:16 0.000334614
5 *114:8 0.000502322
6 *114:8 *470:A 0
7 *114:16 *470:A 0
8 *114:16 *175:22 0
9 *114:16 *176:22 0.000449257
10 *547:A *114:8 0
11 *561:A *114:16 0
12 *7:11 *114:16 4.79124e-05
*RES
1 *550:Y *114:8 21.751 
2 *114:8 *114:16 44.3466 
3 *114:16 *553:A 20 
4 *114:8 *554:A 20 
*END

*D_NET *115 0.000571564
*CONN
*I *556:A I *D sg13cmos5l_inv_16
*I *555:A I *D sg13cmos5l_inv_16
*I *551:Y O *D sg13cmos5l_inv_16
*CAP
1 *556:A 0
2 *555:A 0.000194257
3 *551:Y 9.15253e-05
4 *115:6 0.000285782
*RES
1 *551:Y *115:6 20.8446 
2 *115:6 *555:A 21.8334 
3 *115:6 *556:A 20 
*END

*D_NET *116 0.000820427
*CONN
*I *557:A I *D sg13cmos5l_inv_16
*I *558:A I *D sg13cmos5l_inv_16
*I *552:Y O *D sg13cmos5l_inv_16
*CAP
1 *557:A 0
2 *558:A 0.000256706
3 *552:Y 0.000153507
4 *116:6 0.000410213
*RES
1 *552:Y *116:6 21.6171 
2 *116:6 *558:A 22.4308 
3 *116:6 *557:A 20 
*END

*D_NET *117 0.00303556
*CONN
*I *580:A I *D sg13cmos5l_inv_2
*I *565:Y O *D sg13cmos5l_inv_1
*CAP
1 *580:A 0
2 *565:Y 0.000290225
3 *117:14 0.00120368
4 *117:8 0.00149391
5 *117:14 *118:10 0
6 *117:14 *132:8 0
7 *117:14 *185:18 4.77425e-05
8 *565:A *117:8 0
9 *9:13 *117:14 0
*RES
1 *565:Y *117:8 43.1312 
2 *117:8 *117:14 33.7402 
3 *117:14 *580:A 20 
*END

*D_NET *118 0.00145847
*CONN
*I *577:A I *D sg13cmos5l_inv_16
*I *578:A I *D sg13cmos5l_inv_16
*I *571:Y O *D sg13cmos5l_inv_16
*CAP
1 *577:A 0.00029398
2 *578:A 0
3 *571:Y 0.000435254
4 *118:12 0.00029398
5 *118:10 0.000435254
6 *117:14 *118:10 0
*RES
1 *571:Y *118:10 44.1303 
2 *118:10 *118:12 20 
3 *118:12 *578:A 20 
4 *118:12 *577:A 22.266 
*END

*D_NET *119 0.000402218
*CONN
*I *579:A I *D sg13cmos5l_inv_16
*I *572:Y O *D sg13cmos5l_inv_16
*CAP
1 *579:A 0.000201109
2 *572:Y 0.000201109
3 *579:A *184:12 0
*RES
1 *572:Y *579:A 41.9673 
*END

*D_NET *127 9.45957e-05
*CONN
*I *581:A I *D sg13cmos5l_inv_4
*I *580:Y O *D sg13cmos5l_inv_2
*CAP
1 *581:A 4.72978e-05
2 *580:Y 4.72978e-05
*RES
1 *580:Y *581:A 40.5974 
*END

*D_NET *128 0.000138905
*CONN
*I *582:A I *D sg13cmos5l_inv_8
*I *581:Y O *D sg13cmos5l_inv_4
*CAP
1 *582:A 6.94525e-05
2 *581:Y 6.94525e-05
3 *582:A *566:A 0
*RES
1 *581:Y *582:A 40.8446 
*END

*D_NET *129 0.000491313
*CONN
*I *566:A I *D sg13cmos5l_inv_16
*I *582:Y O *D sg13cmos5l_inv_8
*CAP
1 *566:A 0.000245656
2 *582:Y 0.000245656
3 *566:A *567:A 0
4 *566:A *568:A 0
5 *566:A *185:10 0
6 *566:A *185:18 0
7 *582:A *566:A 0
*RES
1 *582:Y *566:A 42.781 
*END

*D_NET *130 0.000580873
*CONN
*I *567:A I *D sg13cmos5l_inv_16
*I *568:A I *D sg13cmos5l_inv_16
*I *566:Y O *D sg13cmos5l_inv_16
*CAP
1 *567:A 0.000178213
2 *568:A 0.000112223
3 *566:Y 0.000290436
4 *568:A *185:18 0
5 *566:A *567:A 0
6 *566:A *568:A 0
*RES
1 *566:Y *568:A 41.3802 
2 *566:Y *567:A 42.0497 
*END

*D_NET *131 0.000890229
*CONN
*I *569:A I *D sg13cmos5l_inv_16
*I *570:A I *D sg13cmos5l_inv_16
*I *567:Y O *D sg13cmos5l_inv_16
*CAP
1 *569:A 6.47374e-05
2 *570:A 0
3 *567:Y 0.000380377
4 *131:6 0.000445115
5 *131:6 *573:A 0
6 *131:6 *185:18 0
*RES
1 *567:Y *131:6 23.7801 
2 *131:6 *570:A 20 
3 *131:6 *569:A 20.5974 
*END

*D_NET *132 0.000965828
*CONN
*I *572:A I *D sg13cmos5l_inv_16
*I *571:A I *D sg13cmos5l_inv_16
*I *568:Y O *D sg13cmos5l_inv_16
*CAP
1 *572:A 0.000194075
2 *571:A 0.000169182
3 *568:Y 0.000313732
4 *132:8 0.000288839
5 *571:A *184:12 0
6 *572:A *184:12 0
7 *572:A *185:18 0
8 *117:14 *132:8 0
*RES
1 *568:Y *132:8 41.339 
2 *132:8 *571:A 41.6171 
3 *568:Y *572:A 41.751 
*END

*D_NET *133 0.000801054
*CONN
*I *574:A I *D sg13cmos5l_inv_16
*I *573:A I *D sg13cmos5l_inv_16
*I *569:Y O *D sg13cmos5l_inv_16
*CAP
1 *574:A 0.000182831
2 *573:A 0.000217696
3 *569:Y 0
4 *133:4 0.000400527
5 *131:6 *573:A 0
*RES
1 *569:Y *133:4 20 
2 *133:4 *573:A 22.0497 
3 *133:4 *574:A 22.0497 
*END

*D_NET *134 0.000569719
*CONN
*I *576:A I *D sg13cmos5l_inv_16
*I *575:A I *D sg13cmos5l_inv_16
*I *570:Y O *D sg13cmos5l_inv_16
*CAP
1 *576:A 0
2 *575:A 0.000193334
3 *570:Y 9.15253e-05
4 *134:6 0.000284859
5 *575:A *184:12 0
*RES
1 *570:Y *134:6 20.8446 
2 *134:6 *575:A 21.8334 
3 *134:6 *576:A 20 
*END

*D_NET *135 0.00104401
*CONN
*I *598:A I *D sg13cmos5l_inv_2
*I *583:Y O *D sg13cmos5l_inv_1
*CAP
1 *598:A 0.00017739
2 *583:Y 0.000101982
3 *135:8 0.000279372
4 *598:A *599:A 0.000144058
5 *135:8 *146:10 0.000341204
6 *25:8 *135:8 0
*RES
1 *583:Y *135:8 41.5862 
2 *135:8 *598:A 41.6171 
*END

*D_NET *136 0.000514019
*CONN
*I *595:A I *D sg13cmos5l_inv_16
*I *596:A I *D sg13cmos5l_inv_16
*I *589:Y O *D sg13cmos5l_inv_16
*CAP
1 *595:A 0
2 *596:A 0.00019014
3 *589:Y 6.68694e-05
4 *136:6 0.000257009
*RES
1 *589:Y *136:6 20.8446 
2 *136:6 *596:A 22.1836 
3 *136:6 *595:A 20 
*END

*D_NET *137 0.000392122
*CONN
*I *597:A I *D sg13cmos5l_inv_16
*I *590:Y O *D sg13cmos5l_inv_16
*CAP
1 *597:A 0.000196061
2 *590:Y 0.000196061
3 *597:A *590:A 0
4 *113:19 *597:A 0
*RES
1 *590:Y *597:A 42.0497 
*END

*D_NET *145 0.000457
*CONN
*I *599:A I *D sg13cmos5l_inv_4
*I *598:Y O *D sg13cmos5l_inv_2
*CAP
1 *599:A 0.000156471
2 *598:Y 0.000156471
3 *598:A *599:A 0.000144058
*RES
1 *598:Y *599:A 41.6171 
*END

*D_NET *146 0.00150378
*CONN
*I *600:A I *D sg13cmos5l_inv_8
*I *599:Y O *D sg13cmos5l_inv_4
*CAP
1 *600:A 0.000200069
2 *599:Y 0.000324977
3 *146:10 0.000525047
4 *600:A *584:A 0.000112486
5 *146:10 *184:18 0
6 *135:8 *146:10 0.000341204
*RES
1 *599:Y *146:10 43.8831 
2 *146:10 *600:A 41.751 
*END

*D_NET *147 0.000507874
*CONN
*I *584:A I *D sg13cmos5l_inv_16
*I *600:Y O *D sg13cmos5l_inv_8
*CAP
1 *584:A 0.000197694
2 *600:Y 0.000197694
3 *600:A *584:A 0.000112486
*RES
1 *600:Y *584:A 42.2145 
*END

*D_NET *148 0.000662461
*CONN
*I *585:A I *D sg13cmos5l_inv_16
*I *586:A I *D sg13cmos5l_inv_16
*I *584:Y O *D sg13cmos5l_inv_16
*CAP
1 *585:A 0.000162293
2 *586:A 0
3 *584:Y 0.000168937
4 *148:8 0.000331231
5 *148:8 *590:A 0
*RES
1 *584:Y *148:8 21.9673 
2 *148:8 *586:A 20 
3 *148:8 *585:A 21.8334 
*END

*D_NET *149 0.000916647
*CONN
*I *588:A I *D sg13cmos5l_inv_16
*I *587:A I *D sg13cmos5l_inv_16
*I *585:Y O *D sg13cmos5l_inv_16
*CAP
1 *588:A 0
2 *587:A 0
3 *585:Y 0.000179539
4 *149:19 0.000278785
5 *149:6 0.000458323
6 *149:19 *593:A 0
7 *149:19 *178:10 0
*RES
1 *585:Y *149:6 22.0497 
2 *149:6 *587:A 20 
3 *149:6 *149:19 43.1724 
4 *149:19 *588:A 20 
*END

*D_NET *150 0.00133255
*CONN
*I *590:A I *D sg13cmos5l_inv_16
*I *589:A I *D sg13cmos5l_inv_16
*I *586:Y O *D sg13cmos5l_inv_16
*CAP
1 *590:A 0.000487777
2 *589:A 0.000178496
3 *586:Y 0.000666273
4 *597:A *590:A 0
5 *148:8 *590:A 0
*RES
1 *586:Y *589:A 42.2145 
2 *586:Y *590:A 45.9431 
*END

*D_NET *151 0.000527066
*CONN
*I *591:A I *D sg13cmos5l_inv_16
*I *592:A I *D sg13cmos5l_inv_16
*I *587:Y O *D sg13cmos5l_inv_16
*CAP
1 *591:A 0
2 *592:A 0.000196664
3 *587:Y 6.68694e-05
4 *151:6 0.000263533
*RES
1 *587:Y *151:6 20.8446 
2 *151:6 *592:A 22.266 
3 *151:6 *591:A 20 
*END

*D_NET *152 0.000540502
*CONN
*I *594:A I *D sg13cmos5l_inv_16
*I *593:A I *D sg13cmos5l_inv_16
*I *588:Y O *D sg13cmos5l_inv_16
*CAP
1 *594:A 0.000160977
2 *593:A 4.2405e-05
3 *588:Y 6.68694e-05
4 *152:6 0.000270251
5 *149:19 *593:A 0
*RES
1 *588:Y *152:6 20.8446 
2 *152:6 *593:A 20.5356 
3 *152:6 *594:A 21.8334 
*END

*D_NET *153 0.00104591
*CONN
*I *616:A I *D sg13cmos5l_inv_2
*I *601:Y O *D sg13cmos5l_inv_1
*CAP
1 *616:A 0.000304513
2 *601:Y 0.000304513
3 *616:A *604:A 0
4 *616:A *163:10 0.000436883
*RES
1 *601:Y *616:A 43.6977 
*END

*D_NET *154 0.000530868
*CONN
*I *614:A I *D sg13cmos5l_inv_16
*I *613:A I *D sg13cmos5l_inv_16
*I *607:Y O *D sg13cmos5l_inv_16
*CAP
1 *614:A 0
2 *613:A 0.000198565
3 *607:Y 6.68694e-05
4 *154:6 0.000265434
5 *613:A *185:18 0
*RES
1 *607:Y *154:6 20.8446 
2 *154:6 *613:A 22.266 
3 *154:6 *614:A 20 
*END

*D_NET *155 0.000633345
*CONN
*I *615:A I *D sg13cmos5l_inv_16
*I *608:Y O *D sg13cmos5l_inv_16
*CAP
1 *615:A 0.000316672
2 *608:Y 0.000316672
*RES
1 *608:Y *615:A 43.5638 
*END

*D_NET *163 0.00217409
*CONN
*I *617:A I *D sg13cmos5l_inv_4
*I *616:Y O *D sg13cmos5l_inv_2
*CAP
1 *617:A 0
2 *616:Y 0.000503031
3 *163:10 0.000503031
4 *163:10 *604:A 0
5 *163:10 *165:10 0
6 *601:A *163:10 1.54008e-05
7 *616:A *163:10 0.000436883
8 *26:8 *163:10 0.000715748
*RES
1 *616:Y *163:10 46.8804 
2 *163:10 *617:A 40 
*END

*D_NET *164 0.00029976
*CONN
*I *618:A I *D sg13cmos5l_inv_8
*I *617:Y O *D sg13cmos5l_inv_4
*CAP
1 *618:A 0.00014988
2 *617:Y 0.00014988
3 *618:A *473:B 0
4 *618:A *165:10 0
*RES
1 *617:Y *618:A 41.8437 
*END

*D_NET *165 0.000469786
*CONN
*I *602:A I *D sg13cmos5l_inv_16
*I *618:Y O *D sg13cmos5l_inv_8
*CAP
1 *602:A 0
2 *618:Y 0.000234893
3 *165:10 0.000234893
4 *165:10 *603:A 0
5 *165:10 *604:A 0
6 *618:A *165:10 0
7 *163:10 *165:10 0
*RES
1 *618:Y *165:10 42.7089 
2 *165:10 *602:A 40 
*END

*D_NET *166 0.000566131
*CONN
*I *604:A I *D sg13cmos5l_inv_16
*I *603:A I *D sg13cmos5l_inv_16
*I *602:Y O *D sg13cmos5l_inv_16
*CAP
1 *604:A 0.000173791
2 *603:A 0.000109274
3 *602:Y 0.000283066
4 *603:A *185:18 0
5 *616:A *604:A 0
6 *163:10 *604:A 0
7 *165:10 *603:A 0
8 *165:10 *604:A 0
*RES
1 *602:Y *603:A 41.3802 
2 *602:Y *604:A 42.0497 
*END

*D_NET *167 0.00118853
*CONN
*I *605:A I *D sg13cmos5l_inv_16
*I *606:A I *D sg13cmos5l_inv_16
*I *603:Y O *D sg13cmos5l_inv_16
*CAP
1 *605:A 0.000210721
2 *606:A 0.000383542
3 *603:Y 0.000594263
4 *606:A *185:18 0
*RES
1 *603:Y *606:A 44.4084 
2 *603:Y *605:A 42.4617 
*END

*D_NET *168 0.000970781
*CONN
*I *608:A I *D sg13cmos5l_inv_16
*I *607:A I *D sg13cmos5l_inv_16
*I *604:Y O *D sg13cmos5l_inv_16
*CAP
1 *608:A 0
2 *607:A 0
3 *604:Y 0.000175461
4 *168:14 0.000309929
5 *168:6 0.000485391
6 *168:6 *185:18 0
7 *168:14 *185:18 0
*RES
1 *604:Y *168:6 22.0497 
2 *168:6 *168:14 43.6668 
3 *168:14 *607:A 20 
4 *168:6 *608:A 20 
*END

*D_NET *169 0.0010763
*CONN
*I *610:A I *D sg13cmos5l_inv_16
*I *609:A I *D sg13cmos5l_inv_16
*I *605:Y O *D sg13cmos5l_inv_16
*CAP
1 *610:A 0
2 *609:A 0.000236421
3 *605:Y 0
4 *169:19 0.000301731
5 *169:4 0.000538152
6 *609:A *170:8 0
7 *169:19 *178:10 0
*RES
1 *605:Y *169:4 20 
2 *169:4 *609:A 22.6162 
3 *169:4 *169:19 43.3166 
4 *169:19 *610:A 20 
*END

*D_NET *170 0.000883418
*CONN
*I *612:A I *D sg13cmos5l_inv_16
*I *611:A I *D sg13cmos5l_inv_16
*I *606:Y O *D sg13cmos5l_inv_16
*CAP
1 *612:A 0
2 *611:A 0
3 *606:Y 0.000180395
4 *170:14 0.000261314
5 *170:8 0.000441709
6 *609:A *170:8 0
*RES
1 *606:Y *170:8 21.9673 
2 *170:8 *170:14 43.0694 
3 *170:14 *611:A 20 
4 *170:8 *612:A 20 
*END

*D_NET *171 0.000337233
*CONN
*I *474:A I *D sg13cmos5l_and2_1
*I *619:X O *D sg13cmos5l_buf_1
*CAP
1 *474:A 0
2 *619:X 0.000130801
3 *171:8 0.000130801
4 *171:8 *175:22 7.56308e-05
5 *171:8 *186:10 0
*RES
1 *619:X *171:8 41.339 
2 *171:8 *474:A 40 
*END

*D_NET *172 0.00306109
*CONN
*I *467:B I *D sg13cmos5l_and2_1
*I *620:X O *D sg13cmos5l_buf_1
*CAP
1 *467:B 0.000581876
2 *620:X 0.000564472
3 *172:10 0.00114635
4 *172:10 *176:8 0.000111705
5 *478:A *467:B 0.000209413
6 *4:11 *467:B 0
7 *20:10 *467:B 0
8 *42:10 *172:10 0.00044728
*RES
1 *620:X *172:10 46.0461 
2 *172:10 *467:B 45.7474 
*END

*D_NET *173 0.00292751
*CONN
*I *468:B I *D sg13cmos5l_and2_1
*I *621:X O *D sg13cmos5l_buf_1
*CAP
1 *468:B 0
2 *621:X 0
3 *173:12 0.00142357
4 *173:6 0.00142357
5 *173:12 *468:A 8.03692e-05
6 *173:12 *174:12 0
7 *477:A *173:12 0
8 *511:A *173:12 0
*RES
1 *621:X *173:6 40 
2 *173:6 *173:12 32.5042 
3 *173:12 *468:B 20 
*END

*D_NET *174 0.0061751
*CONN
*I *469:B I *D sg13cmos5l_and2_1
*I *622:X O *D sg13cmos5l_buf_1
*CAP
1 *469:B 0
2 *622:X 0
3 *174:12 0.00308755
4 *174:6 0.00308755
5 *174:12 *177:16 0
6 *22:8 *174:12 0
7 *173:12 *174:12 0
*RES
1 *622:X *174:6 40 
2 *174:6 *174:12 49.1593 
3 *174:12 *469:B 20 
*END

*D_NET *175 0.0110698
*CONN
*I *470:B I *D sg13cmos5l_and2_1
*I *623:X O *D sg13cmos5l_buf_1
*CAP
1 *470:B 0
2 *623:X 0.000134205
3 *175:22 0.0028525
4 *175:18 0.0028525
5 *175:16 0.00162427
6 *175:8 0.00175847
7 *175:16 *177:12 0.000533766
8 *175:22 *180:8 0
9 *175:22 *186:10 0.000128663
10 *475:A *175:16 0
11 *485:A *175:8 0
12 *505:A *175:22 0
13 *4:11 *175:22 0
14 *5:11 *175:22 0
15 *6:11 *175:22 0
16 *7:11 *175:22 0
17 *27:8 *175:22 0
18 *43:8 *175:8 0
19 *44:10 *175:16 0
20 *57:10 *175:22 0.000820239
21 *58:10 *175:22 0
22 *60:10 *175:22 0.000289504
23 *100:8 *175:22 0
24 *114:16 *175:22 0
25 *171:8 *175:22 7.56308e-05
*RES
1 *623:X *175:8 41.339 
2 *175:8 *175:16 33.9668 
3 *175:16 *175:18 20 
4 *175:18 *175:22 35.2775 
5 *175:22 *470:B 40 
*END

*D_NET *176 0.0133551
*CONN
*I *471:B I *D sg13cmos5l_and2_1
*I *624:X O *D sg13cmos5l_buf_1
*CAP
1 *471:B 0
2 *624:X 0.00159989
3 *176:22 0.00207313
4 *176:16 0.00358496
5 *176:8 0.00311172
6 *176:16 *180:8 0
7 *505:A *176:16 0
8 *620:A *176:8 0.000209505
9 *621:A *176:8 0.000305772
10 *623:A *176:8 0.000112335
11 *624:A *176:8 0.000111683
12 *4:11 *176:16 0
13 *5:11 *176:16 0
14 *7:11 *176:22 0
15 *27:8 *176:16 0
16 *38:8 *176:16 0.000234311
17 *58:10 *176:22 0.000181279
18 *100:8 *176:22 0
19 *100:18 *176:22 0.000713674
20 *109:8 *176:22 0.000555823
21 *114:16 *176:22 0.000449257
22 *172:10 *176:8 0.000111705
*RES
1 *624:X *176:8 34.729 
2 *176:8 *176:16 38.0456 
3 *176:16 *176:22 48.1087 
4 *176:22 *471:B 20 
*END

*D_NET *177 0.015111
*CONN
*I *472:B I *D sg13cmos5l_and2_1
*I *625:X O *D sg13cmos5l_buf_1
*CAP
1 *472:B 2.41961e-05
2 *625:X 9.75867e-05
3 *177:16 0.00469414
4 *177:14 0.00466995
5 *177:12 0.00170173
6 *177:8 0.00179932
7 *18:9 *177:8 0
8 *25:8 *177:16 0
9 *43:8 *177:16 0
10 *44:10 *177:12 0
11 *78:10 *177:12 0
12 *78:14 *177:12 0
13 *81:8 *177:16 0.00044777
14 *113:19 *177:16 0.0011425
15 *174:12 *177:16 0
16 *175:16 *177:12 0.000533766
*RES
1 *625:X *177:8 41.0918 
2 *177:8 *177:12 31.3506 
3 *177:12 *177:14 20 
4 *177:14 *177:16 52.2622 
5 *177:16 *472:B 40.3193 
*END

*D_NET *178 0.00958154
*CONN
*I *473:B I *D sg13cmos5l_and2_1
*I *626:X O *D sg13cmos5l_buf_1
*CAP
1 *473:B 7.9013e-05
2 *626:X 2.41961e-05
3 *178:10 0.00469399
4 *178:8 0.00463917
5 *473:B *185:18 0.000145173
6 *618:A *473:B 0
7 *77:12 *178:10 0
8 *95:12 *178:10 0
9 *149:19 *178:10 0
10 *169:19 *178:10 0
*RES
1 *626:X *178:8 40.3193 
2 *178:8 *178:10 58.6894 
3 *178:10 *473:B 40.9682 
*END

*D_NET *179 9.45957e-05
*CONN
*I *467:A I *D sg13cmos5l_and2_1
*I *627:X O *D sg13cmos5l_buf_1
*CAP
1 *467:A 4.72978e-05
2 *627:X 4.72978e-05
*RES
1 *627:X *467:A 40.5974 
*END

*D_NET *180 0.00186959
*CONN
*I *468:A I *D sg13cmos5l_and2_1
*I *628:X O *D sg13cmos5l_buf_1
*CAP
1 *468:A 0.000619719
2 *628:X 0.000274892
3 *180:8 0.000894611
4 *476:A *468:A 0
5 *477:A *468:A 0
6 *493:A *468:A 0
7 *505:A *180:8 0
8 *506:A *468:A 0
9 *46:10 *468:A 0
10 *46:10 *180:8 0
11 *173:12 *468:A 8.03692e-05
12 *175:22 *180:8 0
13 *176:16 *180:8 0
*RES
1 *628:X *180:8 43.0694 
2 *180:8 *468:A 46.1594 
*END

*D_NET *181 0.0018067
*CONN
*I *469:A I *D sg13cmos5l_and2_1
*I *629:X O *D sg13cmos5l_buf_1
*CAP
1 *469:A 0.000903352
2 *629:X 0.000903352
3 *510:A *469:A 0
*RES
1 *629:X *469:A 48.858 
*END

*D_NET *182 0.000415917
*CONN
*I *470:A I *D sg13cmos5l_and2_1
*I *630:X O *D sg13cmos5l_buf_1
*CAP
1 *470:A 0.000207959
2 *630:X 0.000207959
3 *547:A *470:A 0
4 *7:11 *470:A 0
5 *114:8 *470:A 0
6 *114:16 *470:A 0
*RES
1 *630:X *470:A 42.3072 
*END

*D_NET *183 0.000493918
*CONN
*I *471:A I *D sg13cmos5l_and2_1
*I *631:X O *D sg13cmos5l_buf_1
*CAP
1 *471:A 0.000246959
2 *631:X 0.000246959
3 *548:A *471:A 0
4 *564:A *471:A 0
5 *565:A *471:A 0
*RES
1 *631:X *471:A 42.3999 
*END

*D_NET *184 0.00315512
*CONN
*I *472:A I *D sg13cmos5l_and2_1
*I *632:X O *D sg13cmos5l_buf_1
*CAP
1 *472:A 0
2 *632:X 0.0011583
3 *184:18 0.000362878
4 *184:12 0.00152118
5 *571:A *184:12 0
6 *572:A *184:12 0
7 *575:A *184:12 0
8 *579:A *184:12 0
9 *9:13 *184:12 0.000112766
10 *146:10 *184:18 0
*RES
1 *632:X *184:12 31.7214 
2 *184:12 *184:18 44.5526 
3 *184:18 *472:A 20 
*END

*D_NET *185 0.00510461
*CONN
*I *473:A I *D sg13cmos5l_and2_1
*I *633:X O *D sg13cmos5l_buf_1
*CAP
1 *473:A 0
2 *633:X 0.00040808
3 *185:18 0.00204777
4 *185:10 0.00245585
5 *473:B *185:18 0.000145173
6 *566:A *185:10 0
7 *566:A *185:18 0
8 *568:A *185:18 0
9 *572:A *185:18 0
10 *603:A *185:18 0
11 *606:A *185:18 0
12 *613:A *185:18 0
13 *10:13 *185:10 0
14 *117:14 *185:18 4.77425e-05
15 *131:6 *185:18 0
16 *168:6 *185:18 0
17 *168:14 *185:18 0
*RES
1 *633:X *185:10 45.1191 
2 *185:10 *185:18 42.5617 
3 *185:18 *473:A 20 
*END

*D_NET *186 0.00108032
*CONN
*I *474:B I *D sg13cmos5l_and2_1
*I *634:X O *D sg13cmos5l_buf_1
*CAP
1 *474:B 0
2 *634:X 0.000354673
3 *186:10 0.000354673
4 *11:11 *186:10 0.000242313
5 *27:8 *186:10 0
6 *171:8 *186:10 0
7 *175:22 *186:10 0.000128663
*RES
1 *634:X *186:10 43.2033 
2 *186:10 *474:B 40 
*END
