*SPEF "ieee 1481-1999"
*DESIGN "heichips26_noise_gen"
*DATE "22:46:52 Thursday October 01, 2026"
*VENDOR "The OpenROAD Project"
*PROGRAM "OpenROAD"
*VERSION "dcf36133a369abc8f3c5e5738cd4d82e4903c0e0"
*DESIGN_FLOW "NAME_SCOPE LOCAL" "PIN_CAP NONE"
*DIVIDER /
*DELIMITER :
*BUS_DELIMITER []
*T_UNIT 1 NS
*C_UNIT 1 PF
*R_UNIT 1 OHM
*L_UNIT 1 HENRY

*NAME_MAP
*3 clk
*4 ena
*5 rst_n
*6 ui_in[0]
*7 ui_in[1]
*8 ui_in[2]
*9 ui_in[3]
*10 ui_in[4]
*11 ui_in[5]
*12 ui_in[6]
*13 ui_in[7]
*14 uio_in[0]
*15 uio_in[1]
*16 uio_in[2]
*17 uio_in[3]
*18 uio_in[4]
*19 uio_in[5]
*20 uio_in[6]
*21 uio_in[7]
*22 net
*23 net18
*24 net19
*25 net20
*26 net21
*27 net22
*28 net23
*29 net24
*30 net25
*31 net26
*32 net27
*33 net28
*34 net29
*35 net30
*36 net31
*37 net32
*38 uo_out[0]
*39 net33
*40 net34
*41 net35
*42 net36
*43 net37
*44 net38
*45 net39
*46 _00_
*47 _01_
*48 _02_
*49 _03_
*50 _04_
*51 _05_
*52 _06_
*53 _07_
*54 _08_
*55 _09_
*56 _10_
*57 _11_
*58 _12_
*59 _13_
*60 _14_
*61 _15_
*62 _16_
*63 _17_
*64 _18_
*65 _19_
*66 _20_
*67 _21_
*68 _22_
*69 _23_
*70 _24_
*71 i_noise_gen_top\.a_ro_osc
*72 i_noise_gen_top\.a_ro_tap\[0\]
*73 i_noise_gen_top\.a_ro_tap\[1\]
*74 i_noise_gen_top\.a_ro_tap\[2\]
*75 i_noise_gen_top\.a_ro_tap\[3\]
*76 i_noise_gen_top\.a_ro_tap\[4\]
*77 i_noise_gen_top\.a_ro_tap\[5\]
*78 i_noise_gen_top\.a_ro_tap\[6\]
*79 i_noise_gen_top\.a_ro_tap\[7\]
*80 i_noise_gen_top\.config_val\[0\]
*81 i_noise_gen_top\.config_val\[10\]
*82 i_noise_gen_top\.config_val\[11\]
*83 i_noise_gen_top\.config_val\[12\]
*84 i_noise_gen_top\.config_val\[13\]
*85 i_noise_gen_top\.config_val\[14\]
*86 i_noise_gen_top\.config_val\[15\]
*87 i_noise_gen_top\.config_val\[16\]
*88 i_noise_gen_top\.config_val\[17\]
*89 i_noise_gen_top\.config_val\[18\]
*90 i_noise_gen_top\.config_val\[19\]
*91 i_noise_gen_top\.config_val\[1\]
*92 i_noise_gen_top\.config_val\[20\]
*93 i_noise_gen_top\.config_val\[21\]
*94 i_noise_gen_top\.config_val\[22\]
*95 i_noise_gen_top\.config_val\[23\]
*96 i_noise_gen_top\.config_val\[24\]
*97 i_noise_gen_top\.config_val\[25\]
*98 i_noise_gen_top\.config_val\[26\]
*99 i_noise_gen_top\.config_val\[27\]
*100 i_noise_gen_top\.config_val\[28\]
*101 i_noise_gen_top\.config_val\[29\]
*102 i_noise_gen_top\.config_val\[2\]
*103 i_noise_gen_top\.config_val\[30\]
*104 i_noise_gen_top\.config_val\[31\]
*105 i_noise_gen_top\.config_val\[3\]
*106 i_noise_gen_top\.config_val\[4\]
*107 i_noise_gen_top\.config_val\[5\]
*108 i_noise_gen_top\.config_val\[6\]
*109 i_noise_gen_top\.config_val\[8\]
*110 i_noise_gen_top\.config_val\[9\]
*111 i_noise_gen_top\.d_ro_osc
*112 i_noise_gen_top\.en_at_e\[0\]
*113 i_noise_gen_top\.en_at_e\[1\]
*114 i_noise_gen_top\.en_at_e\[2\]
*115 i_noise_gen_top\.en_at_e\[3\]
*116 i_noise_gen_top\.en_at_e\[4\]
*117 i_noise_gen_top\.en_at_e\[5\]
*118 i_noise_gen_top\.en_at_e\[6\]
*119 i_noise_gen_top\.en_at_e\[7\]
*120 i_noise_gen_top\.en_load\[0\]
*121 i_noise_gen_top\.en_load\[1\]
*122 i_noise_gen_top\.en_load\[2\]
*123 i_noise_gen_top\.en_ros\[0\]
*124 i_noise_gen_top\.en_ros\[1\]
*125 i_noise_gen_top\.en_ros\[2\]
*126 i_noise_gen_top\.en_ros\[3\]
*127 i_noise_gen_top\.osc_at_e\[0\]
*128 i_noise_gen_top\.osc_at_e\[1\]
*129 i_noise_gen_top\.osc_at_e\[2\]
*130 i_noise_gen_top\.osc_at_e\[3\]
*131 i_noise_gen_top\.osc_at_e\[4\]
*132 i_noise_gen_top\.osc_at_e\[5\]
*133 i_noise_gen_top\.osc_at_e\[6\]
*134 i_noise_gen_top\.osc_at_e\[7\]
*135 i_noise_gen_top\.osc_at_f
*136 i_noise_gen_top\.osc_at_g
*137 i_noise_gen_top\.sel_load_src\[0\]
*138 i_noise_gen_top\.sel_load_src\[1\]
*139 i_noise_gen_top\.sel_load_src\[2\]
*140 i_noise_gen_top\.sel_load_src\[3\]
*141 i_noise_gen_top\.sel_load_src\[4\]
*142 i_noise_gen_top\.sel_load_src\[5\]
*143 net1
*144 net10
*145 net11
*146 net12
*147 net13
*148 net14
*149 net15
*150 net16
*151 net17
*152 net2
*153 net3
*154 net4
*155 net5
*156 net6
*157 net7
*158 net8
*159 net9
*160 ANTENNA_1
*161 FILLER_0_0
*162 FILLER_0_1001
*163 FILLER_0_1008
*164 FILLER_0_1015
*165 FILLER_0_1022
*166 FILLER_0_105
*167 FILLER_0_112
*168 FILLER_0_119
*169 FILLER_0_126
*170 FILLER_0_133
*171 FILLER_0_14
*172 FILLER_0_140
*173 FILLER_0_147
*174 FILLER_0_154
*175 FILLER_0_161
*176 FILLER_0_168
*177 FILLER_0_175
*178 FILLER_0_182
*179 FILLER_0_189
*180 FILLER_0_196
*181 FILLER_0_203
*182 FILLER_0_21
*183 FILLER_0_210
*184 FILLER_0_217
*185 FILLER_0_224
*186 FILLER_0_231
*187 FILLER_0_238
*188 FILLER_0_245
*189 FILLER_0_252
*190 FILLER_0_259
*191 FILLER_0_266
*192 FILLER_0_273
*193 FILLER_0_28
*194 FILLER_0_280
*195 FILLER_0_287
*196 FILLER_0_294
*197 FILLER_0_301
*198 FILLER_0_308
*199 FILLER_0_315
*200 FILLER_0_322
*201 FILLER_0_329
*202 FILLER_0_336
*203 FILLER_0_343
*204 FILLER_0_35
*205 FILLER_0_350
*206 FILLER_0_357
*207 FILLER_0_364
*208 FILLER_0_371
*209 FILLER_0_378
*210 FILLER_0_385
*211 FILLER_0_392
*212 FILLER_0_399
*213 FILLER_0_406
*214 FILLER_0_413
*215 FILLER_0_42
*216 FILLER_0_420
*217 FILLER_0_427
*218 FILLER_0_434
*219 FILLER_0_441
*220 FILLER_0_448
*221 FILLER_0_455
*222 FILLER_0_462
*223 FILLER_0_469
*224 FILLER_0_476
*225 FILLER_0_483
*226 FILLER_0_49
*227 FILLER_0_490
*228 FILLER_0_497
*229 FILLER_0_504
*230 FILLER_0_511
*231 FILLER_0_518
*232 FILLER_0_525
*233 FILLER_0_532
*234 FILLER_0_539
*235 FILLER_0_546
*236 FILLER_0_553
*237 FILLER_0_56
*238 FILLER_0_560
*239 FILLER_0_567
*240 FILLER_0_574
*241 FILLER_0_581
*242 FILLER_0_588
*243 FILLER_0_595
*244 FILLER_0_602
*245 FILLER_0_609
*246 FILLER_0_616
*247 FILLER_0_623
*248 FILLER_0_63
*249 FILLER_0_630
*250 FILLER_0_637
*251 FILLER_0_644
*252 FILLER_0_651
*253 FILLER_0_658
*254 FILLER_0_665
*255 FILLER_0_672
*256 FILLER_0_679
*257 FILLER_0_686
*258 FILLER_0_693
*259 FILLER_0_7
*260 FILLER_0_70
*261 FILLER_0_700
*262 FILLER_0_707
*263 FILLER_0_714
*264 FILLER_0_721
*265 FILLER_0_728
*266 FILLER_0_735
*267 FILLER_0_742
*268 FILLER_0_749
*269 FILLER_0_756
*270 FILLER_0_763
*271 FILLER_0_77
*272 FILLER_0_770
*273 FILLER_0_777
*274 FILLER_0_784
*275 FILLER_0_791
*276 FILLER_0_798
*277 FILLER_0_805
*278 FILLER_0_812
*279 FILLER_0_819
*280 FILLER_0_826
*281 FILLER_0_833
*282 FILLER_0_84
*283 FILLER_0_840
*284 FILLER_0_847
*285 FILLER_0_854
*286 FILLER_0_861
*287 FILLER_0_868
*288 FILLER_0_875
*289 FILLER_0_882
*290 FILLER_0_889
*291 FILLER_0_896
*292 FILLER_0_903
*293 FILLER_0_91
*294 FILLER_0_910
*295 FILLER_0_917
*296 FILLER_0_924
*297 FILLER_0_931
*298 FILLER_0_938
*299 FILLER_0_945
*300 FILLER_0_952
*301 FILLER_0_959
*302 FILLER_0_966
*303 FILLER_0_973
*304 FILLER_0_98
*305 FILLER_0_980
*306 FILLER_0_987
*307 FILLER_0_994
*308 FILLER_10_11
*309 FILLER_10_18
*310 FILLER_10_25
*311 FILLER_10_32
*312 FILLER_10_34
*313 FILLER_10_4
*314 FILLER_11_11
*315 FILLER_11_18
*316 FILLER_11_25
*317 FILLER_11_32
*318 FILLER_11_34
*319 FILLER_11_4
*320 FILLER_12_11
*321 FILLER_12_18
*322 FILLER_12_25
*323 FILLER_12_32
*324 FILLER_12_34
*325 FILLER_12_4
*326 FILLER_13_11
*327 FILLER_13_18
*328 FILLER_13_25
*329 FILLER_13_32
*330 FILLER_13_34
*331 FILLER_13_4
*332 FILLER_14_11
*333 FILLER_14_18
*334 FILLER_14_25
*335 FILLER_14_32
*336 FILLER_14_34
*337 FILLER_14_4
*338 FILLER_15_11
*339 FILLER_15_18
*340 FILLER_15_25
*341 FILLER_15_32
*342 FILLER_15_34
*343 FILLER_15_4
*344 FILLER_16_11
*345 FILLER_16_18
*346 FILLER_16_25
*347 FILLER_16_32
*348 FILLER_16_34
*349 FILLER_16_4
*350 FILLER_17_0
*351 FILLER_17_14
*352 FILLER_17_21
*353 FILLER_17_28
*354 FILLER_17_7
*355 FILLER_18_11
*356 FILLER_18_18
*357 FILLER_18_25
*358 FILLER_18_32
*359 FILLER_18_34
*360 FILLER_18_4
*361 FILLER_19_11
*362 FILLER_19_18
*363 FILLER_19_25
*364 FILLER_19_32
*365 FILLER_19_34
*366 FILLER_19_4
*367 FILLER_1_0
*368 FILLER_1_1000
*369 FILLER_1_1007
*370 FILLER_1_1014
*371 FILLER_1_1021
*372 FILLER_1_1028
*373 FILLER_1_105
*374 FILLER_1_112
*375 FILLER_1_119
*376 FILLER_1_126
*377 FILLER_1_133
*378 FILLER_1_14
*379 FILLER_1_140
*380 FILLER_1_147
*381 FILLER_1_154
*382 FILLER_1_161
*383 FILLER_1_168
*384 FILLER_1_175
*385 FILLER_1_182
*386 FILLER_1_189
*387 FILLER_1_196
*388 FILLER_1_203
*389 FILLER_1_21
*390 FILLER_1_210
*391 FILLER_1_217
*392 FILLER_1_224
*393 FILLER_1_231
*394 FILLER_1_238
*395 FILLER_1_245
*396 FILLER_1_252
*397 FILLER_1_259
*398 FILLER_1_266
*399 FILLER_1_273
*400 FILLER_1_28
*401 FILLER_1_280
*402 FILLER_1_287
*403 FILLER_1_294
*404 FILLER_1_301
*405 FILLER_1_308
*406 FILLER_1_315
*407 FILLER_1_322
*408 FILLER_1_329
*409 FILLER_1_336
*410 FILLER_1_343
*411 FILLER_1_35
*412 FILLER_1_350
*413 FILLER_1_357
*414 FILLER_1_364
*415 FILLER_1_371
*416 FILLER_1_378
*417 FILLER_1_385
*418 FILLER_1_392
*419 FILLER_1_399
*420 FILLER_1_406
*421 FILLER_1_413
*422 FILLER_1_42
*423 FILLER_1_420
*424 FILLER_1_427
*425 FILLER_1_434
*426 FILLER_1_441
*427 FILLER_1_448
*428 FILLER_1_455
*429 FILLER_1_462
*430 FILLER_1_469
*431 FILLER_1_476
*432 FILLER_1_483
*433 FILLER_1_49
*434 FILLER_1_490
*435 FILLER_1_497
*436 FILLER_1_504
*437 FILLER_1_511
*438 FILLER_1_518
*439 FILLER_1_525
*440 FILLER_1_532
*441 FILLER_1_539
*442 FILLER_1_546
*443 FILLER_1_553
*444 FILLER_1_56
*445 FILLER_1_560
*446 FILLER_1_567
*447 FILLER_1_574
*448 FILLER_1_581
*449 FILLER_1_588
*450 FILLER_1_595
*451 FILLER_1_602
*452 FILLER_1_609
*453 FILLER_1_616
*454 FILLER_1_623
*455 FILLER_1_63
*456 FILLER_1_630
*457 FILLER_1_637
*458 FILLER_1_644
*459 FILLER_1_651
*460 FILLER_1_658
*461 FILLER_1_665
*462 FILLER_1_672
*463 FILLER_1_678
*464 FILLER_1_680
*465 FILLER_1_686
*466 FILLER_1_693
*467 FILLER_1_7
*468 FILLER_1_70
*469 FILLER_1_700
*470 FILLER_1_706
*471 FILLER_1_713
*472 FILLER_1_720
*473 FILLER_1_727
*474 FILLER_1_734
*475 FILLER_1_741
*476 FILLER_1_748
*477 FILLER_1_755
*478 FILLER_1_762
*479 FILLER_1_769
*480 FILLER_1_77
*481 FILLER_1_776
*482 FILLER_1_783
*483 FILLER_1_790
*484 FILLER_1_797
*485 FILLER_1_804
*486 FILLER_1_811
*487 FILLER_1_818
*488 FILLER_1_825
*489 FILLER_1_832
*490 FILLER_1_839
*491 FILLER_1_84
*492 FILLER_1_846
*493 FILLER_1_853
*494 FILLER_1_860
*495 FILLER_1_867
*496 FILLER_1_874
*497 FILLER_1_881
*498 FILLER_1_888
*499 FILLER_1_895
*500 FILLER_1_902
*501 FILLER_1_909
*502 FILLER_1_91
*503 FILLER_1_916
*504 FILLER_1_923
*505 FILLER_1_930
*506 FILLER_1_937
*507 FILLER_1_944
*508 FILLER_1_951
*509 FILLER_1_958
*510 FILLER_1_965
*511 FILLER_1_972
*512 FILLER_1_979
*513 FILLER_1_98
*514 FILLER_1_986
*515 FILLER_1_993
*516 FILLER_20_11
*517 FILLER_20_18
*518 FILLER_20_25
*519 FILLER_20_32
*520 FILLER_20_34
*521 FILLER_20_4
*522 FILLER_21_11
*523 FILLER_21_18
*524 FILLER_21_25
*525 FILLER_21_32
*526 FILLER_21_34
*527 FILLER_21_4
*528 FILLER_22_11
*529 FILLER_22_18
*530 FILLER_22_25
*531 FILLER_22_32
*532 FILLER_22_34
*533 FILLER_22_4
*534 FILLER_23_11
*535 FILLER_23_18
*536 FILLER_23_25
*537 FILLER_23_32
*538 FILLER_23_34
*539 FILLER_23_4
*540 FILLER_24_11
*541 FILLER_24_18
*542 FILLER_24_25
*543 FILLER_24_32
*544 FILLER_24_34
*545 FILLER_24_4
*546 FILLER_25_11
*547 FILLER_25_18
*548 FILLER_25_25
*549 FILLER_25_32
*550 FILLER_25_34
*551 FILLER_25_4
*552 FILLER_26_11
*553 FILLER_26_18
*554 FILLER_26_25
*555 FILLER_26_32
*556 FILLER_26_34
*557 FILLER_26_4
*558 FILLER_27_0
*559 FILLER_27_14
*560 FILLER_27_21
*561 FILLER_27_28
*562 FILLER_27_7
*563 FILLER_28_11
*564 FILLER_28_18
*565 FILLER_28_25
*566 FILLER_28_27
*567 FILLER_28_32
*568 FILLER_28_34
*569 FILLER_28_4
*570 FILLER_29_11
*571 FILLER_29_18
*572 FILLER_29_25
*573 FILLER_29_32
*574 FILLER_29_34
*575 FILLER_29_4
*576 FILLER_2_105
*577 FILLER_2_112
*578 FILLER_2_119
*579 FILLER_2_126
*580 FILLER_2_133
*581 FILLER_2_14
*582 FILLER_2_140
*583 FILLER_2_147
*584 FILLER_2_154
*585 FILLER_2_161
*586 FILLER_2_168
*587 FILLER_2_175
*588 FILLER_2_182
*589 FILLER_2_189
*590 FILLER_2_196
*591 FILLER_2_203
*592 FILLER_2_21
*593 FILLER_2_210
*594 FILLER_2_217
*595 FILLER_2_224
*596 FILLER_2_231
*597 FILLER_2_238
*598 FILLER_2_245
*599 FILLER_2_252
*600 FILLER_2_259
*601 FILLER_2_266
*602 FILLER_2_273
*603 FILLER_2_28
*604 FILLER_2_280
*605 FILLER_2_287
*606 FILLER_2_294
*607 FILLER_2_301
*608 FILLER_2_308
*609 FILLER_2_315
*610 FILLER_2_322
*611 FILLER_2_329
*612 FILLER_2_336
*613 FILLER_2_343
*614 FILLER_2_35
*615 FILLER_2_350
*616 FILLER_2_357
*617 FILLER_2_364
*618 FILLER_2_371
*619 FILLER_2_378
*620 FILLER_2_385
*621 FILLER_2_392
*622 FILLER_2_399
*623 FILLER_2_406
*624 FILLER_2_413
*625 FILLER_2_42
*626 FILLER_2_420
*627 FILLER_2_427
*628 FILLER_2_434
*629 FILLER_2_441
*630 FILLER_2_448
*631 FILLER_2_455
*632 FILLER_2_462
*633 FILLER_2_469
*634 FILLER_2_476
*635 FILLER_2_483
*636 FILLER_2_49
*637 FILLER_2_490
*638 FILLER_2_497
*639 FILLER_2_504
*640 FILLER_2_511
*641 FILLER_2_515
*642 FILLER_2_522
*643 FILLER_2_542
*644 FILLER_2_546
*645 FILLER_2_56
*646 FILLER_2_564
*647 FILLER_2_571
*648 FILLER_2_578
*649 FILLER_2_585
*650 FILLER_2_592
*651 FILLER_2_599
*652 FILLER_2_606
*653 FILLER_2_608
*654 FILLER_2_614
*655 FILLER_2_616
*656 FILLER_2_627
*657 FILLER_2_63
*658 FILLER_2_634
*659 FILLER_2_641
*660 FILLER_2_648
*661 FILLER_2_655
*662 FILLER_2_674
*663 FILLER_2_676
*664 FILLER_2_7
*665 FILLER_2_70
*666 FILLER_2_77
*667 FILLER_2_84
*668 FILLER_2_91
*669 FILLER_2_98
*670 FILLER_30_11
*671 FILLER_30_18
*672 FILLER_30_25
*673 FILLER_30_32
*674 FILLER_30_34
*675 FILLER_30_4
*676 FILLER_31_11
*677 FILLER_31_18
*678 FILLER_31_25
*679 FILLER_31_32
*680 FILLER_31_34
*681 FILLER_31_4
*682 FILLER_32_11
*683 FILLER_32_18
*684 FILLER_32_25
*685 FILLER_32_32
*686 FILLER_32_34
*687 FILLER_32_4
*688 FILLER_33_11
*689 FILLER_33_18
*690 FILLER_33_25
*691 FILLER_33_32
*692 FILLER_33_34
*693 FILLER_33_4
*694 FILLER_34_11
*695 FILLER_34_18
*696 FILLER_34_25
*697 FILLER_34_32
*698 FILLER_34_34
*699 FILLER_34_4
*700 FILLER_35_11
*701 FILLER_35_18
*702 FILLER_35_25
*703 FILLER_35_32
*704 FILLER_35_34
*705 FILLER_35_4
*706 FILLER_36_11
*707 FILLER_36_18
*708 FILLER_36_25
*709 FILLER_36_32
*710 FILLER_36_34
*711 FILLER_36_4
*712 FILLER_37_0
*713 FILLER_37_14
*714 FILLER_37_21
*715 FILLER_37_28
*716 FILLER_37_7
*717 FILLER_38_11
*718 FILLER_38_18
*719 FILLER_38_25
*720 FILLER_38_32
*721 FILLER_38_34
*722 FILLER_38_4
*723 FILLER_39_11
*724 FILLER_39_18
*725 FILLER_39_25
*726 FILLER_39_32
*727 FILLER_39_34
*728 FILLER_39_4
*729 FILLER_3_102
*730 FILLER_3_109
*731 FILLER_3_11
*732 FILLER_3_116
*733 FILLER_3_123
*734 FILLER_3_130
*735 FILLER_3_137
*736 FILLER_3_144
*737 FILLER_3_151
*738 FILLER_3_158
*739 FILLER_3_165
*740 FILLER_3_172
*741 FILLER_3_179
*742 FILLER_3_18
*743 FILLER_3_186
*744 FILLER_3_193
*745 FILLER_3_200
*746 FILLER_3_207
*747 FILLER_3_214
*748 FILLER_3_221
*749 FILLER_3_228
*750 FILLER_3_235
*751 FILLER_3_242
*752 FILLER_3_249
*753 FILLER_3_25
*754 FILLER_3_256
*755 FILLER_3_263
*756 FILLER_3_270
*757 FILLER_3_277
*758 FILLER_3_284
*759 FILLER_3_291
*760 FILLER_3_298
*761 FILLER_3_305
*762 FILLER_3_312
*763 FILLER_3_319
*764 FILLER_3_32
*765 FILLER_3_326
*766 FILLER_3_333
*767 FILLER_3_340
*768 FILLER_3_347
*769 FILLER_3_354
*770 FILLER_3_361
*771 FILLER_3_368
*772 FILLER_3_375
*773 FILLER_3_382
*774 FILLER_3_389
*775 FILLER_3_39
*776 FILLER_3_396
*777 FILLER_3_4
*778 FILLER_3_413
*779 FILLER_3_420
*780 FILLER_3_437
*781 FILLER_3_444
*782 FILLER_3_451
*783 FILLER_3_458
*784 FILLER_3_46
*785 FILLER_3_465
*786 FILLER_3_472
*787 FILLER_3_479
*788 FILLER_3_486
*789 FILLER_3_490
*790 FILLER_3_495
*791 FILLER_3_499
*792 FILLER_3_515
*793 FILLER_3_522
*794 FILLER_3_529
*795 FILLER_3_53
*796 FILLER_3_536
*797 FILLER_3_543
*798 FILLER_3_547
*799 FILLER_3_559
*800 FILLER_3_566
*801 FILLER_3_573
*802 FILLER_3_580
*803 FILLER_3_584
*804 FILLER_3_60
*805 FILLER_3_601
*806 FILLER_3_613
*807 FILLER_3_615
*808 FILLER_3_636
*809 FILLER_3_643
*810 FILLER_3_660
*811 FILLER_3_667
*812 FILLER_3_67
*813 FILLER_3_74
*814 FILLER_3_81
*815 FILLER_3_88
*816 FILLER_3_95
*817 FILLER_40_11
*818 FILLER_40_18
*819 FILLER_40_25
*820 FILLER_40_32
*821 FILLER_40_34
*822 FILLER_40_4
*823 FILLER_41_11
*824 FILLER_41_18
*825 FILLER_41_25
*826 FILLER_41_32
*827 FILLER_41_34
*828 FILLER_41_4
*829 FILLER_42_0
*830 FILLER_42_14
*831 FILLER_42_21
*832 FILLER_42_28
*833 FILLER_42_7
*834 FILLER_43_0
*835 FILLER_43_14
*836 FILLER_43_21
*837 FILLER_43_28
*838 FILLER_43_7
*839 FILLER_44_11
*840 FILLER_44_18
*841 FILLER_44_25
*842 FILLER_44_32
*843 FILLER_44_34
*844 FILLER_44_4
*845 FILLER_45_11
*846 FILLER_45_18
*847 FILLER_45_25
*848 FILLER_45_32
*849 FILLER_45_34
*850 FILLER_45_4
*851 FILLER_46_0
*852 FILLER_46_14
*853 FILLER_46_21
*854 FILLER_46_28
*855 FILLER_46_7
*856 FILLER_47_0
*857 FILLER_47_14
*858 FILLER_47_21
*859 FILLER_47_28
*860 FILLER_47_7
*861 FILLER_48_0
*862 FILLER_48_1005
*863 FILLER_48_1012
*864 FILLER_48_1019
*865 FILLER_48_1026
*866 FILLER_48_1028
*867 FILLER_48_14
*868 FILLER_48_21
*869 FILLER_48_28
*870 FILLER_48_682
*871 FILLER_48_7
*872 FILLER_48_711
*873 FILLER_48_718
*874 FILLER_48_725
*875 FILLER_48_732
*876 FILLER_48_739
*877 FILLER_48_746
*878 FILLER_48_753
*879 FILLER_48_760
*880 FILLER_48_767
*881 FILLER_48_774
*882 FILLER_48_781
*883 FILLER_48_788
*884 FILLER_48_795
*885 FILLER_48_802
*886 FILLER_48_809
*887 FILLER_48_816
*888 FILLER_48_823
*889 FILLER_48_830
*890 FILLER_48_837
*891 FILLER_48_844
*892 FILLER_48_851
*893 FILLER_48_858
*894 FILLER_48_865
*895 FILLER_48_872
*896 FILLER_48_879
*897 FILLER_48_886
*898 FILLER_48_893
*899 FILLER_48_900
*900 FILLER_48_907
*901 FILLER_48_914
*902 FILLER_48_921
*903 FILLER_48_928
*904 FILLER_48_935
*905 FILLER_48_942
*906 FILLER_48_949
*907 FILLER_48_956
*908 FILLER_48_963
*909 FILLER_48_970
*910 FILLER_48_977
*911 FILLER_48_984
*912 FILLER_48_991
*913 FILLER_48_998
*914 FILLER_49_1006
*915 FILLER_49_1013
*916 FILLER_49_1020
*917 FILLER_49_1027
*918 FILLER_49_11
*919 FILLER_49_18
*920 FILLER_49_25
*921 FILLER_49_32
*922 FILLER_49_34
*923 FILLER_49_4
*924 FILLER_49_682
*925 FILLER_49_686
*926 FILLER_49_692
*927 FILLER_49_698
*928 FILLER_49_705
*929 FILLER_49_712
*930 FILLER_49_719
*931 FILLER_49_726
*932 FILLER_49_733
*933 FILLER_49_740
*934 FILLER_49_747
*935 FILLER_49_754
*936 FILLER_49_761
*937 FILLER_49_768
*938 FILLER_49_775
*939 FILLER_49_782
*940 FILLER_49_789
*941 FILLER_49_796
*942 FILLER_49_803
*943 FILLER_49_810
*944 FILLER_49_817
*945 FILLER_49_824
*946 FILLER_49_831
*947 FILLER_49_838
*948 FILLER_49_845
*949 FILLER_49_852
*950 FILLER_49_859
*951 FILLER_49_866
*952 FILLER_49_873
*953 FILLER_49_880
*954 FILLER_49_887
*955 FILLER_49_894
*956 FILLER_49_901
*957 FILLER_49_908
*958 FILLER_49_915
*959 FILLER_49_922
*960 FILLER_49_929
*961 FILLER_49_936
*962 FILLER_49_943
*963 FILLER_49_950
*964 FILLER_49_957
*965 FILLER_49_964
*966 FILLER_49_971
*967 FILLER_49_978
*968 FILLER_49_985
*969 FILLER_49_992
*970 FILLER_49_999
*971 FILLER_4_11
*972 FILLER_4_18
*973 FILLER_4_25
*974 FILLER_4_32
*975 FILLER_4_34
*976 FILLER_4_4
*977 FILLER_5_11
*978 FILLER_5_18
*979 FILLER_5_25
*980 FILLER_5_32
*981 FILLER_5_34
*982 FILLER_5_4
*983 FILLER_6_11
*984 FILLER_6_18
*985 FILLER_6_25
*986 FILLER_6_32
*987 FILLER_6_34
*988 FILLER_6_4
*989 FILLER_7_0
*990 FILLER_7_14
*991 FILLER_7_21
*992 FILLER_7_28
*993 FILLER_7_7
*994 FILLER_8_11
*995 FILLER_8_18
*996 FILLER_8_25
*997 FILLER_8_32
*998 FILLER_8_34
*999 FILLER_8_4
*1000 FILLER_9_11
*1001 FILLER_9_18
*1002 FILLER_9_25
*1003 FILLER_9_32
*1004 FILLER_9_34
*1005 FILLER_9_4
*1006 _25_
*1007 _26_
*1008 _27_
*1009 _28_
*1010 _29_
*1011 _30_
*1012 _31_
*1013 _32_
*1014 _33_
*1015 _34_
*1016 _35_
*1017 _36_
*1018 _37_
*1019 _38_
*1020 _39_
*1021 _40_
*1022 _41_
*1023 _42_
*1024 _43_
*1025 _44_
*1026 _45_
*1027 _46_
*1028 _47_
*1029 _48_
*1030 _49_
*1031 _50_
*1032 _51_
*1033 _52_
*1034 _53_
*1035 _54_
*1036 _55_
*1037 _56_
*1038 _57_
*1039 _58_
*1040 _59_
*1041 _60_
*1042 _61_
*1043 _62_
*1044 _63_
*1045 _64_
*1046 _65_
*1047 _66_
*1048 _67_
*1049 fanout17
*1050 heichips26_noise_gen
*1051 heichips26_noise_gen_18
*1052 heichips26_noise_gen_19
*1053 heichips26_noise_gen_20
*1054 heichips26_noise_gen_21
*1055 heichips26_noise_gen_22
*1056 heichips26_noise_gen_23
*1057 heichips26_noise_gen_24
*1058 heichips26_noise_gen_25
*1059 heichips26_noise_gen_26
*1060 heichips26_noise_gen_27
*1061 heichips26_noise_gen_28
*1062 heichips26_noise_gen_29
*1063 heichips26_noise_gen_30
*1064 heichips26_noise_gen_31
*1065 heichips26_noise_gen_32
*1066 heichips26_noise_gen_33
*1067 heichips26_noise_gen_34
*1068 heichips26_noise_gen_35
*1069 heichips26_noise_gen_36
*1070 heichips26_noise_gen_37
*1071 heichips26_noise_gen_38
*1072 heichips26_noise_gen_39
*1073 i_noise_gen_top\.i_a_ro
*1074 i_noise_gen_top\.i_ctrl
*1075 i_noise_gen_top\.i_d_ro_tapped
*1076 i_noise_gen_top\.i_e_load_uniform
*1077 i_noise_gen_top\.i_f_load_binary
*1078 i_noise_gen_top\.i_g_glitch
*1079 input1
*1080 input10
*1081 input11
*1082 input12
*1083 input13
*1084 input14
*1085 input15
*1086 input2
*1087 input3
*1088 input4
*1089 input5
*1090 input6
*1091 input7
*1092 input8
*1093 input9
*1094 output16

*PORTS
clk I
ena I
rst_n I
ui_in[0] I
ui_in[1] I
ui_in[2] I
ui_in[3] I
ui_in[4] I
ui_in[5] I
ui_in[6] I
ui_in[7] I
uio_in[0] I
uio_in[1] I
uio_in[2] I
uio_in[3] I
uio_in[4] I
uio_in[5] I
uio_in[6] I
uio_in[7] I
uio_oe[0] O
uio_oe[1] O
uio_oe[2] O
uio_oe[3] O
uio_oe[4] O
uio_oe[5] O
uio_oe[6] O
uio_oe[7] O
uio_out[0] O
uio_out[1] O
uio_out[2] O
uio_out[3] O
uio_out[4] O
uio_out[5] O
uio_out[6] O
uio_out[7] O
uo_out[0] O
uo_out[1] O
uo_out[2] O
uo_out[3] O
uo_out[4] O
uo_out[5] O
uo_out[6] O
uo_out[7] O

*D_NET *3 0.0215801
*CONN
*P clk I
*I *1074:clk_i I *D ctrl
*CAP
1 clk 0.00104284
2 *1074:clk_i 0.000218689
3 *3:9 0.00584337
4 *3:7 0.00666752
5 *3:7 *1074:din_i[7] 0
6 *3:7 *1079:A 0
7 *3:9 *143:18 0.00780765
*RES
1 clk *3:7 32.8029 
2 *3:7 *3:9 74.7265 
3 *3:9 *1074:clk_i 22.7501 
*END

*D_NET *5 0.000596105
*CONN
*P rst_n I
*I *1079:A I *D sg13cmos5l_buf_1
*CAP
1 rst_n 0.000298052
2 *1079:A 0.000298052
3 *1079:A *143:10 0
4 *3:7 *1079:A 0
*RES
1 rst_n *1079:A 43.296 
*END

*D_NET *6 0.000786436
*CONN
*P ui_in[0] I
*I *1086:A I *D sg13cmos5l_buf_1
*CAP
1 ui_in[0] 0.000304557
2 *1086:A 0.000304557
3 *1086:A uio_oe[7] 0
4 *1086:A *1087:A 0
5 *1086:A *144:16 0
6 *1086:A *145:8 0
7 *1086:A *152:10 0.000177323
8 *1086:A *153:8 0
*RES
1 ui_in[0] *1086:A 43.296 
*END

*D_NET *7 0.000661238
*CONN
*P ui_in[1] I
*I *1087:A I *D sg13cmos5l_buf_1
*CAP
1 ui_in[1] 0.000330619
2 *1087:A 0.000330619
3 *1087:A *1088:A 0
4 *1087:A *144:16 0
5 *1087:A *145:8 0
6 *1087:A *153:8 0
7 *1086:A *1087:A 0
*RES
1 ui_in[1] *1087:A 43.296 
*END

*D_NET *8 0.000570423
*CONN
*P ui_in[2] I
*I *1088:A I *D sg13cmos5l_buf_1
*CAP
1 ui_in[2] 0.000285211
2 *1088:A 0.000285211
3 *1088:A *1089:A 0
4 *1088:A *144:16 0
5 *1088:A *145:8 0
6 *1088:A *149:18 0
7 *1087:A *1088:A 0
*RES
1 ui_in[2] *1088:A 42.8634 
*END

*D_NET *9 0.0006507
*CONN
*P ui_in[3] I
*I *1089:A I *D sg13cmos5l_buf_1
*CAP
1 ui_in[3] 0.000269505
2 *1089:A 0.000269505
3 *1089:A *1090:A 0
4 *1089:A *144:16 0
5 *1089:A *145:8 0
6 *1089:A *154:10 0.00011169
7 *1088:A *1089:A 0
*RES
1 ui_in[3] *1089:A 42.8634 
*END

*D_NET *10 0.000543724
*CONN
*P ui_in[4] I
*I *1090:A I *D sg13cmos5l_buf_1
*CAP
1 ui_in[4] 0.000215487
2 *1090:A 0.000215487
3 *1090:A *1091:A 0
4 *1090:A *145:8 0
5 *1090:A *155:12 0.000112749
6 *1089:A *1090:A 0
*RES
1 ui_in[4] *1090:A 42.4308 
*END

*D_NET *11 0.000539317
*CONN
*P ui_in[5] I
*I *1091:A I *D sg13cmos5l_buf_1
*CAP
1 ui_in[5] 0.0002133
2 *1091:A 0.0002133
3 *1091:A *1092:A 0
4 *1091:A *145:8 0
5 *1091:A *155:12 0.000112717
6 *1090:A *1091:A 0
*RES
1 ui_in[5] *1091:A 42.4308 
*END

*D_NET *12 0.000393969
*CONN
*P ui_in[6] I
*I *1092:A I *D sg13cmos5l_buf_1
*CAP
1 ui_in[6] 0.00015942
2 *1092:A 0.00015942
3 *1092:A *1074:din_i[3] 7.51285e-05
4 *1092:A *1093:A 0
5 *1091:A *1092:A 0
*RES
1 ui_in[6] *1092:A 41.9982 
*END

*D_NET *13 0.00036122
*CONN
*P ui_in[7] I
*I *1093:A I *D sg13cmos5l_buf_1
*CAP
1 ui_in[7] 0.00018061
2 *1093:A 0.00018061
3 *1093:A *1080:A 0
4 *1093:A *144:12 0
5 *1092:A *1093:A 0
*RES
1 ui_in[7] *1093:A 41.9982 
*END

*D_NET *14 0.00114131
*CONN
*P uio_in[0] I
*I *1080:A I *D sg13cmos5l_buf_1
*CAP
1 uio_in[0] 0.000312018
2 *1080:A 0.000312018
3 *1080:A *1081:A 0
4 *1080:A *144:12 0.000209779
5 *1080:A *145:8 0
6 *1080:A *157:12 0.00030749
7 *1093:A *1080:A 0
*RES
1 uio_in[0] *1080:A 43.7286 
*END

*D_NET *15 0.000801816
*CONN
*P uio_in[1] I
*I *1081:A I *D sg13cmos5l_buf_1
*CAP
1 uio_in[1] 0.00029581
2 *1081:A 0.00029581
3 *1081:A *1082:A 0
4 *1081:A *145:8 0
5 *1081:A *146:12 0
6 *1081:A *147:12 0
7 *1081:A *157:12 0.000210196
8 *1080:A *1081:A 0
*RES
1 uio_in[1] *1081:A 43.399 
*END

*D_NET *16 0.00103049
*CONN
*P uio_in[2] I
*I *1082:A I *D sg13cmos5l_buf_1
*CAP
1 uio_in[2] 0.000272903
2 *1082:A 0.000272903
3 *1082:A *1083:A 0
4 *1082:A *148:10 0.00024217
5 *1082:A *157:12 0.000242511
6 *1081:A *1082:A 0
*RES
1 uio_in[2] *1082:A 43.296 
*END

*D_NET *17 0.000770158
*CONN
*P uio_in[3] I
*I *1083:A I *D sg13cmos5l_buf_1
*CAP
1 uio_in[3] 0.00025708
2 *1083:A 0.00025708
3 *1083:A *148:10 0.000175913
4 *1083:A *149:12 0
5 *1083:A *157:12 8.00842e-05
6 *1082:A *1083:A 0
*RES
1 uio_in[3] *1083:A 42.8634 
*END

*D_NET *20 0.000439392
*CONN
*P uio_in[6] I
*I *1084:A I *D sg13cmos5l_buf_1
*CAP
1 uio_in[6] 0.000211996
2 *1084:A 0.000211996
3 *1084:A *1085:A 0
4 *1084:A *143:10 0
5 *1084:A *148:10 1.54008e-05
6 *1084:A *149:12 0
*RES
1 uio_in[6] *1084:A 42.4308 
*END

*D_NET *21 0.000317684
*CONN
*P uio_in[7] I
*I *1085:A I *D sg13cmos5l_buf_1
*CAP
1 uio_in[7] 0.000158842
2 *1085:A 0.000158842
3 *1084:A *1085:A 0
*RES
1 uio_in[7] *1085:A 41.9982 
*END

*D_NET *22 0.000599241
*CONN
*P uio_oe[0] O
*I *1050:L_LO O *D sg13cmos5l_tielo
*CAP
1 uio_oe[0] 0.00029192
2 *1050:L_LO 0.00029192
3 uio_oe[0] uio_oe[1] 0
4 uio_oe[0] uio_out[7] 1.54008e-05
5 uio_oe[0] *144:16 0
6 uio_oe[0] *145:8 0
*RES
1 *1050:L_LO uio_oe[0] 43.2445 
*END

*D_NET *23 0.000947725
*CONN
*P uio_oe[1] O
*I *1051:L_LO O *D sg13cmos5l_tielo
*CAP
1 uio_oe[1] 0.000336747
2 *1051:L_LO 0.000336747
3 uio_oe[1] uio_oe[2] 0
4 uio_oe[1] *144:16 0
5 uio_oe[1] *145:8 0.00027423
6 uio_oe[0] uio_oe[1] 0
*RES
1 *1051:L_LO uio_oe[1] 44.0067 
*END

*D_NET *24 0.000539773
*CONN
*P uio_oe[2] O
*I *1052:L_LO O *D sg13cmos5l_tielo
*CAP
1 uio_oe[2] 0.000230163
2 *1052:L_LO 0.000230163
3 uio_oe[2] uio_oe[3] 0
4 uio_oe[2] *144:16 0
5 uio_oe[2] *145:8 7.94462e-05
6 uio_oe[1] uio_oe[2] 0
*RES
1 *1052:L_LO uio_oe[2] 42.7089 
*END

*D_NET *25 0.000809807
*CONN
*P uio_oe[3] O
*I *1053:L_LO O *D sg13cmos5l_tielo
*CAP
1 uio_oe[3] 0.000300051
2 *1053:L_LO 0.000300051
3 uio_oe[3] uio_oe[4] 0
4 uio_oe[3] *144:16 0
5 uio_oe[3] *145:8 0.000209705
6 uio_oe[2] uio_oe[3] 0
*RES
1 *1053:L_LO uio_oe[3] 43.5741 
*END

*D_NET *26 0.00035645
*CONN
*P uio_oe[4] O
*I *1054:L_LO O *D sg13cmos5l_tielo
*CAP
1 uio_oe[4] 0.000178225
2 *1054:L_LO 0.000178225
3 uio_oe[4] uio_oe[5] 0
4 uio_oe[3] uio_oe[4] 0
*RES
1 *1054:L_LO uio_oe[4] 42.1733 
*END

*D_NET *27 0.000662136
*CONN
*P uio_oe[5] O
*I *1055:L_LO O *D sg13cmos5l_tielo
*CAP
1 uio_oe[5] 0.000258482
2 *1055:L_LO 0.000258482
3 uio_oe[5] uio_oe[6] 0
4 uio_oe[5] *144:16 0
5 uio_oe[5] *145:8 0.000145173
6 uio_oe[4] uio_oe[5] 0
*RES
1 *1055:L_LO uio_oe[5] 43.1415 
*END

*D_NET *28 0.000591619
*CONN
*P uio_oe[6] O
*I *1056:L_LO O *D sg13cmos5l_tielo
*CAP
1 uio_oe[6] 0.000218105
2 *1056:L_LO 0.000218105
3 uio_oe[6] uio_oe[7] 0
4 uio_oe[6] *1074:din_i[0] 7.52149e-05
5 uio_oe[6] *144:16 0
6 uio_oe[6] *145:8 8.01938e-05
7 uio_oe[5] uio_oe[6] 0
*RES
1 *1056:L_LO uio_oe[6] 42.7089 
*END

*D_NET *29 0.00100706
*CONN
*P uio_oe[7] O
*I *1057:L_LO O *D sg13cmos5l_tielo
*CAP
1 uio_oe[7] 0.000293848
2 *1057:L_LO 0.000293848
3 uio_oe[7] *145:8 0.000209681
4 uio_oe[7] *152:10 0.000209681
5 uio_oe[6] uio_oe[7] 0
6 *1086:A uio_oe[7] 0
*RES
1 *1057:L_LO uio_oe[7] 43.5741 
*END

*D_NET *30 0.000661135
*CONN
*P uio_out[0] O
*I *1058:L_LO O *D sg13cmos5l_tielo
*CAP
1 uio_out[0] 0.000330568
2 *1058:L_LO 0.000330568
3 uio_out[0] uio_out[1] 0
4 uio_out[0] uo_out[7] 0
*RES
1 *1058:L_LO uio_out[0] 44.0067 
*END

*D_NET *31 0.000457832
*CONN
*P uio_out[1] O
*I *1059:L_LO O *D sg13cmos5l_tielo
*CAP
1 uio_out[1] 0.000228916
2 *1059:L_LO 0.000228916
3 uio_out[1] uio_out[2] 0
4 uio_out[0] uio_out[1] 0
*RES
1 *1059:L_LO uio_out[1] 42.7089 
*END

*D_NET *32 0.000583705
*CONN
*P uio_out[2] O
*I *1060:L_LO O *D sg13cmos5l_tielo
*CAP
1 uio_out[2] 0.000291853
2 *1060:L_LO 0.000291853
3 uio_out[2] uio_out[3] 0
4 uio_out[1] uio_out[2] 0
*RES
1 *1060:L_LO uio_out[2] 43.5741 
*END

*D_NET *33 0.000336989
*CONN
*P uio_out[3] O
*I *1061:L_LO O *D sg13cmos5l_tielo
*CAP
1 uio_out[3] 0.000168494
2 *1061:L_LO 0.000168494
3 uio_out[3] uio_out[4] 0
4 uio_out[3] *1074:en_i 0
5 uio_out[2] uio_out[3] 0
*RES
1 *1061:L_LO uio_out[3] 42.1733 
*END

*D_NET *34 0.000571965
*CONN
*P uio_out[4] O
*I *1062:L_LO O *D sg13cmos5l_tielo
*CAP
1 uio_out[4] 0.000285982
2 *1062:L_LO 0.000285982
3 uio_out[4] uio_out[5] 0
4 uio_out[4] *1074:en_i 0
5 uio_out[4] *144:16 0
6 uio_out[3] uio_out[4] 0
*RES
1 *1062:L_LO uio_out[4] 43.1415 
*END

*D_NET *35 0.000454431
*CONN
*P uio_out[5] O
*I *1063:L_LO O *D sg13cmos5l_tielo
*CAP
1 uio_out[5] 0.000227216
2 *1063:L_LO 0.000227216
3 uio_out[5] uio_out[6] 0
4 uio_out[5] *144:16 0
5 uio_out[4] uio_out[5] 0
*RES
1 *1063:L_LO uio_out[5] 42.7089 
*END

*D_NET *36 0.000716387
*CONN
*P uio_out[6] O
*I *1064:L_LO O *D sg13cmos5l_tielo
*CAP
1 uio_out[6] 0.000301951
2 *1064:L_LO 0.000301951
3 uio_out[6] uio_out[7] 0
4 uio_out[6] *144:16 0
5 uio_out[6] *145:8 0.000112486
6 uio_out[5] uio_out[6] 0
*RES
1 *1064:L_LO uio_out[6] 43.5741 
*END

*D_NET *37 0.00109362
*CONN
*P uio_out[7] O
*I *1065:L_LO O *D sg13cmos5l_tielo
*CAP
1 uio_out[7] 0.00036927
2 *1065:L_LO 0.00036927
3 uio_out[7] *144:16 0
4 uio_out[7] *145:8 0.000339678
5 uio_oe[0] uio_out[7] 1.54008e-05
6 uio_out[6] uio_out[7] 0
*RES
1 *1065:L_LO uio_out[7] 44.4393 
*END

*D_NET *38 0.000388971
*CONN
*P uo_out[0] O
*I *1094:X O *D sg13cmos5l_buf_1
*CAP
1 uo_out[0] 0.000194486
2 *1094:X 0.000194486
3 uo_out[0] uo_out[1] 0
*RES
1 *1094:X uo_out[0] 42.2145 
*END

*D_NET *39 0.000578713
*CONN
*P uo_out[1] O
*I *1066:L_LO O *D sg13cmos5l_tielo
*CAP
1 uo_out[1] 0.000289356
2 *1066:L_LO 0.000289356
3 uo_out[1] uo_out[2] 0
4 uo_out[1] *1094:A 0
5 uo_out[0] uo_out[1] 0
*RES
1 *1066:L_LO uo_out[1] 43.4861 
*END

*D_NET *40 0.000334973
*CONN
*P uo_out[2] O
*I *1067:L_LO O *D sg13cmos5l_tielo
*CAP
1 uo_out[2] 0.000167486
2 *1067:L_LO 0.000167486
3 uo_out[2] uo_out[3] 0
4 uo_out[1] uo_out[2] 0
*RES
1 *1067:L_LO uo_out[2] 42.1733 
*END

*D_NET *41 0.000507497
*CONN
*P uo_out[3] O
*I *1068:L_LO O *D sg13cmos5l_tielo
*CAP
1 uo_out[3] 0.000253748
2 *1068:L_LO 0.000253748
3 uo_out[3] uo_out[4] 0
4 uo_out[2] uo_out[3] 0
*RES
1 *1068:L_LO uo_out[3] 43.1415 
*END

*D_NET *42 0.000437404
*CONN
*P uo_out[4] O
*I *1069:L_LO O *D sg13cmos5l_tielo
*CAP
1 uo_out[4] 0.000218702
2 *1069:L_LO 0.000218702
3 uo_out[4] uo_out[5] 0
4 uo_out[3] uo_out[4] 0
*RES
1 *1069:L_LO uo_out[4] 42.7089 
*END

*D_NET *43 0.00060889
*CONN
*P uo_out[5] O
*I *1070:L_LO O *D sg13cmos5l_tielo
*CAP
1 uo_out[5] 0.000304445
2 *1070:L_LO 0.000304445
3 uo_out[5] uo_out[6] 0
4 uo_out[4] uo_out[5] 0
*RES
1 *1070:L_LO uo_out[5] 43.5741 
*END

*D_NET *44 0.000765151
*CONN
*P uo_out[6] O
*I *1071:L_LO O *D sg13cmos5l_tielo
*CAP
1 uo_out[6] 0.000374875
2 *1071:L_LO 0.000374875
3 uo_out[6] uo_out[7] 1.54008e-05
4 uo_out[5] uo_out[6] 0
*RES
1 *1071:L_LO uo_out[6] 44.4393 
*END

*D_NET *45 0.00057361
*CONN
*P uo_out[7] O
*I *1072:L_LO O *D sg13cmos5l_tielo
*CAP
1 uo_out[7] 0.000279104
2 *1072:L_LO 0.000279104
3 uio_out[0] uo_out[7] 0
4 uo_out[6] uo_out[7] 1.54008e-05
*RES
1 *1072:L_LO uo_out[7] 43.2445 
*END

*D_NET *46 0.00352843
*CONN
*I *1013:A1 I *D sg13cmos5l_a22oi_1
*I *1006:Y O *D sg13cmos5l_inv_1
*CAP
1 *1013:A1 3.56971e-05
2 *1006:Y 0.000336786
3 *46:8 0.000372483
4 *46:8 *1013:B2 0.00135346
5 *46:8 *47:12 0.00124789
6 *46:8 *50:10 0
7 *46:8 *137:17 0.000182109
*RES
1 *1006:Y *46:8 47.0246 
2 *46:8 *1013:A1 40.3193 
*END

*D_NET *47 0.00619195
*CONN
*I *1031:B1 I *D sg13cmos5l_a21oi_1
*I *1007:Y O *D sg13cmos5l_inv_1
*CAP
1 *1031:B1 0
2 *1007:Y 0.000175101
3 *47:12 0.000734028
4 *47:8 0.000909129
5 *47:8 *48:8 0
6 *47:8 *66:8 0
7 *47:12 *1010:B 0
8 *47:12 *1010:A_N 0.000128408
9 *47:12 *50:10 0.000448068
10 *47:12 *71:35 0.00146027
11 *47:12 *137:13 0.00108905
12 *47:12 *137:17 0
13 *47:12 *138:17 0
14 *46:8 *47:12 0.00124789
*RES
1 *1007:Y *47:8 41.0627 
2 *47:8 *47:12 32.7102 
3 *47:12 *1031:B1 20 
*END

*D_NET *48 0.00583721
*CONN
*I *1036:B1 I *D sg13cmos5l_a21oi_1
*I *1008:Y O *D sg13cmos5l_inv_1
*CAP
1 *1036:B1 0
2 *1008:Y 8.14509e-05
3 *48:14 0.00188179
4 *48:8 0.00196324
5 *48:14 *1010:B 0
6 *48:14 *1010:A_N 0
7 *48:14 *1013:B2 0
8 *48:14 *54:12 0
9 *48:14 *54:18 0.000607891
10 *48:14 *68:8 0.00130283
11 *48:14 *111:15 0
12 *48:14 *138:17 0
13 *47:8 *48:8 0
*RES
1 *1008:Y *48:8 40.7519 
2 *48:8 *48:14 37.3864 
3 *48:14 *1036:B1 20 
*END

*D_NET *49 0.0678311
*CONN
*I *1018:B1 I *D sg13cmos5l_o21ai_1
*I *1020:B1 I *D sg13cmos5l_o21ai_1
*I *1049:A I *D sg13cmos5l_buf_1
*I *1009:Y O *D sg13cmos5l_nand2_1
*CAP
1 *1018:B1 0.000198998
2 *1020:B1 0
3 *1049:A 0.000846159
4 *1009:Y 0
5 *49:41 0.000500419
6 *49:37 0.00669852
7 *49:35 0.0064192
8 *49:14 0.00418701
9 *49:10 0.0123201
10 *49:8 0.00900136
11 *49:6 0.00370083
12 *49:4 0.00370083
13 *1018:B1 *1018:A1 0
14 *1018:B1 *56:10 7.51285e-05
15 *1018:B1 *79:9 0
16 *1018:B1 *133:10 1.54008e-05
17 *1049:A *1022:A1 4.77425e-05
18 *1049:A *1024:A2 8.00842e-05
19 *1049:A *53:66 3.24516e-05
20 *1049:A *58:14 0
21 *1049:A *73:9 0
22 *1049:A *75:9 0
23 *1049:A *82:45 4.77425e-05
24 *1049:A *130:10 0.000176602
25 *1049:A *151:8 7.97045e-05
26 *1049:A *151:82 9.67389e-05
27 *49:6 *148:18 0.00617604
28 *49:10 *96:17 0
29 *49:10 *120:12 0
30 *49:10 *121:17 0.000611399
31 *49:10 *122:15 0
32 *49:14 *82:51 0.003593
33 *49:14 *85:23 0.00252609
34 *49:14 *96:17 0
35 *49:14 *98:23 0
36 *49:14 *101:25 0
37 *49:14 *109:37 0
38 *49:14 *116:12 0
39 *49:14 *127:12 0
40 *49:35 *82:51 5.30319e-05
41 *49:35 *116:12 0
42 *49:37 *86:21 0
43 *49:37 *86:31 0
44 *49:37 *100:21 0
45 *49:37 *103:21 0
46 *49:37 *117:14 0
47 *49:37 *118:14 0.00664655
48 *49:41 *79:9 0
*RES
1 *1009:Y *49:4 20 
2 *49:4 *49:6 42.4978 
3 *49:6 *49:8 20 
4 *49:8 *49:10 113.568 
5 *49:10 *49:14 46.4015 
6 *49:14 *1049:A 48.8271 
7 *49:14 *49:35 20.3502 
8 *49:35 *49:37 84.0274 
9 *49:37 *49:41 23.5638 
10 *49:41 *1020:B1 40 
11 *49:41 *1018:B1 42.2248 
*END

*D_NET *50 0.00179348
*CONN
*I *1013:B1 I *D sg13cmos5l_a22oi_1
*I *1010:Y O *D sg13cmos5l_nand2b_1
*CAP
1 *1013:B1 0
2 *1010:Y 0.000288954
3 *50:10 0.000288954
4 *50:10 *1010:A_N 0.000554461
5 *50:10 *1013:B2 0
6 *50:10 *111:15 0.000213045
7 *46:8 *50:10 0
8 *47:12 *50:10 0.000448068
*RES
1 *1010:Y *50:10 44.3157 
2 *50:10 *1013:B1 40 
*END

*D_NET *51 0.0209563
*CONN
*I *1048:S I *D sg13cmos5l_mux2_1
*I *1043:S I *D sg13cmos5l_mux2_1
*I *1047:S I *D sg13cmos5l_mux2_1
*I *1045:S I *D sg13cmos5l_mux2_1
*I *1044:S I *D sg13cmos5l_mux2_1
*I *1046:S I *D sg13cmos5l_mux2_1
*I *1041:S I *D sg13cmos5l_mux2_1
*I *1042:S I *D sg13cmos5l_mux2_1
*I *1011:Y O *D sg13cmos5l_nor2b_1
*CAP
1 *1048:S 0
2 *1043:S 0
3 *1047:S 7.52516e-05
4 *1045:S 0.000199604
5 *1044:S 8.05242e-05
6 *1046:S 7.42778e-05
7 *1041:S 7.0217e-05
8 *1042:S 0
9 *1011:Y 0.000148914
10 *51:103 0.000467124
11 *51:88 0.000845932
12 *51:64 0.000274855
13 *51:62 0.000776615
14 *51:51 0.000999922
15 *51:40 0.00163646
16 *51:29 0.00143169
17 *51:22 0.00196739
18 *51:8 0.00243719
19 *1041:S *1031:A2 4.77425e-05
20 *1041:S *1041:A0 0
21 *1041:S *53:8 0
22 *1044:S *1030:A2 0
23 *1045:S *1029:A1 0
24 *1045:S *1045:A0 0
25 *1045:S *54:18 0
26 *1046:S *117:8 0
27 *51:8 *1011:A 4.77425e-05
28 *51:8 *70:8 0
29 *51:22 *54:12 0.000661471
30 *51:22 *65:12 0.000768366
31 *51:22 *69:12 0
32 *51:22 *97:19 0
33 *51:22 *140:31 0.000821812
34 *51:22 *141:27 0.000608024
35 *51:22 *142:19 0.00189291
36 *51:29 *54:12 0.00154574
37 *51:29 *54:18 0
38 *51:29 *141:27 0.00167423
39 *51:40 *53:10 0
40 *51:40 *54:18 0
41 *51:40 *99:29 0
42 *51:40 *141:27 7.51285e-05
43 *51:51 *53:10 0
44 *51:51 *53:14 0
45 *51:51 *54:18 0
46 *51:62 *52:25 0
47 *51:62 *53:14 0
48 *51:62 *54:18 0
49 *51:88 *52:25 0
50 *51:88 *53:14 0
51 *51:103 *113:10 0
52 *51:103 *151:39 0.000236903
53 *51:103 *151:43 0.00109024
*RES
1 *1011:Y *51:8 41.4008 
2 *51:8 *51:22 43.7621 
3 *51:22 *1042:S 20 
4 *51:8 *51:29 7.7662 
5 *51:29 *1041:S 40.7519 
6 *51:29 *51:40 9.2494 
7 *51:40 *1046:S 40.7519 
8 *51:40 *51:51 4.3054 
9 *51:51 *1044:S 40.7519 
10 *51:51 *51:62 3.3166 
11 *51:62 *51:64 20 
12 *51:64 *1045:S 22.0703 
13 *51:64 *1047:S 20.7519 
14 *51:62 *51:88 23.3269 
15 *51:88 *1043:S 20 
16 *51:88 *51:103 46.6744 
17 *51:103 *1048:S 20 
*END

*D_NET *52 0.0444126
*CONN
*I *1027:A2 I *D sg13cmos5l_o21ai_1
*I *1025:A2 I *D sg13cmos5l_o21ai_1
*I *1017:A2 I *D sg13cmos5l_o21ai_1
*I *1015:A2 I *D sg13cmos5l_o21ai_1
*I *1021:A2 I *D sg13cmos5l_o21ai_1
*I *1019:A2 I *D sg13cmos5l_o21ai_1
*I *1023:A2 I *D sg13cmos5l_o21ai_1
*I *1029:A2 I *D sg13cmos5l_o21ai_1
*I *1012:Y O *D sg13cmos5l_nand2b_1
*CAP
1 *1027:A2 0
2 *1025:A2 0.000159072
3 *1017:A2 0
4 *1015:A2 8.97339e-05
5 *1021:A2 0
6 *1019:A2 9.3683e-05
7 *1023:A2 0.00019416
8 *1029:A2 0
9 *1012:Y 0.000125594
10 *52:60 0.000185194
11 *52:58 0.000181245
12 *52:56 0.00791092
13 *52:54 0.00820111
14 *52:48 0.00065839
15 *52:44 0.000661327
16 *52:25 0.00183322
17 *52:14 0.00263824
18 *52:8 0.00157697
19 *1015:A2 *1015:B1 0.00023547
20 *1015:A2 *54:97 5.30319e-05
21 *1019:A2 *54:75 7.51285e-05
22 *1019:A2 *54:86 0.000234224
23 *1023:A2 *1024:A2 0.000144311
24 *1023:A2 *75:9 1.54008e-05
25 *1023:A2 *128:10 0.00013409
26 *1025:A2 *54:64 0.00018211
27 *52:8 *71:20 0
28 *52:14 *1029:A1 1.54008e-05
29 *52:14 *1036:A2 0.00145878
30 *52:14 *54:24 4.77425e-05
31 *52:14 *63:14 0
32 *52:14 *66:10 0.00428898
33 *52:14 *139:13 0.000288173
34 *52:25 *1029:A1 9.7025e-05
35 *52:25 *53:14 0
36 *52:25 *54:18 9.7025e-05
37 *52:25 *54:24 1.54008e-05
38 *52:25 *54:43 0
39 *52:25 *60:14 0
40 *52:25 *100:25 0
41 *52:25 *111:13 0.00273979
42 *52:25 *114:8 0
43 *52:25 *151:22 0.000289628
44 *52:44 *1027:B1 4.77425e-05
45 *52:44 *54:43 0
46 *52:44 *54:45 0.000193973
47 *52:44 *54:71 0.00012963
48 *52:44 *73:9 0.000371488
49 *52:44 *130:10 0
50 *52:48 *54:64 0.00066263
51 *52:54 *1025:A1 0
52 *52:56 *1017:B1 4.77425e-05
53 *52:56 *1025:A1 0
54 *52:56 *58:6 0
55 *52:56 *74:9 0
56 *52:56 *78:9 0.000339267
57 *52:56 *112:14 0
58 *52:56 *114:16 0.00741233
59 *52:56 *115:14 0
60 *52:56 *133:10 0
61 *52:60 *54:86 5.30319e-05
62 *52:60 *54:97 0.000234224
63 *51:62 *52:25 0
64 *51:88 *52:25 0
*RES
1 *1012:Y *52:8 40.9682 
2 *52:8 *52:14 41.2798 
3 *52:14 *1029:A2 20 
4 *52:14 *52:25 36.4285 
5 *52:25 *1023:A2 42.0703 
6 *52:25 *52:44 24.8101 
7 *52:44 *52:48 23.3166 
8 *52:48 *52:54 23.1415 
9 *52:54 *52:56 88.9405 
10 *52:56 *52:58 20 
11 *52:58 *52:60 1.339 
12 *52:60 *1019:A2 41.339 
13 *52:60 *1021:A2 40 
14 *52:58 *1015:A2 41.339 
15 *52:56 *1017:A2 20 
16 *52:48 *1025:A2 41.8334 
17 *52:44 *1027:A2 20 
*END

*D_NET *53 0.0485782
*CONN
*I *1030:A1 I *D sg13cmos5l_o21ai_1
*I *1018:A1 I *D sg13cmos5l_o21ai_1
*I *1020:A1 I *D sg13cmos5l_o21ai_1
*I *1016:A1 I *D sg13cmos5l_o21ai_1
*I *1022:A1 I *D sg13cmos5l_o21ai_1
*I *1028:A1 I *D sg13cmos5l_o21ai_1
*I *1024:A1 I *D sg13cmos5l_o21ai_1
*I *1026:A1 I *D sg13cmos5l_o21ai_1
*I *1013:Y O *D sg13cmos5l_a22oi_1
*CAP
1 *1030:A1 0
2 *1018:A1 0.000210672
3 *1020:A1 0
4 *1016:A1 0
5 *1022:A1 2.60565e-05
6 *1028:A1 0
7 *1024:A1 0.000257312
8 *1026:A1 3.03288e-05
9 *1013:Y 0.000201242
10 *53:95 0.000512156
11 *53:84 0.000339667
12 *53:76 0.000956132
13 *53:68 0.00770995
14 *53:66 0.00789327
15 *53:51 0.000718236
16 *53:29 0.000442155
17 *53:27 0.000648839
18 *53:14 0.00121437
19 *53:10 0.00194188
20 *53:8 0.0012292
21 *1018:A1 *1020:A2 1.54008e-05
22 *1018:A1 *79:9 0
23 *1018:A1 *132:6 0
24 *1022:A1 *58:14 4.77425e-05
25 *1024:A1 *1024:A2 0
26 *1024:A1 *1028:A2 0.000209593
27 *1024:A1 *1035:A2 0
28 *1024:A1 *54:32 4.77425e-05
29 *1024:A1 *63:14 0
30 *1026:A1 *60:14 4.77425e-05
31 *53:8 *1031:A2 0
32 *53:8 *1041:A0 0
33 *53:8 *112:8 0
34 *53:10 *99:29 0
35 *53:14 *114:8 0.000608937
36 *53:14 *151:43 0.00252814
37 *53:27 *54:32 7.65602e-05
38 *53:27 *113:10 0
39 *53:27 *114:8 0.00127906
40 *53:27 *117:12 0
41 *53:27 *151:39 0.000797192
42 *53:27 *151:43 0.000129679
43 *53:29 *1028:B1 0
44 *53:29 *1028:A2 1.54449e-05
45 *53:29 *54:32 0.000291168
46 *53:29 *128:10 0.000112535
47 *53:51 *54:32 0.000266811
48 *53:51 *114:14 0
49 *53:51 *117:12 0
50 *53:51 *128:10 8.00842e-05
51 *53:51 *135:8 0
52 *53:66 *58:14 0.00024211
53 *53:66 *114:14 0
54 *53:66 *117:12 0.000288087
55 *53:66 *129:12 0
56 *53:66 *131:8 0
57 *53:68 *54:71 0
58 *53:68 *58:6 0
59 *53:68 *74:9 0.00799656
60 *53:68 *76:9 0.00176777
61 *53:68 *109:31 0.00384408
62 *53:68 *109:35 0.00215653
63 *53:68 *114:16 0
64 *53:68 *128:18 0
65 *53:68 *132:6 0
66 *53:76 *54:71 0
67 *53:76 *77:9 0.000209637
68 *53:76 *78:9 0
69 *53:84 *1015:B1 0.000267234
70 *53:84 *54:75 0.000181695
71 *53:84 *54:86 0.000265904
72 *53:84 *54:97 0.000265247
73 *53:95 *1020:A2 4.77425e-05
74 *53:95 *54:71 0
75 *53:95 *77:9 8.01612e-05
76 *1018:B1 *1018:A1 0
77 *1041:S *53:8 0
78 *1049:A *1022:A1 4.77425e-05
79 *1049:A *53:66 3.24516e-05
80 *51:40 *53:10 0
81 *51:51 *53:10 0
82 *51:51 *53:14 0
83 *51:62 *53:14 0
84 *51:88 *53:14 0
85 *52:25 *53:14 0
*RES
1 *1013:Y *53:8 41.8334 
2 *53:8 *53:10 10.2382 
3 *53:10 *53:14 12.5351 
4 *53:14 *1026:A1 40.3193 
5 *53:14 *53:27 26.0358 
6 *53:27 *53:29 2.0497 
7 *53:29 *1024:A1 22.9252 
8 *53:29 *1028:A1 20 
9 *53:27 *53:51 42.369 
10 *53:51 *1022:A1 20.3193 
11 *53:51 *53:66 45.6753 
12 *53:66 *53:68 84.0274 
13 *53:68 *53:76 43.2342 
14 *53:76 *53:84 45.8298 
15 *53:84 *1016:A1 20 
16 *53:76 *53:95 3.399 
17 *53:95 *1020:A1 20 
18 *53:95 *1018:A1 22.6574 
19 *53:10 *1030:A1 40 
*END

*D_NET *54 0.0480594
*CONN
*I *1029:B1 I *D sg13cmos5l_o21ai_1
*I *1015:B1 I *D sg13cmos5l_o21ai_1
*I *1017:B1 I *D sg13cmos5l_o21ai_1
*I *1021:B1 I *D sg13cmos5l_o21ai_1
*I *1019:B1 I *D sg13cmos5l_o21ai_1
*I *1025:B1 I *D sg13cmos5l_o21ai_1
*I *1027:B1 I *D sg13cmos5l_o21ai_1
*I *1023:B1 I *D sg13cmos5l_o21ai_1
*I *1014:Y O *D sg13cmos5l_nor2b_1
*CAP
1 *1029:B1 0
2 *1015:B1 8.36862e-05
3 *1017:B1 2.2978e-05
4 *1021:B1 4.08322e-05
5 *1019:B1 3.77247e-05
6 *1025:B1 0
7 *1027:B1 3.03288e-05
8 *1023:B1 0
9 *1014:Y 2.41961e-05
10 *54:97 0.000160847
11 *54:86 0.000148261
12 *54:75 0.0001837
13 *54:71 0.00866746
14 *54:64 0.000450625
15 *54:45 0.00061119
16 *54:43 0.00896773
17 *54:32 0.00031097
18 *54:24 0.00178191
19 *54:18 0.00305429
20 *54:12 0.00453611
21 *54:8 0.00271419
22 *1015:B1 *1016:A2 0
23 *1017:B1 *56:10 1.54008e-05
24 *1019:B1 *1020:A2 1.54008e-05
25 *1019:B1 *77:9 0
26 *54:12 *65:12 0.00488037
27 *54:12 *137:13 0
28 *54:12 *138:17 0
29 *54:12 *148:22 0
30 *54:12 *148:31 0
31 *54:12 *150:17 0
32 *54:18 *1029:A1 0
33 *54:18 *62:10 4.77425e-05
34 *54:18 *111:13 0
35 *54:24 *62:10 1.54008e-05
36 *54:24 *67:16 0
37 *54:24 *70:14 0.00290236
38 *54:24 *100:25 0
39 *54:24 *136:8 0.000342035
40 *54:32 *135:8 0.000338922
41 *54:43 *136:8 0.000797555
42 *54:64 *60:8 1.54008e-05
43 *54:64 *61:8 7.52158e-05
44 *54:64 *136:8 0
45 *54:71 *73:9 0
46 *54:71 *77:9 0
47 *54:71 *109:15 0
48 *54:71 *109:35 0
49 *54:71 *128:18 0
50 *54:71 *132:6 0
51 *54:75 *78:9 0
52 *1015:A2 *1015:B1 0.00023547
53 *1015:A2 *54:97 5.30319e-05
54 *1019:A2 *54:75 7.51285e-05
55 *1019:A2 *54:86 0.000234224
56 *1024:A1 *54:32 4.77425e-05
57 *1025:A2 *54:64 0.00018211
58 *1045:S *54:18 0
59 *48:14 *54:12 0
60 *48:14 *54:18 0.000607891
61 *51:22 *54:12 0.000661471
62 *51:29 *54:12 0.00154574
63 *51:29 *54:18 0
64 *51:40 *54:18 0
65 *51:51 *54:18 0
66 *51:62 *54:18 0
67 *52:14 *54:24 4.77425e-05
68 *52:25 *54:18 9.7025e-05
69 *52:25 *54:24 1.54008e-05
70 *52:25 *54:43 0
71 *52:44 *1027:B1 4.77425e-05
72 *52:44 *54:43 0
73 *52:44 *54:45 0.000193973
74 *52:44 *54:71 0.00012963
75 *52:48 *54:64 0.00066263
76 *52:56 *1017:B1 4.77425e-05
77 *52:60 *54:86 5.30319e-05
78 *52:60 *54:97 0.000234224
79 *53:27 *54:32 7.65602e-05
80 *53:29 *54:32 0.000291168
81 *53:51 *54:32 0.000266811
82 *53:68 *54:71 0
83 *53:76 *54:71 0
84 *53:84 *1015:B1 0.000267234
85 *53:84 *54:75 0.000181695
86 *53:84 *54:86 0.000265904
87 *53:84 *54:97 0.000265247
88 *53:95 *54:71 0
*RES
1 *1014:Y *54:8 40.3193 
2 *54:8 *54:12 35.5247 
3 *54:12 *54:18 36.8611 
4 *54:18 *54:24 34.5127 
5 *54:24 *54:32 43.8213 
6 *54:32 *1023:B1 40 
7 *54:24 *54:43 23.811 
8 *54:43 *54:45 1.4008 
9 *54:45 *1027:B1 20.3193 
10 *54:45 *54:64 46.0049 
11 *54:64 *1025:B1 20 
12 *54:43 *54:71 89.6512 
13 *54:71 *54:75 21.339 
14 *54:75 *1019:B1 40.3193 
15 *54:75 *54:86 1.339 
16 *54:86 *1021:B1 40.3193 
17 *54:86 *54:97 1.339 
18 *54:97 *1017:B1 40.3193 
19 *54:97 *1015:B1 41.6583 
20 *54:18 *1029:B1 20 
*END

*D_NET *55 0.000321327
*CONN
*I *1016:A2 I *D sg13cmos5l_o21ai_1
*I *1015:Y O *D sg13cmos5l_o21ai_1
*CAP
1 *1016:A2 0.000120479
2 *1015:Y 0.000120479
3 *1016:A2 *151:90 8.03692e-05
4 *1015:B1 *1016:A2 0
*RES
1 *1015:Y *1016:A2 41.3802 
*END

*D_NET *56 0.000838806
*CONN
*I *1018:A2 I *D sg13cmos5l_o21ai_1
*I *1017:Y O *D sg13cmos5l_o21ai_1
*CAP
1 *1018:A2 0
2 *1017:Y 0.000374138
3 *56:10 0.000374138
4 *56:10 *79:9 0
5 *56:10 *133:10 0
6 *1017:B1 *56:10 1.54008e-05
7 *1018:B1 *56:10 7.51285e-05
*RES
1 *1017:Y *56:10 43.605 
2 *56:10 *1018:A2 40 
*END

*D_NET *57 0.000747206
*CONN
*I *1020:A2 I *D sg13cmos5l_o21ai_1
*I *1019:Y O *D sg13cmos5l_o21ai_1
*CAP
1 *1020:A2 0.000261752
2 *1019:Y 0.000261752
3 *1020:A2 *132:6 0.000145159
4 *1018:A1 *1020:A2 1.54008e-05
5 *1019:B1 *1020:A2 1.54008e-05
6 *53:95 *1020:A2 4.77425e-05
*RES
1 *1019:Y *1020:A2 42.7192 
*END

*D_NET *58 0.0272842
*CONN
*I *1022:A2 I *D sg13cmos5l_o21ai_1
*I *1021:Y O *D sg13cmos5l_o21ai_1
*CAP
1 *1022:A2 0
2 *1021:Y 0
3 *58:14 0.00521227
4 *58:12 0.00557555
5 *58:6 0.00359836
6 *58:4 0.00323507
7 *58:6 *74:9 0.00128054
8 *58:6 *76:9 0
9 *58:6 *133:10 0.00170263
10 *58:12 *118:18 0
11 *58:14 *73:9 0
12 *58:14 *75:9 0
13 *58:14 *81:21 0
14 *58:14 *82:41 0
15 *58:14 *82:45 0
16 *58:14 *116:14 0.00637448
17 *58:14 *151:82 1.5412e-05
18 *1022:A1 *58:14 4.77425e-05
19 *1049:A *58:14 0
20 *52:56 *58:6 0
21 *53:66 *58:14 0.00024211
22 *53:68 *58:6 0
*RES
1 *1021:Y *58:4 20 
2 *58:4 *58:6 32.7643 
3 *58:6 *58:12 44.3054 
4 *58:12 *58:14 54.3943 
5 *58:14 *1022:A2 20 
*END

*D_NET *59 0.00141742
*CONN
*I *1024:A2 I *D sg13cmos5l_o21ai_1
*I *1023:Y O *D sg13cmos5l_o21ai_1
*CAP
1 *1024:A2 0.000378618
2 *1023:Y 0.000378618
3 *1024:A2 *1024:B1 0.000435792
4 *1024:A2 *1028:A2 0
5 *1024:A2 *128:10 0
6 *1024:A2 *130:10 0
7 *1023:A2 *1024:A2 0.000144311
8 *1024:A1 *1024:A2 0
9 *1049:A *1024:A2 8.00842e-05
*RES
1 *1023:Y *1024:A2 43.9964 
*END

*D_NET *60 0.00547439
*CONN
*I *1026:A2 I *D sg13cmos5l_o21ai_1
*I *1025:Y O *D sg13cmos5l_o21ai_1
*CAP
1 *1026:A2 0
2 *1025:Y 0.000276592
3 *60:14 0.00128916
4 *60:8 0.00156575
5 *60:8 *1025:A1 0
6 *60:14 *114:8 0.001513
7 *60:14 *114:14 0
8 *60:14 *130:10 0.000766751
9 *60:14 *136:8 0
10 *60:14 *151:16 0
11 *60:14 *151:22 0
12 *60:14 *151:88 0
13 *1026:A1 *60:14 4.77425e-05
14 *52:25 *60:14 0
15 *54:64 *60:8 1.54008e-05
*RES
1 *1025:Y *60:8 42.9149 
2 *60:8 *60:14 35.1925 
3 *60:14 *1026:A2 20 
*END

*D_NET *61 0.00123547
*CONN
*I *1028:A2 I *D sg13cmos5l_o21ai_1
*I *1027:Y O *D sg13cmos5l_o21ai_1
*CAP
1 *1028:A2 0.000133502
2 *1027:Y 0.000326383
3 *61:8 0.000459885
4 *1028:A2 *1028:B1 1.54449e-05
5 *61:8 *136:8 0
6 *1024:A1 *1028:A2 0.000209593
7 *1024:A2 *1028:A2 0
8 *53:29 *1028:A2 1.54449e-05
9 *54:64 *61:8 7.52158e-05
*RES
1 *1027:Y *61:8 43.5638 
2 *61:8 *1028:A2 41.4008 
*END

*D_NET *62 0.0025063
*CONN
*I *1030:A2 I *D sg13cmos5l_o21ai_1
*I *1029:Y O *D sg13cmos5l_o21ai_1
*CAP
1 *1030:A2 0.000216874
2 *1029:Y 0.000182727
3 *62:10 0.000399602
4 *1030:A2 *117:8 0
5 *62:10 *70:14 0.000822226
6 *62:10 *111:13 0.000821726
7 *1044:S *1030:A2 0
8 *54:18 *62:10 4.77425e-05
9 *54:24 *62:10 1.54008e-05
*RES
1 *1029:Y *62:10 44.1303 
2 *62:10 *1030:A2 42.0497 
*END

*D_NET *63 0.0113626
*CONN
*I *1035:A1 I *D sg13cmos5l_o21ai_1
*I *1031:Y O *D sg13cmos5l_a21oi_1
*CAP
1 *1035:A1 0
2 *1031:Y 0.000164201
3 *63:14 0.0021387
4 *63:8 0.0023029
5 *63:8 *1013:A2 0
6 *63:14 *1035:A2 0.000176482
7 *63:14 *1036:A2 0.000715749
8 *63:14 *66:10 0
9 *63:14 *71:14 0.00541522
10 *63:14 *71:20 0.000449343
11 *1024:A1 *63:14 0
12 *52:14 *63:14 0
*RES
1 *1031:Y *63:8 41.4008 
2 *63:8 *63:14 49.1284 
3 *63:14 *1035:A1 20 
*END

*D_NET *64 0.000708838
*CONN
*I *1034:A2 I *D sg13cmos5l_o21ai_1
*I *1032:Y O *D sg13cmos5l_nor2b_1
*CAP
1 *1034:A2 3.88037e-05
2 *1032:Y 0.000136733
3 *64:8 0.000175537
4 *1034:A2 *65:12 1.54008e-05
5 *64:8 *69:12 0.000342364
6 *64:8 *140:31 0
*RES
1 *1032:Y *64:8 41.5862 
2 *64:8 *1034:A2 40.3193 
*END

*D_NET *65 0.0092395
*CONN
*I *1034:B1 I *D sg13cmos5l_o21ai_1
*I *1033:Y O *D sg13cmos5l_nor2b_1
*CAP
1 *1034:B1 0
2 *1033:Y 0
3 *65:12 0.00173147
4 *65:6 0.00173147
5 *65:12 *1038:A 0
6 *65:12 *66:8 0.000112426
7 *65:12 *69:12 0
8 *65:12 *148:31 0
9 *1034:A2 *65:12 1.54008e-05
10 *51:22 *65:12 0.000768366
11 *54:12 *65:12 0.00488037
*RES
1 *1033:Y *65:6 40 
2 *65:6 *65:12 43.3501 
3 *65:12 *1034:B1 20 
*END

*D_NET *66 0.0131857
*CONN
*I *1035:A2 I *D sg13cmos5l_o21ai_1
*I *1034:Y O *D sg13cmos5l_o21ai_1
*CAP
1 *1035:A2 0.000117
2 *1034:Y 0.000369346
3 *66:10 0.00393457
4 *66:8 0.00418691
5 *1035:A2 *67:16 0
6 *66:8 *70:8 0
7 *66:8 *71:35 0
8 *66:10 *67:10 0
9 *66:10 *67:16 0
10 *66:10 *70:14 0
11 *66:10 *137:13 0
12 *66:10 *139:13 0
13 *1024:A1 *1035:A2 0
14 *47:8 *66:8 0
15 *52:14 *66:10 0.00428898
16 *63:14 *1035:A2 0.000176482
17 *63:14 *66:10 0
18 *65:12 *66:8 0.000112426
*RES
1 *1034:Y *66:8 43.3475 
2 *66:8 *66:10 38.9134 
3 *66:10 *1035:A2 41.1845 
*END

*D_NET *67 0.00665471
*CONN
*I *1040:A1 I *D sg13cmos5l_o21ai_1
*I *1036:Y O *D sg13cmos5l_a21oi_1
*CAP
1 *1040:A1 0
2 *1036:Y 0.000958904
3 *67:16 0.00230381
4 *67:10 0.00326271
5 *67:10 *70:14 0
6 *67:16 *70:14 0
7 *67:16 *136:8 0.000129281
8 *1035:A2 *67:16 0
9 *54:24 *67:16 0
10 *66:10 *67:10 0
11 *66:10 *67:16 0
*RES
1 *1036:Y *67:10 48.5799 
2 *67:10 *67:16 38.4061 
3 *67:16 *1040:A1 20 
*END

*D_NET *68 0.00355525
*CONN
*I *1039:A2 I *D sg13cmos5l_o21ai_1
*I *1037:Y O *D sg13cmos5l_nor2b_1
*CAP
1 *1039:A2 0.000194094
2 *1037:Y 0.000240609
3 *68:8 0.000434703
4 *1039:A2 *69:12 1.54556e-05
5 *1039:A2 *70:8 0
6 *1039:A2 *71:35 0
7 *1039:A2 *141:21 0
8 *1039:A2 *141:27 0
9 *68:8 *1010:B 0.000449344
10 *68:8 *138:17 0.000501546
11 *68:8 *138:28 0.000235055
12 *68:8 *138:39 0.000181608
13 *48:14 *68:8 0.00130283
*RES
1 *1037:Y *68:8 46.0358 
2 *68:8 *1039:A2 41.6171 
*END

*D_NET *69 0.00832752
*CONN
*I *1039:B1 I *D sg13cmos5l_o21ai_1
*I *1038:Y O *D sg13cmos5l_nor2b_1
*CAP
1 *1039:B1 0
2 *1038:Y 0
3 *69:12 0.00168729
4 *69:6 0.00168729
5 *69:12 *1034:A1 0
6 *69:12 *1038:A 0
7 *69:12 *70:8 1.54556e-05
8 *69:12 *97:19 0.000714986
9 *69:12 *99:29 0.00386468
10 *69:12 *113:10 0
11 *69:12 *140:31 0
12 *69:12 *141:21 0
13 *69:12 *142:19 0
14 *1039:A2 *69:12 1.54556e-05
15 *51:22 *69:12 0
16 *64:8 *69:12 0.000342364
17 *65:12 *69:12 0
*RES
1 *1038:Y *69:6 40 
2 *69:6 *69:12 42.3922 
3 *69:12 *1039:B1 20 
*END

*D_NET *70 0.0151856
*CONN
*I *1040:A2 I *D sg13cmos5l_o21ai_1
*I *1039:Y O *D sg13cmos5l_o21ai_1
*CAP
1 *1040:A2 0
2 *1039:Y 0.00032182
3 *70:14 0.00318697
4 *70:8 0.00350879
5 *70:14 *1013:B2 0.00149842
6 *70:14 *100:25 0.00231352
7 *70:14 *111:13 0
8 *70:14 *137:13 0
9 *70:14 *137:17 0.00061605
10 *1039:A2 *70:8 0
11 *51:8 *70:8 0
12 *54:24 *70:14 0.00290236
13 *62:10 *70:14 0.000822226
14 *66:8 *70:8 0
15 *66:10 *70:14 0
16 *67:10 *70:14 0
17 *67:16 *70:14 0
18 *69:12 *70:8 1.54556e-05
*RES
1 *1039:Y *70:8 42.9149 
2 *70:8 *70:14 38.5323 
3 *70:14 *1040:A2 40 
*END

*D_NET *71 0.0244727
*CONN
*I *1013:A2 I *D sg13cmos5l_a22oi_1
*I *1032:B_N I *D sg13cmos5l_nor2b_1
*I *1037:B_N I *D sg13cmos5l_nor2b_1
*I *1073:osc O *D a_ro
*CAP
1 *1013:A2 0.000222834
2 *1032:B_N 0
3 *1037:B_N 0
4 *1073:osc 0.000127964
5 *71:35 0.000539318
6 *71:20 0.00136822
7 *71:14 0.00250963
8 *71:10 0.00608446
9 *71:8 0.00475454
10 *1013:A2 *1013:B2 8.02598e-05
11 *1013:A2 *1036:A2 0
12 *71:8 *72:11 0
13 *71:10 *72:11 0
14 *71:10 *72:13 0
15 *71:10 *100:21 0
16 *71:20 *1036:A2 0
17 *71:20 *1037:A 0
18 *71:20 *139:13 0
19 *71:35 *1010:B 0.000266405
20 *71:35 *138:17 0.000821726
21 *71:35 *138:28 0.000212958
22 *71:35 *138:39 0.000159511
23 *1039:A2 *71:35 0
24 *47:12 *71:35 0.00146027
25 *52:8 *71:20 0
26 *63:8 *1013:A2 0
27 *63:14 *71:14 0.00541522
28 *63:14 *71:20 0.000449343
29 *66:8 *71:35 0
*RES
1 *1073:osc *71:8 21.527 
2 *71:8 *71:10 49.028 
3 *71:10 *71:14 45.0702 
4 *71:14 *71:20 28.3327 
5 *71:20 *1037:B_N 20 
6 *71:20 *71:35 49.1464 
7 *71:35 *1032:B_N 20 
8 *71:14 *1013:A2 42.0497 
*END

*D_NET *72 0.0206422
*CONN
*I *1029:A1 I *D sg13cmos5l_o21ai_1
*I *1073:osc_tap[0] O *D a_ro
*CAP
1 *1029:A1 0.000787707
2 *1073:osc_tap[0] 0.000722871
3 *72:17 0.00237797
4 *72:13 0.00545096
5 *72:11 0.00458357
6 *1029:A1 *1044:A1 7.97045e-05
7 *1029:A1 *82:51 0
8 *1029:A1 *115:8 0
9 *72:11 *123:23 0.00118807
10 *72:13 *100:21 0
11 *72:13 *123:23 0.00494438
12 *72:17 *84:27 0.000394528
13 *72:17 *84:33 0
14 *72:17 *109:37 0
15 *1045:S *1029:A1 0
16 *52:14 *1029:A1 1.54008e-05
17 *52:25 *1029:A1 9.7025e-05
18 *54:18 *1029:A1 0
19 *71:8 *72:11 0
20 *71:10 *72:11 0
21 *71:10 *72:13 0
*RES
1 *1073:osc_tap[0] *72:11 29.2211 
2 *72:11 *72:13 39.2018 
3 *72:13 *72:17 32.7102 
4 *72:17 *1029:A1 46.8083 
*END

*D_NET *73 0.0204977
*CONN
*I *1027:A1 I *D sg13cmos5l_o21ai_1
*I *1073:osc_tap[1] O *D a_ro
*CAP
1 *1027:A1 0
2 *1073:osc_tap[1] 0.000465806
3 *73:9 0.00610306
4 *73:7 0.00656887
5 *73:9 *1024:B1 0
6 *73:9 *75:9 0
7 *73:9 *81:17 0.00287107
8 *73:9 *81:21 0.00270726
9 *73:9 *81:48 0.00141017
10 *73:9 *116:14 0
11 *73:9 *130:10 0
12 *73:9 *151:8 0
13 *1049:A *73:9 0
14 *52:44 *73:9 0.000371488
15 *54:71 *73:9 0
16 *58:14 *73:9 0
*RES
1 *1073:osc_tap[1] *73:7 25.3792 
2 *73:7 *73:9 61.0996 
3 *73:9 *1027:A1 20 
*END

*D_NET *74 0.0235952
*CONN
*I *1025:A1 I *D sg13cmos5l_o21ai_1
*I *1073:osc_tap[2] O *D a_ro
*CAP
1 *1025:A1 0.00127729
2 *1073:osc_tap[2] 0.000722247
3 *74:15 0.00147145
4 *74:9 0.0047302
5 *74:7 0.00525829
6 *1025:A1 *84:27 0
7 *1025:A1 *112:14 0.000858653
8 *1025:A1 *151:90 0
9 *74:7 *1076:osc[2] 0
10 *74:9 *114:16 0
11 *74:15 *115:12 0
12 *52:54 *1025:A1 0
13 *52:56 *1025:A1 0
14 *52:56 *74:9 0
15 *53:68 *74:9 0.00799656
16 *58:6 *74:9 0.00128054
17 *60:8 *1025:A1 0
*RES
1 *1073:osc_tap[2] *74:7 28.3456 
2 *74:7 *74:9 53.3128 
3 *74:9 *74:15 42.0806 
4 *74:15 *1025:A1 30.1872 
*END

*D_NET *75 0.018607
*CONN
*I *1023:A1 I *D sg13cmos5l_o21ai_1
*I *1073:osc_tap[3] O *D a_ro
*CAP
1 *1023:A1 0
2 *1073:osc_tap[3] 0.000252188
3 *75:9 0.00623141
4 *75:7 0.0064836
5 *75:9 *82:23 0
6 *75:9 *82:41 0
7 *75:9 *82:45 0
8 *75:9 *83:21 0.00202756
9 *75:9 *83:29 0.00215614
10 *75:9 *98:17 0
11 *75:9 *101:21 0
12 *75:9 *128:10 0.00144073
13 *1023:A2 *75:9 1.54008e-05
14 *1049:A *75:9 0
15 *58:14 *75:9 0
16 *73:9 *75:9 0
*RES
1 *1073:osc_tap[3] *75:7 22.9072 
2 *75:7 *75:9 68.4538 
3 *75:9 *1023:A1 20 
*END

*D_NET *76 0.00725662
*CONN
*I *1021:A1 I *D sg13cmos5l_o21ai_1
*I *1073:osc_tap[4] O *D a_ro
*CAP
1 *1021:A1 0
2 *1073:osc_tap[4] 0.00173108
3 *76:9 0.00173108
4 *76:9 *132:6 0.00202669
5 *53:68 *76:9 0.00176777
6 *58:6 *76:9 0
*RES
1 *1073:osc_tap[4] *76:9 41.3648 
2 *76:9 *1021:A1 20 
*END

*D_NET *77 0.00287367
*CONN
*I *1019:A1 I *D sg13cmos5l_o21ai_1
*I *1073:osc_tap[5] O *D a_ro
*CAP
1 *1019:A1 0
2 *1073:osc_tap[5] 0.00129194
3 *77:9 0.00129194
4 *77:9 *132:6 0
5 *1019:B1 *77:9 0
6 *53:76 *77:9 0.000209637
7 *53:95 *77:9 8.01612e-05
8 *54:71 *77:9 0
*RES
1 *1073:osc_tap[5] *77:9 34.505 
2 *77:9 *1019:A1 20 
*END

*D_NET *78 0.00268743
*CONN
*I *1017:A1 I *D sg13cmos5l_o21ai_1
*I *1073:osc_tap[6] O *D a_ro
*CAP
1 *1017:A1 0
2 *1073:osc_tap[6] 0.00100445
3 *78:9 0.00100445
4 *78:9 *133:10 0.000339267
5 *52:56 *78:9 0.000339267
6 *53:76 *78:9 0
7 *54:75 *78:9 0
*RES
1 *1073:osc_tap[6] *78:9 31.3532 
2 *78:9 *1017:A1 20 
*END

*D_NET *79 0.00244782
*CONN
*I *1015:A1 I *D sg13cmos5l_o21ai_1
*I *1073:osc_tap[7] O *D a_ro
*CAP
1 *1015:A1 0
2 *1073:osc_tap[7] 0.00122391
3 *79:9 0.00122391
4 *79:9 *101:17 0
5 *79:9 *123:29 0
6 *1018:B1 *79:9 0
7 *1018:A1 *79:9 0
8 *49:41 *79:9 0
9 *56:10 *79:9 0
*RES
1 *1073:osc_tap[7] *79:9 33.887 
2 *79:9 *1015:A1 20 
*END

*D_NET *80 0.00656809
*CONN
*I *1075:invsel[0] I *D d_ro_tapped
*I *1074:config_o[0] O *D ctrl
*CAP
1 *1075:invsel[0] 0.000270236
2 *1074:config_o[0] 0.00155818
3 *80:13 0.00182842
4 *80:13 *1075:invsel[4] 0
5 *80:13 *91:13 0.00173151
6 *80:13 *99:27 0.00117974
7 *80:13 *142:13 0
*RES
1 *1074:config_o[0] *80:13 37.7314 
2 *80:13 *1075:invsel[0] 23.1879 
*END

*D_NET *81 0.0602649
*CONN
*I *1077:en[2] I *D f_load_binary
*I *1078:en[2] I *D g_glitch
*I *1043:A0 I *D sg13cmos5l_mux2_1
*I *1074:config_o[10] O *D ctrl
*CAP
1 *1077:en[2] 7.80149e-05
2 *1078:en[2] 8.03873e-05
3 *1043:A0 0
4 *1074:config_o[10] 0.000973639
5 *81:50 0.00297457
6 *81:48 0.00381697
7 *81:36 0.00337598
8 *81:27 0.000812341
9 *81:21 0.0025558
10 *81:17 0.00690293
11 *81:15 0.00278429
12 *81:13 0.0048923
13 *81:11 0.0048923
14 *81:9 0.000973639
15 *81:9 *85:9 0.00115541
16 *81:9 *87:9 0.000442753
17 *81:9 *104:16 0
18 *81:13 *84:15 0
19 *81:13 *100:17 0
20 *81:13 *104:18 0
21 *81:13 *106:11 0
22 *81:13 *107:7 0
23 *81:13 *107:9 0
24 *81:17 *116:14 0
25 *81:21 *116:14 0
26 *81:27 *1043:A1 0.000306794
27 *81:27 *112:10 0
28 *81:27 *116:8 0
29 *81:27 *117:12 0.00268252
30 *81:27 *129:12 0.00172325
31 *81:36 *82:60 0
32 *81:36 *85:44 0
33 *81:48 *116:14 0
34 *81:50 *1077:en[0] 0.00248186
35 *81:50 *1077:en[1] 0
36 *81:50 *82:25 0
37 *81:50 *116:18 0
38 *81:50 *117:18 0.00937062
39 *58:14 *81:21 0
40 *73:9 *81:17 0.00287107
41 *73:9 *81:21 0.00270726
42 *73:9 *81:48 0.00141017
*RES
1 *1074:config_o[10] *81:9 30.8202 
2 *81:9 *81:11 20 
3 *81:11 *81:13 61.1614 
4 *81:13 *81:15 20 
5 *81:15 *81:17 19.1374 
6 *81:17 *81:21 38.0559 
7 *81:21 *81:27 34.729 
8 *81:27 *1043:A0 20 
9 *81:17 *81:36 49.767 
10 *81:36 *1078:en[2] 20.8085 
11 *81:15 *81:48 29.4039 
12 *81:48 *81:50 43.6102 
13 *81:50 *1077:en[2] 20.7957 
*END

*D_NET *82 0.0702007
*CONN
*I *1078:en[3] I *D g_glitch
*I *1044:A0 I *D sg13cmos5l_mux2_1
*I *1077:en[3] I *D f_load_binary
*I *1074:config_o[11] O *D ctrl
*CAP
1 *1078:en[3] 4.07399e-05
2 *1044:A0 0
3 *1077:en[3] 3.93469e-05
4 *1074:config_o[11] 0.000991606
5 *82:60 0.00316989
6 *82:58 0.00312915
7 *82:51 0.00133049
8 *82:45 0.00289229
9 *82:41 0.00423819
10 *82:25 0.00486634
11 *82:23 0.00515725
12 *82:17 0.00614753
13 *82:15 0.00314088
14 *82:13 0.000991606
15 *82:13 *83:13 0
16 *82:13 *96:13 0.000956083
17 *82:17 *109:9 0.011664
18 *82:23 *101:21 0.000502033
19 *82:25 *1077:en[0] 0
20 *82:25 *1077:en[1] 0.00482487
21 *82:25 *113:18 0
22 *82:25 *117:18 0
23 *82:41 *83:29 0
24 *82:41 *109:9 0.000342552
25 *82:45 *83:29 0
26 *82:51 *1044:A1 7.97045e-05
27 *82:51 *101:25 0.00327346
28 *82:51 *109:37 0
29 *82:51 *115:8 0
30 *82:51 *127:8 0
31 *82:60 *85:44 0
32 *82:60 *86:46 0.00872895
33 *1029:A1 *82:51 0
34 *1049:A *82:45 4.77425e-05
35 *49:14 *82:51 0.003593
36 *49:35 *82:51 5.30319e-05
37 *58:14 *82:41 0
38 *58:14 *82:45 0
39 *75:9 *82:23 0
40 *75:9 *82:41 0
41 *75:9 *82:45 0
42 *81:36 *82:60 0
43 *81:50 *82:25 0
*RES
1 *1074:config_o[11] *82:13 31.7987 
2 *82:13 *82:15 20 
3 *82:15 *82:17 53.9926 
4 *82:17 *82:23 43.3475 
5 *82:23 *82:25 61.4086 
6 *82:25 *1077:en[3] 20.497 
7 *82:17 *82:41 46.5637 
8 *82:41 *82:45 34.3788 
9 *82:45 *82:51 42.4231 
10 *82:51 *1044:A0 20 
11 *82:41 *82:58 20 
12 *82:58 *82:60 40.3966 
13 *82:60 *1078:en[3] 20.3759 
*END

*D_NET *83 0.0729435
*CONN
*I *1077:en[4] I *D f_load_binary
*I *1078:en[4] I *D g_glitch
*I *1045:A0 I *D sg13cmos5l_mux2_1
*I *1074:config_o[12] O *D ctrl
*CAP
1 *1077:en[4] 0.000657886
2 *1078:en[4] 0.000192158
3 *1045:A0 0.000957461
4 *1074:config_o[12] 0.00184649
5 *83:68 0.00264925
6 *83:64 0.0046516
7 *83:62 0.00278315
8 *83:52 0.000315076
9 *83:50 0.0033394
10 *83:48 0.00338086
11 *83:33 0.00147257
12 *83:29 0.00177782
13 *83:25 0.00134162
14 *83:21 0.00107774
15 *83:17 0.00504898
16 *83:15 0.00400869
17 *83:13 0.00184649
18 *1045:A0 *1045:A1 4.77425e-05
19 *1045:A0 *1047:A1 0.000987417
20 *1045:A0 *116:8 0
21 *1045:A0 *118:8 0
22 *83:13 *1073:invsel[1] 0
23 *83:13 *97:13 0
24 *83:13 *100:13 0.0022283
25 *83:13 *108:15 0
26 *83:13 *110:13 0
27 *83:13 *110:19 0
28 *83:17 *1075:enable 0
29 *83:17 *91:13 0
30 *83:17 *103:15 0
31 *83:17 *103:17 0.00968582
32 *83:21 *98:17 0.00202756
33 *83:25 *85:42 0.000129592
34 *83:33 *116:12 0.00252871
35 *83:33 *127:12 0.00268814
36 *83:48 *85:42 1.55212e-05
37 *83:50 *84:42 0.00925707
38 *83:50 *85:44 0
39 *83:50 *110:44 0
40 *83:64 *84:42 0
41 *83:64 *85:44 0
42 *83:68 *1077:osc 0.00181668
43 *1045:S *1045:A0 0
44 *75:9 *83:21 0.00202756
45 *75:9 *83:29 0.00215614
46 *82:13 *83:13 0
47 *82:41 *83:29 0
48 *82:45 *83:29 0
*RES
1 *1074:config_o[12] *83:13 40.4815 
2 *83:13 *83:15 20 
3 *83:15 *83:17 57.4534 
4 *83:17 *83:21 33.5136 
5 *83:21 *83:25 20.5974 
6 *83:25 *83:29 34.3788 
7 *83:29 *83:33 32.463 
8 *83:33 *1045:A0 49.4245 
9 *83:25 *83:48 0.5356 
10 *83:48 *83:50 50.5318 
11 *83:50 *83:52 20 
12 *83:52 *1078:en[4] 2.10635 
13 *83:52 *83:62 21.4008 
14 *83:62 *83:64 34.2166 
15 *83:64 *83:68 45.1938 
16 *83:68 *1077:en[4] 48.6906 
*END

*D_NET *84 0.0747043
*CONN
*I *1078:en[5] I *D g_glitch
*I *1046:A0 I *D sg13cmos5l_mux2_1
*I *1074:config_o[13] O *D ctrl
*CAP
1 *1078:en[5] 0.000168719
2 *1046:A0 0
3 *1074:config_o[13] 0.00141713
4 *84:42 0.00233401
5 *84:40 0.00216529
6 *84:33 0.00160901
7 *84:27 0.00426389
8 *84:19 0.00439285
9 *84:15 0.00726064
10 *84:13 0.00552268
11 *84:11 0.00141713
12 *84:11 *98:9 0.0019613
13 *84:11 *100:13 0
14 *84:11 *103:9 0
15 *84:11 *108:15 0.000177241
16 *84:15 *98:13 0.0125168
17 *84:15 *107:9 0
18 *84:19 *110:44 0.00183297
19 *84:19 *110:56 0.000811173
20 *84:19 *112:14 0
21 *84:19 *115:14 0
22 *84:27 *109:37 0
23 *84:27 *112:10 0
24 *84:27 *112:14 0
25 *84:27 *115:14 0
26 *84:27 *135:10 0.00193884
27 *84:27 *151:90 0
28 *84:33 *1046:A1 0.00059824
29 *84:33 *109:37 0
30 *84:33 *112:10 0.00337756
31 *84:42 *85:44 0.0112872
32 *1025:A1 *84:27 0
33 *72:17 *84:27 0.000394528
34 *72:17 *84:33 0
35 *81:13 *84:15 0
36 *83:50 *84:42 0.00925707
37 *83:64 *84:42 0
*RES
1 *1074:config_o[13] *84:11 34.662 
2 *84:11 *84:13 20 
3 *84:13 *84:15 66.3526 
4 *84:15 *84:19 40.0026 
5 *84:19 *84:27 49.7567 
6 *84:27 *84:33 39.8893 
7 *84:33 *1046:A0 20 
8 *84:19 *84:40 20 
9 *84:40 *84:42 52.2622 
10 *84:42 *1078:en[5] 21.8901 
*END

*D_NET *85 0.0754232
*CONN
*I *1078:en[6] I *D g_glitch
*I *1047:A0 I *D sg13cmos5l_mux2_1
*I *1074:config_o[14] O *D ctrl
*CAP
1 *1078:en[6] 0.000145279
2 *1047:A0 0.000522161
3 *1074:config_o[14] 0.00125877
4 *85:44 0.00490348
5 *85:42 0.00492546
6 *85:23 0.00234993
7 *85:17 0.0037002
8 *85:13 0.00403803
9 *85:11 0.00233285
10 *85:9 0.00125877
11 *1047:A0 *1047:A1 0.000857655
12 *1047:A0 *115:8 0
13 *85:9 *87:9 0
14 *85:9 *88:11 0.000378134
15 *85:9 *104:16 0.00219045
16 *85:13 *86:17 0.0116605
17 *85:13 *98:13 0.0124638
18 *85:13 *108:11 0
19 *85:17 *101:21 0.0030976
20 *85:17 *113:14 0
21 *85:23 *98:23 0.00194066
22 *85:23 *101:21 0.00228563
23 *85:23 *113:14 0
24 *85:23 *116:12 0
25 *85:42 *86:46 0
26 *85:44 *86:46 0
27 *49:14 *85:23 0.00252609
28 *81:9 *85:9 0.00115541
29 *81:36 *85:44 0
30 *82:60 *85:44 0
31 *83:25 *85:42 0.000129592
32 *83:48 *85:42 1.55212e-05
33 *83:50 *85:44 0
34 *83:64 *85:44 0
35 *84:42 *85:44 0.0112872
*RES
1 *1074:config_o[14] *85:9 35.1152 
2 *85:9 *85:11 20 
3 *85:11 *85:13 58.195 
4 *85:13 *85:17 40.6515 
5 *85:17 *85:23 46.9654 
6 *85:23 *1047:A0 45.9431 
7 *85:17 *85:42 22.3278 
8 *85:42 *85:44 69.0718 
9 *85:44 *1078:en[6] 21.6737 
*END

*D_NET *86 0.0561997
*CONN
*I *1078:en[7] I *D g_glitch
*I *1048:A0 I *D sg13cmos5l_mux2_1
*I *1074:config_o[15] O *D ctrl
*CAP
1 *1078:en[7] 4.03663e-05
2 *1048:A0 0.00199136
3 *1074:config_o[15] 0.00176638
4 *86:46 0.00534778
5 *86:44 0.00530742
6 *86:31 0.00247674
7 *86:21 0.00228034
8 *86:17 0.0050297
9 *86:15 0.00323474
10 *86:13 0.00176638
11 *1048:A0 *1048:A1 0
12 *1048:A0 *111:9 0
13 *1048:A0 *119:8 0
14 *86:13 *87:9 0
15 *86:13 *96:13 0.00241618
16 *86:13 *97:13 0
17 *86:17 *98:13 0
18 *86:21 *100:21 0
19 *86:21 *103:21 0.00226341
20 *86:21 *107:13 0
21 *86:31 *103:21 0.000371305
22 *86:46 *1078:en[0] 0.00151811
23 *49:37 *86:21 0
24 *49:37 *86:31 0
25 *82:60 *86:46 0.00872895
26 *85:13 *86:17 0.0116605
27 *85:42 *86:46 0
28 *85:44 *86:46 0
*RES
1 *1074:config_o[15] *86:13 41.0378 
2 *86:13 *86:15 20 
3 *86:15 *86:17 54.7342 
4 *86:17 *86:21 42.3819 
5 *86:21 *86:31 45.9019 
6 *86:31 *1048:A0 38.5709 
7 *86:21 *86:44 20 
8 *86:44 *86:46 78.9598 
9 *86:46 *1078:en[7] 20.5098 
*END

*D_NET *87 0.00529562
*CONN
*I *1073:invsel[0] I *D a_ro
*I *1074:config_o[16] O *D ctrl
*CAP
1 *1073:invsel[0] 0.000394533
2 *1074:config_o[16] 0.00158386
3 *87:9 0.00197839
4 *1073:invsel[0] *109:7 0
5 *1073:invsel[0] *109:9 0
6 *1073:invsel[0] *110:13 0
7 *87:9 *88:11 0.000896082
8 *81:9 *87:9 0.000442753
9 *85:9 *87:9 0
10 *86:13 *87:9 0
*RES
1 *1074:config_o[16] *87:9 34.3119 
2 *87:9 *1073:invsel[0] 24.3904 
*END

*D_NET *88 0.00425106
*CONN
*I *1073:invsel[1] I *D a_ro
*I *1074:config_o[17] O *D ctrl
*CAP
1 *1073:invsel[1] 0.000420927
2 *1074:config_o[17] 0.0006809
3 *88:11 0.00110183
4 *88:11 *1073:invsel[2] 5.46129e-05
5 *88:11 *104:10 0.00071858
6 *88:11 *104:16 0
7 *83:13 *1073:invsel[1] 0
8 *85:9 *88:11 0.000378134
9 *87:9 *88:11 0.000896082
*RES
1 *1074:config_o[17] *88:11 48.4408 
2 *88:11 *1073:invsel[1] 4.63758 
*END

*D_NET *89 0.00150877
*CONN
*I *1073:invsel[2] I *D a_ro
*I *1074:config_o[18] O *D ctrl
*CAP
1 *1073:invsel[2] 0.000727077
2 *1074:config_o[18] 0.000727077
3 *1073:invsel[2] *1073:invsel[3] 0
4 *1073:invsel[2] *104:10 0
5 *88:11 *1073:invsel[2] 5.46129e-05
*RES
1 *1074:config_o[18] *1073:invsel[2] 47.4546 
*END

*D_NET *90 0.00207216
*CONN
*I *1073:invsel[3] I *D a_ro
*I *1074:config_o[19] O *D ctrl
*CAP
1 *1073:invsel[3] 0.000893329
2 *1074:config_o[19] 0.000893329
3 *1073:invsel[3] *92:11 0.0002855
4 *1073:invsel[3] *104:10 0
5 *1073:invsel[2] *1073:invsel[3] 0
*RES
1 *1074:config_o[19] *1073:invsel[3] 48.9996 
*END

*D_NET *91 0.00707676
*CONN
*I *1075:invsel[1] I *D d_ro_tapped
*I *1074:config_o[1] O *D ctrl
*CAP
1 *1075:invsel[1] 0.000249328
2 *1074:config_o[1] 0.0024233
3 *91:13 0.00267263
4 *91:13 *1075:enable 0
5 *91:13 *102:11 0
6 *80:13 *91:13 0.00173151
7 *83:17 *91:13 0
*RES
1 *1074:config_o[1] *91:13 36.2482 
2 *91:13 *1075:invsel[1] 22.9407 
*END

*D_NET *92 0.00410215
*CONN
*I *1073:invsel[4] I *D a_ro
*I *1074:config_o[20] O *D ctrl
*CAP
1 *1073:invsel[4] 0.000431384
2 *1074:config_o[20] 0.000862533
3 *92:11 0.00129392
4 *1073:invsel[4] *96:11 0
5 *1073:invsel[4] *97:11 0
6 *1073:invsel[4] *98:7 0
7 *92:11 *93:9 0.0011264
8 *92:11 *104:10 0.000102414
9 *1073:invsel[3] *92:11 0.0002855
*RES
1 *1074:config_o[20] *92:11 49.9859 
2 *92:11 *1073:invsel[4] 4.63758 
*END

*D_NET *93 0.00507117
*CONN
*I *1073:invsel[5] I *D a_ro
*I *1074:config_o[21] O *D ctrl
*CAP
1 *1073:invsel[5] 0.000454635
2 *1074:config_o[21] 0.00151775
3 *93:9 0.00197239
4 *1073:invsel[5] *101:13 0
5 *1073:invsel[5] *103:7 0
6 *93:9 *104:10 0
7 *92:11 *93:9 0.0011264
*RES
1 *1074:config_o[21] *93:9 35.3624 
2 *93:9 *1073:invsel[5] 24.8848 
*END

*D_NET *96 0.0243172
*CONN
*I *1041:A1 I *D sg13cmos5l_mux2_1
*I *1074:config_o[24] O *D ctrl
*CAP
1 *1041:A1 0.000668676
2 *1074:config_o[24] 0.000454864
3 *96:17 0.00270893
4 *96:13 0.00743615
5 *96:11 0.00585076
6 *1041:A1 *1041:A0 0.000728193
7 *1041:A1 *112:8 0
8 *96:11 *97:11 0
9 *96:13 *97:13 0
10 *96:13 *141:15 0.00309733
11 *96:13 *142:15 0
12 *96:17 *1075:ffsel[0] 0
13 *96:17 *107:19 0
14 *1073:invsel[4] *96:11 0
15 *49:10 *96:17 0
16 *49:14 *96:17 0
17 *82:13 *96:13 0.000956083
18 *86:13 *96:13 0.00241618
*RES
1 *1074:config_o[24] *96:11 25.1758 
2 *96:11 *96:13 65.6419 
3 *96:13 *96:17 45.8118 
4 *96:17 *1041:A1 47.6735 
*END

*D_NET *97 0.0164128
*CONN
*I *1042:A1 I *D sg13cmos5l_mux2_1
*I *1074:config_o[25] O *D ctrl
*CAP
1 *1042:A1 0
2 *1074:config_o[25] 0.000378184
3 *97:19 0.00029064
4 *97:13 0.00745849
5 *97:11 0.00754604
6 *97:13 *100:13 0
7 *97:13 *110:13 0
8 *97:13 *110:19 0
9 *97:13 *110:34 2.44176e-05
10 *97:13 *138:13 0
11 *97:13 *141:15 0
12 *97:13 *142:15 0
13 *1073:invsel[4] *97:11 0
14 *51:22 *97:19 0
15 *69:12 *97:19 0.000714986
16 *83:13 *97:13 0
17 *86:13 *97:13 0
18 *96:11 *97:11 0
19 *96:13 *97:13 0
*RES
1 *1074:config_o[25] *97:11 23.9398 
2 *97:11 *97:13 74.9428 
3 *97:13 *97:19 43.3166 
4 *97:19 *1042:A1 20 
*END

*D_NET *98 0.0620642
*CONN
*I *1043:A1 I *D sg13cmos5l_mux2_1
*I *1074:config_o[26] O *D ctrl
*CAP
1 *1043:A1 0.000552132
2 *1074:config_o[26] 8.90156e-05
3 *98:23 0.00139136
4 *98:17 0.00396348
5 *98:15 0.00312426
6 *98:13 0.00224306
7 *98:11 0.00224306
8 *98:9 0.00298759
9 *98:7 0.00307661
10 *1043:A1 *116:8 0
11 *98:9 *100:13 0
12 *98:9 *103:9 0.00533977
13 *98:13 *107:7 0
14 *98:17 *101:21 0.00530314
15 *98:17 *128:10 0.000533734
16 *98:23 *116:12 0
17 *1073:invsel[4] *98:7 0
18 *49:14 *98:23 0
19 *75:9 *98:17 0
20 *81:27 *1043:A1 0.000306794
21 *83:21 *98:17 0.00202756
22 *84:11 *98:9 0.0019613
23 *84:15 *98:13 0.0125168
24 *85:13 *98:13 0.0124638
25 *85:23 *98:23 0.00194066
26 *86:17 *98:13 0
*RES
1 *1074:config_o[26] *98:7 20.9708 
2 *98:7 *98:9 35.62 
3 *98:9 *98:11 20 
4 *98:11 *98:13 58.195 
5 *98:13 *98:15 20 
6 *98:15 *98:17 35.3599 
7 *98:17 *98:23 49.4966 
8 *98:23 *1043:A1 25.9431 
*END

*D_NET *99 0.0364903
*CONN
*I *1044:A1 I *D sg13cmos5l_mux2_1
*I *1074:config_o[27] O *D ctrl
*CAP
1 *1044:A1 4.50657e-05
2 *1074:config_o[27] 0.00145242
3 *99:29 0.00364686
4 *99:27 0.00625048
5 *99:19 0.0028453
6 *99:13 0.00355961
7 *99:11 0.00481542
8 *99:11 *103:9 0.00256356
9 *99:13 *103:9 0
10 *99:13 *150:13 0.00290865
11 *99:19 *1075:invsel[2] 0
12 *99:19 *138:13 0
13 *99:19 *139:9 0.000105688
14 *99:19 *140:13 0
15 *99:29 *113:10 0
16 *99:29 *141:21 0.0030934
17 *99:29 *141:27 0
18 *99:29 *151:43 0
19 *1029:A1 *1044:A1 7.97045e-05
20 *51:40 *99:29 0
21 *53:10 *99:29 0
22 *69:12 *99:29 0.00386468
23 *80:13 *99:27 0.00117974
24 *82:51 *1044:A1 7.97045e-05
*RES
1 *1074:config_o[27] *99:11 37.9272 
2 *99:11 *99:13 37.0285 
3 *99:13 *99:19 42.0806 
4 *99:19 *99:27 44.5655 
5 *99:27 *99:29 41.6326 
6 *99:29 *1044:A1 40.5356 
*END

*D_NET *100 0.0458587
*CONN
*I *1045:A1 I *D sg13cmos5l_mux2_1
*I *1074:config_o[28] O *D ctrl
*CAP
1 *1045:A1 3.03288e-05
2 *1074:config_o[28] 0.000170207
3 *100:25 0.000598167
4 *100:21 0.00370551
5 *100:19 0.00313767
6 *100:17 0.00344686
7 *100:15 0.00344686
8 *100:13 0.00404431
9 *100:11 0.00421452
10 *100:11 *101:13 0
11 *100:13 *103:9 0
12 *100:13 *108:15 0.00071498
13 *100:17 *104:18 0.011665
14 *100:17 *110:36 0
15 *100:21 *103:21 0.00399374
16 *100:21 *107:13 0
17 *100:25 *111:13 0.00210092
18 *1045:A0 *1045:A1 4.77425e-05
19 *49:37 *100:21 0
20 *52:25 *100:25 0
21 *54:24 *100:25 0
22 *70:14 *100:25 0.00231352
23 *71:10 *100:21 0
24 *72:13 *100:21 0
25 *81:13 *100:17 0
26 *83:13 *100:13 0.0022283
27 *84:11 *100:13 0
28 *86:21 *100:21 0
29 *97:13 *100:13 0
30 *98:9 *100:13 0
*RES
1 *1074:config_o[28] *100:11 21.9622 
2 *100:11 *100:13 42.9304 
3 *100:13 *100:15 20 
4 *100:15 *100:17 57.2062 
5 *100:17 *100:19 20 
6 *100:19 *100:21 39.4696 
7 *100:21 *100:25 31.4742 
8 *100:25 *1045:A1 40.3193 
*END

*D_NET *101 0.0562832
*CONN
*I *1046:A1 I *D sg13cmos5l_mux2_1
*I *1074:config_o[29] O *D ctrl
*CAP
1 *1046:A1 0.000451681
2 *1074:config_o[29] 0.00132241
3 *101:25 0.00138387
4 *101:21 0.00807478
5 *101:19 0.00714259
6 *101:17 0.00309753
7 *101:15 0.00309753
8 *101:13 0.00132241
9 *1046:A1 *117:8 0
10 *1046:A1 *127:8 0
11 *101:17 *123:29 0.0112051
12 *101:21 *113:14 0
13 *101:21 *128:10 0
14 *101:25 *109:37 0.00412523
15 *1073:invsel[5] *101:13 0
16 *49:14 *101:25 0
17 *75:9 *101:21 0
18 *79:9 *101:17 0
19 *82:23 *101:21 0.000502033
20 *82:51 *101:25 0.00327346
21 *84:33 *1046:A1 0.00059824
22 *85:17 *101:21 0.0030976
23 *85:23 *101:21 0.00228563
24 *98:17 *101:21 0.00530314
25 *100:11 *101:13 0
*RES
1 *1074:config_o[29] *101:13 35.2904 
2 *101:13 *101:15 20 
3 *101:15 *101:17 53.7454 
4 *101:17 *101:19 20 
5 *101:19 *101:21 86.8393 
6 *101:21 *101:25 39.1374 
7 *101:25 *1046:A1 45.0779 
*END

*D_NET *102 0.00485145
*CONN
*I *1075:invsel[2] I *D d_ro_tapped
*I *1074:config_o[2] O *D ctrl
*CAP
1 *1075:invsel[2] 0.000446242
2 *1074:config_o[2] 0.00105771
3 *102:11 0.00150395
4 *1075:invsel[2] *138:13 0
5 *102:11 *105:13 0.0011807
6 *102:11 *106:11 0.000662856
7 *91:13 *102:11 0
8 *99:19 *1075:invsel[2] 0
*RES
1 *1074:config_o[2] *102:11 32.4372 
2 *102:11 *1075:invsel[2] 24.9182 
*END

*D_NET *103 0.054159
*CONN
*I *1047:A1 I *D sg13cmos5l_mux2_1
*I *1074:config_o[30] O *D ctrl
*CAP
1 *1047:A1 0.000646299
2 *1074:config_o[30] 7.22596e-05
3 *103:25 0.00145346
4 *103:21 0.00286029
5 *103:17 0.00480858
6 *103:15 0.00425198
7 *103:9 0.00581071
8 *103:7 0.00438644
9 *1047:A1 *115:8 0
10 *1047:A1 *118:8 0
11 *103:9 *108:15 0
12 *103:9 *150:13 0.00138307
13 *103:15 *110:36 0
14 *103:17 *110:36 0
15 *103:25 *115:12 0
16 *103:25 *118:12 0.00242322
17 *103:25 *127:12 0
18 *1045:A0 *1047:A1 0.000987417
19 *1047:A0 *1047:A1 0.000857655
20 *1073:invsel[5] *103:7 0
21 *49:37 *103:21 0
22 *83:17 *103:15 0
23 *83:17 *103:17 0.00968582
24 *84:11 *103:9 0
25 *86:21 *103:21 0.00226341
26 *86:31 *103:21 0.000371305
27 *98:9 *103:9 0.00533977
28 *99:11 *103:9 0.00256356
29 *99:13 *103:9 0
30 *100:13 *103:9 0
31 *100:21 *103:21 0.00399374
*RES
1 *1074:config_o[30] *103:7 20.7236 
2 *103:7 *103:9 49.0306 
3 *103:9 *103:15 34.0183 
4 *103:15 *103:17 44.8462 
5 *103:17 *103:21 46.7079 
6 *103:21 *103:25 31.9686 
7 *103:25 *1047:A1 47.8898 
*END

*D_NET *104 0.036645
*CONN
*I *1048:A1 I *D sg13cmos5l_mux2_1
*I *1074:config_o[31] O *D ctrl
*CAP
1 *1048:A1 0.00237973
2 *1074:config_o[31] 0.002622
3 *104:28 0.00352153
4 *104:18 0.00442488
5 *104:16 0.00484073
6 *104:10 0.00417966
7 *1048:A1 *111:9 0
8 *1048:A1 *113:14 0
9 *1048:A1 *129:8 0
10 *104:16 *106:11 0
11 *104:18 *105:13 0
12 *104:18 *106:11 0
13 *104:28 *113:14 0
14 *1048:A0 *1048:A1 0
15 *1073:invsel[2] *104:10 0
16 *1073:invsel[3] *104:10 0
17 *81:9 *104:16 0
18 *81:13 *104:18 0
19 *85:9 *104:16 0.00219045
20 *88:11 *104:10 0.00071858
21 *88:11 *104:16 0
22 *92:11 *104:10 0.000102414
23 *93:9 *104:10 0
24 *100:17 *104:18 0.011665
*RES
1 *1074:config_o[31] *104:10 49.7284 
2 *104:10 *104:16 39.3743 
3 *104:16 *104:18 55.4758 
4 *104:18 *104:28 34.0389 
5 *104:28 *1048:A1 44.3904 
*END

*D_NET *105 0.00411194
*CONN
*I *1075:invsel[3] I *D d_ro_tapped
*I *1074:config_o[3] O *D ctrl
*CAP
1 *1075:invsel[3] 0.000467259
2 *1074:config_o[3] 0.000870275
3 *105:13 0.00133753
4 *1075:invsel[3] *140:13 0
5 *1075:invsel[3] *141:11 0
6 *105:13 *106:11 0.000256179
7 *102:11 *105:13 0.0011807
8 *104:18 *105:13 0
*RES
1 *1074:config_o[3] *105:13 31.0571 
2 *105:13 *1075:invsel[3] 25.1654 
*END

*D_NET *106 0.0037749
*CONN
*I *1075:invsel[4] I *D d_ro_tapped
*I *1074:config_o[4] O *D ctrl
*CAP
1 *1075:invsel[4] 0.000446678
2 *1074:config_o[4] 0.000981252
3 *106:11 0.00142793
4 *1075:invsel[4] *142:13 0
5 *106:11 *107:7 0
6 *80:13 *1075:invsel[4] 0
7 *81:13 *106:11 0
8 *102:11 *106:11 0.000662856
9 *104:16 *106:11 0
10 *104:18 *106:11 0
11 *105:13 *106:11 0.000256179
*RES
1 *1074:config_o[4] *106:11 49.1207 
2 *106:11 *1075:invsel[4] 4.67105 
*END

*D_NET *107 0.0380931
*CONN
*I *1075:ffsel[0] I *D d_ro_tapped
*I *1074:config_o[5] O *D ctrl
*CAP
1 *1075:ffsel[0] 0.00091213
2 *1074:config_o[5] 0.000115424
3 *107:19 0.00352941
4 *107:15 0.00261728
5 *107:13 0.00239613
6 *107:11 0.00239613
7 *107:9 0.00583994
8 *107:7 0.00595537
9 *1075:ffsel[0] *123:11 0.000396914
10 *1075:ffsel[0] *123:13 0
11 *107:13 *123:23 0.00467325
12 *107:19 *115:12 0
13 *107:19 *123:13 0.00926115
14 *107:19 *127:12 0
15 *81:13 *107:7 0
16 *81:13 *107:9 0
17 *84:15 *107:9 0
18 *86:21 *107:13 0
19 *96:17 *1075:ffsel[0] 0
20 *96:17 *107:19 0
21 *98:13 *107:7 0
22 *100:21 *107:13 0
23 *106:11 *107:7 0
*RES
1 *1074:config_o[5] *107:7 1.39565 
2 *107:7 *107:9 56.2174 
3 *107:9 *107:11 20 
4 *107:11 *107:13 31.4665 
5 *107:13 *107:15 20 
6 *107:15 *107:19 43.4351 
7 *107:19 *1075:ffsel[0] 49.973 
*END

*D_NET *108 0.00954797
*CONN
*I *1075:ffsel[1] I *D d_ro_tapped
*I *1074:config_o[6] O *D ctrl
*CAP
1 *1075:ffsel[1] 0.000374413
2 *1074:config_o[6] 0.00014739
3 *108:15 0.00319625
4 *108:11 0.00296923
5 *1075:ffsel[1] *110:19 0
6 *1075:ffsel[1] *126:13 0
7 *108:11 *109:9 0
8 *108:15 *126:13 0
9 *108:15 *139:9 0
10 *108:15 *140:13 0.00196847
11 *108:15 *150:13 0
12 *83:13 *108:15 0
13 *84:11 *108:15 0.000177241
14 *85:13 *108:11 0
15 *100:13 *108:15 0.00071498
16 *103:9 *108:15 0
*RES
1 *1074:config_o[6] *108:11 21.715 
2 *108:11 *108:15 49.0872 
3 *108:15 *1075:ffsel[1] 3.9449 
*END

*D_NET *109 0.0581943
*CONN
*I *1078:en[0] I *D g_glitch
*I *1041:A0 I *D sg13cmos5l_mux2_1
*I *1077:en[0] I *D f_load_binary
*I *1074:config_o[8] O *D ctrl
*CAP
1 *1078:en[0] 0.000559837
2 *1041:A0 0.000425237
3 *1077:en[0] 0.000712388
4 *1074:config_o[8] 0.000183725
5 *109:37 0.00340408
6 *109:35 0.00411481
7 *109:31 0.00378383
8 *109:15 0.00104739
9 *109:9 0.00626047
10 *109:7 0.00402116
11 *1041:A0 *112:8 0
12 *1077:en[0] *1077:en[1] 0.00151654
13 *109:15 *128:18 0
14 *109:31 *128:18 0.00382869
15 *109:35 *128:18 0.00147564
16 *109:37 *112:10 0
17 *109:37 *116:12 0
18 *109:37 *127:12 0
19 *1041:A1 *1041:A0 0.000728193
20 *1041:S *1041:A0 0
21 *1073:invsel[0] *109:7 0
22 *1073:invsel[0] *109:9 0
23 *49:14 *109:37 0
24 *53:8 *1041:A0 0
25 *53:68 *109:31 0.00384408
26 *53:68 *109:35 0.00215653
27 *54:71 *109:15 0
28 *54:71 *109:35 0
29 *72:17 *109:37 0
30 *81:50 *1077:en[0] 0.00248186
31 *82:17 *109:9 0.011664
32 *82:25 *1077:en[0] 0
33 *82:41 *109:9 0.000342552
34 *82:51 *109:37 0
35 *84:27 *109:37 0
36 *84:33 *109:37 0
37 *86:46 *1078:en[0] 0.00151811
38 *101:25 *109:37 0.00412523
39 *108:11 *109:9 0
*RES
1 *1074:config_o[8] *109:7 2.22995 
2 *109:7 *109:9 62.1502 
3 *109:9 *109:15 43.5638 
4 *109:15 *1077:en[0] 32.0536 
5 *109:9 *109:31 46.9654 
6 *109:31 *109:35 34.3788 
7 *109:35 *109:37 34.2166 
8 *109:37 *1041:A0 45.0779 
9 *109:31 *1078:en[0] 48.5181 
*END

*D_NET *110 0.0431308
*CONN
*I *1077:en[1] I *D f_load_binary
*I *1078:en[1] I *D g_glitch
*I *1042:A0 I *D sg13cmos5l_mux2_1
*I *1074:config_o[9] O *D ctrl
*CAP
1 *1077:en[1] 0.00158961
2 *1078:en[1] 0.000383224
3 *1042:A0 0
4 *1074:config_o[9] 0.00156406
5 *110:56 0.0026974
6 *110:44 0.00261374
7 *110:38 0.00333831
8 *110:36 0.00534955
9 *110:34 0.00539215
10 *110:23 0.00104455
11 *110:19 0.0038933
12 *110:13 0.00445541
13 *110:19 *126:13 0
14 *110:19 *138:13 0
15 *110:23 *121:17 0
16 *110:23 *150:13 0.00179952
17 *110:44 *115:14 0
18 *110:56 *112:14 0
19 *110:56 *115:14 0
20 *1073:invsel[0] *110:13 0
21 *1075:ffsel[1] *110:19 0
22 *1077:en[0] *1077:en[1] 0.00151654
23 *81:50 *1077:en[1] 0
24 *82:25 *1077:en[1] 0.00482487
25 *83:13 *110:13 0
26 *83:13 *110:19 0
27 *83:50 *110:44 0
28 *84:19 *110:44 0.00183297
29 *84:19 *110:56 0.000811173
30 *97:13 *110:13 0
31 *97:13 *110:19 0
32 *97:13 *110:34 2.44176e-05
33 *100:17 *110:36 0
34 *103:15 *110:36 0
35 *103:17 *110:36 0
*RES
1 *1074:config_o[9] *110:13 35.2904 
2 *110:13 *110:19 46.2547 
3 *110:19 *110:23 32.6484 
4 *110:23 *1042:A0 20 
5 *110:13 *110:34 20.515 
6 *110:34 *110:36 26.359 
7 *110:36 *110:38 20 
8 *110:38 *110:44 46.6564 
9 *110:44 *1078:en[1] 24.2694 
10 *110:38 *110:56 32.4321 
11 *110:56 *1077:en[1] 42.7141 
*END

*D_NET *111 0.0188881
*CONN
*I *1036:A1 I *D sg13cmos5l_a21oi_1
*I *1031:A1 I *D sg13cmos5l_a21oi_1
*I *1010:A_N I *D sg13cmos5l_nand2b_1
*I *1075:osc O *D d_ro_tapped
*CAP
1 *1036:A1 6.18885e-05
2 *1031:A1 5.08741e-05
3 *1010:A_N 0.000337444
4 *1075:osc 0.00240085
5 *111:15 0.000693858
6 *111:13 0.0021985
7 *111:9 0.00423191
8 *1010:A_N *1010:B 0.000122871
9 *1031:A1 *1031:A2 8.00842e-05
10 *1036:A1 *1036:A2 1.54008e-05
11 *111:9 *1035:B1 1.54008e-05
12 *111:9 *113:14 0
13 *111:9 *119:8 0.0018617
14 *111:9 *135:8 0
15 *111:9 *151:39 0.000258958
16 *111:15 *1013:B2 0
17 *1048:A0 *111:9 0
18 *1048:A1 *111:9 0
19 *47:12 *1010:A_N 0.000128408
20 *48:14 *1010:A_N 0
21 *48:14 *111:15 0
22 *50:10 *1010:A_N 0.000554461
23 *50:10 *111:15 0.000213045
24 *52:25 *111:13 0.00273979
25 *54:18 *111:13 0
26 *62:10 *111:13 0.000821726
27 *70:14 *111:13 0
28 *100:25 *111:13 0.00210092
*RES
1 *1075:osc *111:9 44.1586 
2 *111:9 *111:13 44.823 
3 *111:13 *111:15 2.8222 
4 *111:15 *1010:A_N 44.0582 
5 *111:15 *1031:A1 40.5356 
6 *111:13 *1036:A1 40.5356 
*END

*D_NET *112 0.0222947
*CONN
*I *1076:en[0] I *D e_load_uniform
*I *1041:X O *D sg13cmos5l_mux2_1
*CAP
1 *1076:en[0] 0.000714558
2 *1041:X 0.000431517
3 *112:14 0.00515234
4 *112:12 0.00443778
5 *112:10 0.00255577
6 *112:8 0.00298728
7 *1076:en[0] *113:18 0
8 *1076:en[0] *115:18 0
9 *1076:en[0] *118:18 0
10 *112:10 *117:12 0
11 *112:10 *129:12 0
12 *112:10 *135:10 0.00177924
13 *112:14 *115:14 0
14 *1025:A1 *112:14 0.000858653
15 *1041:A0 *112:8 0
16 *1041:A1 *112:8 0
17 *52:56 *112:14 0
18 *53:8 *112:8 0
19 *81:27 *112:10 0
20 *84:19 *112:14 0
21 *84:27 *112:10 0
22 *84:27 *112:14 0
23 *84:33 *112:10 0.00337756
24 *109:37 *112:10 0
25 *110:56 *112:14 0
*RES
1 *1041:X *112:8 44.429 
2 *112:8 *112:10 35.4526 
3 *112:10 *112:12 20 
4 *112:12 *112:14 46.8238 
5 *112:14 *1076:en[0] 48.5696 
*END

*D_NET *113 0.0334867
*CONN
*I *1076:en[1] I *D e_load_uniform
*I *1042:X O *D sg13cmos5l_mux2_1
*CAP
1 *1076:en[1] 0.000333642
2 *1042:X 0.000155563
3 *113:18 0.00213636
4 *113:14 0.00635683
5 *113:12 0.00455411
6 *113:10 0.00498057
7 *113:8 0.00513614
8 *113:8 *138:13 0
9 *113:8 *139:9 0.000241776
10 *113:10 *117:12 0
11 *113:10 *140:17 0.00295572
12 *113:10 *141:21 0.00309228
13 *113:10 *151:39 0
14 *113:10 *151:43 0
15 *113:14 *128:10 0
16 *113:14 *135:8 0
17 *113:18 *114:20 0.00354366
18 *113:18 *116:18 0
19 *1048:A1 *113:14 0
20 *1076:en[0] *113:18 0
21 *51:103 *113:10 0
22 *53:27 *113:10 0
23 *69:12 *113:10 0
24 *82:25 *113:18 0
25 *85:17 *113:14 0
26 *85:23 *113:14 0
27 *99:29 *113:10 0
28 *101:21 *113:14 0
29 *104:28 *113:14 0
30 *111:9 *113:14 0
*RES
1 *1042:X *113:8 41.6171 
2 *113:8 *113:10 56.4646 
3 *113:10 *113:12 20 
4 *113:12 *113:14 48.3379 
5 *113:14 *113:18 44.5758 
6 *113:18 *1076:en[1] 23.9681 
*END

*D_NET *114 0.0345825
*CONN
*I *1076:en[2] I *D e_load_uniform
*I *1043:X O *D sg13cmos5l_mux2_1
*CAP
1 *1076:en[2] 0.000349865
2 *1043:X 0.00052318
3 *114:20 0.00151435
4 *114:16 0.00543212
5 *114:14 0.00479775
6 *114:8 0.00105329
7 *114:14 *151:88 0.000980355
8 *114:20 *116:18 0.00557464
9 *52:25 *114:8 0
10 *52:56 *114:16 0.00741233
11 *53:14 *114:8 0.000608937
12 *53:27 *114:8 0.00127906
13 *53:51 *114:14 0
14 *53:66 *114:14 0
15 *53:68 *114:16 0
16 *60:14 *114:8 0.001513
17 *60:14 *114:14 0
18 *74:9 *114:16 0
19 *113:18 *114:20 0.00354366
*RES
1 *1043:X *114:8 49.991 
2 *114:8 *114:14 25.8607 
3 *114:14 *114:16 49.4194 
4 *114:16 *114:20 45.8118 
5 *114:20 *1076:en[2] 24.1844 
*END

*D_NET *115 0.0333778
*CONN
*I *1076:en[3] I *D e_load_uniform
*I *1044:X O *D sg13cmos5l_mux2_1
*CAP
1 *1076:en[3] 7.40799e-05
2 *1044:X 0.000909675
3 *115:18 0.00197616
4 *115:16 0.00190208
5 *115:14 0.00375278
6 *115:12 0.00559168
7 *115:8 0.00274858
8 *115:12 *118:12 0.00279842
9 *115:12 *127:12 0
10 *115:12 *128:16 0
11 *115:14 *151:90 0.00660181
12 *115:18 *118:18 0.00702254
13 *1029:A1 *115:8 0
14 *1047:A0 *115:8 0
15 *1047:A1 *115:8 0
16 *1076:en[0] *115:18 0
17 *52:56 *115:14 0
18 *74:15 *115:12 0
19 *82:51 *115:8 0
20 *84:19 *115:14 0
21 *84:27 *115:14 0
22 *103:25 *115:12 0
23 *107:19 *115:12 0
24 *110:44 *115:14 0
25 *110:56 *115:14 0
26 *112:14 *115:14 0
*RES
1 *1044:X *115:8 48.2321 
2 *115:8 *115:12 43.8342 
3 *115:12 *115:14 44.0119 
4 *115:14 *115:16 20 
5 *115:16 *115:18 32.5197 
6 *115:18 *1076:en[3] 20.7004 
*END

*D_NET *116 0.0437502
*CONN
*I *1076:en[4] I *D e_load_uniform
*I *1045:X O *D sg13cmos5l_mux2_1
*CAP
1 *1076:en[4] 0.000358871
2 *1045:X 0.000735477
3 *116:18 0.00284274
4 *116:16 0.00248387
5 *116:14 0.0041686
6 *116:12 0.00531291
7 *116:8 0.00187978
8 *116:8 *118:8 0.00105197
9 *116:12 *127:12 0
10 *116:18 *117:18 0.0104381
11 *1043:A1 *116:8 0
12 *1045:A0 *116:8 0
13 *49:14 *116:12 0
14 *49:35 *116:12 0
15 *58:14 *116:14 0.00637448
16 *73:9 *116:14 0
17 *81:17 *116:14 0
18 *81:21 *116:14 0
19 *81:27 *116:8 0
20 *81:48 *116:14 0
21 *81:50 *116:18 0
22 *83:33 *116:12 0.00252871
23 *85:23 *116:12 0
24 *98:23 *116:12 0
25 *109:37 *116:12 0
26 *113:18 *116:18 0
27 *114:20 *116:18 0.00557464
*RES
1 *1045:X *116:8 48.1061 
2 *116:8 *116:12 33.2046 
3 *116:12 *116:14 42.4978 
4 *116:14 *116:16 20 
5 *116:16 *116:18 49.0486 
6 *116:18 *1076:en[4] 24.4007 
*END

*D_NET *117 0.0400112
*CONN
*I *1076:en[5] I *D e_load_uniform
*I *1046:X O *D sg13cmos5l_mux2_1
*CAP
1 *1076:en[5] 0.000375094
2 *1046:X 0.00025779
3 *117:18 0.00311912
4 *117:16 0.00274403
5 *117:14 0.00361056
6 *117:12 0.00523904
7 *117:8 0.00188627
8 *117:8 *127:8 0
9 *117:14 *118:14 0
10 *117:14 *130:14 0
11 *1030:A2 *117:8 0
12 *1046:A1 *117:8 0
13 *1046:S *117:8 0
14 *49:37 *117:14 0
15 *53:27 *117:12 0
16 *53:51 *117:12 0
17 *53:66 *117:12 0.000288087
18 *81:27 *117:12 0.00268252
19 *81:50 *117:18 0.00937062
20 *82:25 *117:18 0
21 *112:10 *117:12 0
22 *113:10 *117:12 0
23 *116:18 *117:18 0.0104381
*RES
1 *1046:X *117:8 42.4823 
2 *117:8 *117:12 41.6094 
3 *117:12 *117:14 46.8238 
4 *117:14 *117:16 20 
5 *117:16 *117:18 57.7006 
6 *117:18 *1076:en[5] 24.617 
*END

*D_NET *118 0.0505919
*CONN
*I *1076:en[6] I *D e_load_uniform
*I *1047:X O *D sg13cmos5l_mux2_1
*CAP
1 *1076:en[6] 5.06405e-05
2 *1047:X 0.000886817
3 *118:18 0.00349178
4 *118:16 0.00344114
5 *118:14 0.00343762
6 *118:12 0.00399031
7 *118:8 0.00143951
8 *118:12 *127:12 0
9 *118:18 *119:20 0.0139114
10 *1045:A0 *118:8 0
11 *1047:A1 *118:8 0
12 *1076:en[0] *118:18 0
13 *49:37 *118:14 0.00664655
14 *58:12 *118:18 0
15 *103:25 *118:12 0.00242322
16 *115:12 *118:12 0.00279842
17 *115:18 *118:18 0.00702254
18 *116:8 *118:8 0.00105197
19 *117:14 *118:14 0
*RES
1 *1047:X *118:8 48.755 
2 *118:8 *118:12 32.9574 
3 *118:12 *118:14 44.4445 
4 *118:14 *118:16 20 
5 *118:16 *118:18 68.3637 
6 *118:18 *1076:en[6] 20.4841 
*END

*D_NET *119 0.0428178
*CONN
*I *1076:en[7] I *D e_load_uniform
*I *1048:X O *D sg13cmos5l_mux2_1
*CAP
1 *1076:en[7] 0.000805043
2 *1048:X 0.00118367
3 *119:20 0.00460839
4 *119:18 0.00380334
5 *119:16 0.00398038
6 *119:14 0.00466522
7 *119:8 0.00186852
8 *119:14 *128:16 0
9 *119:16 *129:14 0.00613008
10 *119:16 *131:12 0
11 *119:20 *1076:osc[0] 0
12 *1048:A0 *119:8 0
13 *111:9 *119:8 0.0018617
14 *118:18 *119:20 0.0139114
*RES
1 *1048:X *119:8 33.0295 
2 *119:8 *119:14 48.0134 
3 *119:14 *119:16 40.9837 
4 *119:16 *119:18 20 
5 *119:18 *119:20 64.8694 
6 *119:20 *1076:en[7] 29.8597 
*END

*D_NET *120 0.00472573
*CONN
*I *1014:B_N I *D sg13cmos5l_nor2b_1
*I *1074:en_load_o[0] O *D ctrl
*CAP
1 *1014:B_N 0.000474013
2 *1074:en_load_o[0] 0.00104596
3 *120:12 0.0013169
4 *120:6 0.00188885
5 *1014:B_N *1033:B_N 0
6 *120:6 *137:9 0
7 *120:12 *122:15 0
8 *49:10 *120:12 0
*RES
1 *1074:en_load_o[0] *120:6 30.9618 
2 *120:6 *120:12 46.7774 
3 *120:12 *1014:B_N 25.5105 
*END

*D_NET *121 0.00764695
*CONN
*I *1038:B_N I *D sg13cmos5l_nor2b_1
*I *1074:en_load_o[1] O *D ctrl
*CAP
1 *1038:B_N 0
2 *1074:en_load_o[1] 0.000991723
3 *121:17 0.000719659
4 *121:9 0.00171138
5 *121:9 *122:9 0
6 *121:9 *139:9 0.0018064
7 *121:9 *150:13 0.0018064
8 *49:10 *121:17 0.000611399
9 *110:23 *121:17 0
*RES
1 *1074:en_load_o[1] *121:9 32.7668 
2 *121:9 *121:17 48.9816 
3 *121:17 *1038:B_N 20 
*END

*D_NET *122 0.00712745
*CONN
*I *1033:B_N I *D sg13cmos5l_nor2b_1
*I *1074:en_load_o[2] O *D ctrl
*CAP
1 *1033:B_N 0.000437207
2 *1074:en_load_o[2] 0.00137234
3 *122:15 0.00107996
4 *122:9 0.00201509
5 *122:9 *137:9 0.00222285
6 *1014:B_N *1033:B_N 0
7 *49:10 *122:15 0
8 *120:12 *122:15 0
9 *121:9 *122:9 0
*RES
1 *1074:en_load_o[2] *122:9 35.5788 
2 *122:9 *122:15 46.283 
3 *122:15 *1033:B_N 25.0779 
*END

*D_NET *123 0.0582994
*CONN
*I *1073:enable I *D a_ro
*I *1074:en_ros_o[0] O *D ctrl
*CAP
1 *1073:enable 0.000184931
2 *1074:en_ros_o[0] 0.000638425
3 *123:29 0.00312374
4 *123:27 0.0029388
5 *123:25 0.00295963
6 *123:23 0.00632932
7 *123:15 0.0033697
8 *123:13 0.00322378
9 *123:11 0.00386221
10 *1075:ffsel[0] *123:11 0.000396914
11 *1075:ffsel[0] *123:13 0
12 *72:11 *123:23 0.00118807
13 *72:13 *123:23 0.00494438
14 *79:9 *123:29 0
15 *101:17 *123:29 0.0112051
16 *107:13 *123:23 0.00467325
17 *107:19 *123:13 0.00926115
*RES
1 *1074:en_ros_o[0] *123:11 7.71985 
2 *123:11 *123:13 50.0374 
3 *123:13 *123:15 20 
4 *123:15 *123:23 43.7441 
5 *123:23 *123:25 39.9537 
6 *123:25 *123:27 20 
7 *123:27 *123:29 51.8296 
8 *123:29 *1073:enable 2.62135 
*END

*D_NET *126 0.00514627
*CONN
*I *1075:enable I *D d_ro_tapped
*I *1074:en_ros_o[3] O *D ctrl
*CAP
1 *1075:enable 0.000342735
2 *1074:en_ros_o[3] 0.0022304
3 *126:13 0.00257313
4 *126:13 *138:13 0
5 *126:13 *140:13 0
6 *1075:ffsel[1] *126:13 0
7 *83:17 *1075:enable 0
8 *91:13 *1075:enable 0
9 *108:15 *126:13 0
10 *110:19 *126:13 0
*RES
1 *1074:en_ros_o[3] *126:13 42.0883 
2 *126:13 *1075:enable 23.2085 
*END

*D_NET *127 0.0170791
*CONN
*I *1076:osc[0] I *D e_load_uniform
*I *1030:Y O *D sg13cmos5l_o21ai_1
*CAP
1 *1076:osc[0] 0.000116419
2 *1030:Y 0.000613735
3 *127:14 0.00475357
4 *127:12 0.00646535
5 *127:8 0.00244194
6 *127:14 *131:12 0
7 *1046:A1 *127:8 0
8 *49:14 *127:12 0
9 *82:51 *127:8 0
10 *83:33 *127:12 0.00268814
11 *103:25 *127:12 0
12 *107:19 *127:12 0
13 *109:37 *127:12 0
14 *115:12 *127:12 0
15 *116:12 *127:12 0
16 *117:8 *127:8 0
17 *118:12 *127:12 0
18 *119:20 *1076:osc[0] 0
*RES
1 *1030:Y *127:8 46.592 
2 *127:8 *127:12 44.0814 
3 *127:12 *127:14 48.1216 
4 *127:14 *1076:osc[0] 21.424 
*END

*D_NET *128 0.0197439
*CONN
*I *1076:osc[1] I *D e_load_uniform
*I *1028:Y O *D sg13cmos5l_o21ai_1
*CAP
1 *1076:osc[1] 0.000243319
2 *1028:Y 0.00110216
3 *128:18 0.00444653
4 *128:16 0.0046512
5 *128:10 0.00155015
6 *128:10 *1028:B1 0.000145031
7 *128:10 *135:8 0
8 *1023:A2 *128:10 0.00013409
9 *1024:A2 *128:10 0
10 *53:29 *128:10 0.000112535
11 *53:51 *128:10 8.00842e-05
12 *53:68 *128:18 0
13 *54:71 *128:18 0
14 *75:9 *128:10 0.00144073
15 *98:17 *128:10 0.000533734
16 *101:21 *128:10 0
17 *109:15 *128:18 0
18 *109:31 *128:18 0.00382869
19 *109:35 *128:18 0.00147564
20 *113:14 *128:10 0
21 *115:12 *128:16 0
22 *119:14 *128:16 0
*RES
1 *1028:Y *128:10 32.4836 
2 *128:10 *128:16 45.047 
3 *128:16 *128:18 48.9868 
4 *128:18 *1076:osc[1] 22.9072 
*END

*D_NET *129 0.0287453
*CONN
*I *1076:osc[2] I *D e_load_uniform
*I *1026:Y O *D sg13cmos5l_o21ai_1
*CAP
1 *1076:osc[2] 0.000226176
2 *1026:Y 0.000206284
3 *129:14 0.00498323
4 *129:12 0.00555629
5 *129:8 0.00100553
6 *129:14 *130:14 0.00891446
7 *129:14 *131:12 0
8 *1048:A1 *129:8 0
9 *53:66 *129:12 0
10 *74:7 *1076:osc[2] 0
11 *81:27 *129:12 0.00172325
12 *112:10 *129:12 0
13 *119:16 *129:14 0.00613008
*RES
1 *1026:Y *129:8 42.0497 
2 *129:8 *129:12 30.7326 
3 *129:12 *129:14 59.5855 
4 *129:14 *1076:osc[2] 22.66 
*END

*D_NET *130 0.022008
*CONN
*I *1076:osc[3] I *D e_load_uniform
*I *1024:Y O *D sg13cmos5l_o21ai_1
*CAP
1 *1076:osc[3] 0.000253437
2 *1024:Y 0.000459572
3 *130:14 0.00536598
4 *130:12 0.00511254
5 *130:10 0.000459572
6 *130:10 *1024:B1 0.000370966
7 *130:10 *136:8 0
8 *130:10 *151:12 0.00012816
9 *130:14 *131:12 0
10 *1024:A2 *130:10 0
11 *1049:A *130:10 0.000176602
12 *52:44 *130:10 0
13 *60:14 *130:10 0.000766751
14 *73:9 *130:10 0
15 *117:14 *130:14 0
16 *129:14 *130:14 0.00891446
*RES
1 *1024:Y *130:10 46.2624 
2 *130:10 *130:12 20 
3 *130:12 *130:14 66.2908 
4 *130:14 *1076:osc[3] 22.9072 
*END

*D_NET *131 0.0156204
*CONN
*I *1076:osc[4] I *D e_load_uniform
*I *1022:Y O *D sg13cmos5l_o21ai_1
*CAP
1 *1076:osc[4] 0.000157245
2 *1022:Y 0.000419595
3 *131:12 0.00739059
4 *131:10 0.00723334
5 *131:8 0.000419595
6 *131:8 *151:88 0
7 *53:66 *131:8 0
8 *119:16 *131:12 0
9 *127:14 *131:12 0
10 *129:14 *131:12 0
11 *130:14 *131:12 0
*RES
1 *1022:Y *131:8 43.811 
2 *131:8 *131:10 20 
3 *131:10 *131:12 68.4538 
4 *131:12 *1076:osc[4] 21.9184 
*END

*D_NET *132 0.00568304
*CONN
*I *1076:osc[5] I *D e_load_uniform
*I *1020:Y O *D sg13cmos5l_o21ai_1
*CAP
1 *1076:osc[5] 0.00025365
2 *1020:Y 0.00150194
3 *132:6 0.00175559
4 *132:6 *133:10 0
5 *1018:A1 *132:6 0
6 *1020:A2 *132:6 0.000145159
7 *53:68 *132:6 0
8 *54:71 *132:6 0
9 *76:9 *132:6 0.00202669
10 *77:9 *132:6 0
*RES
1 *1020:Y *132:6 37.407 
2 *132:6 *1076:osc[5] 22.9072 
*END

*D_NET *133 0.00505052
*CONN
*I *1076:osc[6] I *D e_load_uniform
*I *1018:Y O *D sg13cmos5l_o21ai_1
*CAP
1 *1076:osc[6] 0.000141481
2 *1018:Y 0.00135513
3 *133:10 0.00149661
4 *1018:B1 *133:10 1.54008e-05
5 *52:56 *133:10 0
6 *56:10 *133:10 0
7 *58:6 *133:10 0.00170263
8 *78:9 *133:10 0.000339267
9 *132:6 *133:10 0
*RES
1 *1018:Y *133:10 34.3994 
2 *133:10 *1076:osc[6] 21.6712 
*END

*D_NET *134 0.0026132
*CONN
*I *1076:osc[7] I *D e_load_uniform
*I *1016:Y O *D sg13cmos5l_o21ai_1
*CAP
1 *1076:osc[7] 0.000779774
2 *1016:Y 0.000779774
3 *1076:osc[7] *151:90 0.00105366
*RES
1 *1016:Y *1076:osc[7] 49.7876 
*END

*D_NET *135 0.0250175
*CONN
*I *1077:osc I *D f_load_binary
*I *1040:Y O *D sg13cmos5l_o21ai_1
*CAP
1 *1077:osc 0.00201641
2 *1040:Y 0.000609633
3 *135:16 0.00250072
4 *135:10 0.00686577
5 *135:8 0.0069911
6 *135:8 *1040:B1 8.00842e-05
7 *135:8 *151:22 8.00842e-05
8 *135:8 *151:39 0
9 *53:51 *135:8 0
10 *54:32 *135:8 0.000338922
11 *83:68 *1077:osc 0.00181668
12 *84:27 *135:10 0.00193884
13 *111:9 *135:8 0
14 *112:10 *135:10 0.00177924
15 *113:14 *135:8 0
16 *128:10 *135:8 0
*RES
1 *1040:Y *135:8 46.3757 
2 *135:8 *135:10 85.8814 
3 *135:10 *135:16 26.0152 
4 *135:16 *1077:osc 45.5698 
*END

*D_NET *136 0.0170287
*CONN
*I *1078:osc I *D g_glitch
*I *1035:Y O *D sg13cmos5l_o21ai_1
*CAP
1 *1078:osc 0
2 *1035:Y 0
3 *136:20 0.00109298
4 *136:8 0.00787994
5 *136:6 0.00678695
6 *54:24 *136:8 0.000342035
7 *54:43 *136:8 0.000797555
8 *54:64 *136:8 0
9 *60:14 *136:8 0
10 *61:8 *136:8 0
11 *67:16 *136:8 0.000129281
12 *130:10 *136:8 0
*RES
1 *1035:Y *136:6 40 
2 *136:6 *136:8 84.2486 
3 *136:8 *136:20 35.0097 
4 *136:20 *1078:osc 20 
*END

*D_NET *137 0.0163507
*CONN
*I *1011:B_N I *D sg13cmos5l_nor2b_1
*I *1013:B2 I *D sg13cmos5l_a22oi_1
*I *1012:B I *D sg13cmos5l_nand2b_1
*I *1074:sel_load_src_o[0] O *D ctrl
*CAP
1 *1011:B_N 3.39228e-05
2 *1013:B2 0.000375945
3 *1012:B 5.67086e-05
4 *1074:sel_load_src_o[0] 0.00216395
5 *137:17 0.000647536
6 *137:13 0.00204994
7 *137:9 0.00396509
8 *1012:B *1012:A_N 1.54008e-05
9 *137:9 *138:13 0
10 *137:13 *138:17 0
11 *137:13 *139:13 0
12 *137:13 *150:17 0
13 *1013:A2 *1013:B2 8.02598e-05
14 *46:8 *1013:B2 0.00135346
15 *46:8 *137:17 0.000182109
16 *47:12 *137:13 0.00108905
17 *47:12 *137:17 0
18 *48:14 *1013:B2 0
19 *50:10 *1013:B2 0
20 *54:12 *137:13 0
21 *66:10 *137:13 0
22 *70:14 *1013:B2 0.00149842
23 *70:14 *137:13 0
24 *70:14 *137:17 0.00061605
25 *111:15 *1013:B2 0
26 *120:6 *137:9 0
27 *122:9 *137:9 0.00222285
*RES
1 *1074:sel_load_src_o[0] *137:9 44.4161 
2 *137:9 *137:13 41.115 
3 *137:13 *137:17 3.1415 
4 *137:17 *1012:B 40.5356 
5 *137:17 *1013:B2 47.7765 
6 *137:13 *1011:B_N 40.3193 
*END

*D_NET *138 0.0159583
*CONN
*I *1010:B I *D sg13cmos5l_nand2b_1
*I *1012:A_N I *D sg13cmos5l_nand2b_1
*I *1006:A I *D sg13cmos5l_inv_1
*I *1011:A I *D sg13cmos5l_nor2b_1
*I *1074:sel_load_src_o[1] O *D ctrl
*CAP
1 *1010:B 0.000252376
2 *1012:A_N 4.20029e-05
3 *1006:A 2.85031e-05
4 *1011:A 3.86939e-05
5 *1074:sel_load_src_o[1] 0.00256422
6 *138:39 0.000326646
7 *138:28 0.000102281
8 *138:17 0.00195627
9 *138:13 0.00444029
10 *138:13 *139:9 0
11 *138:13 *140:13 0.00319287
12 *1010:A_N *1010:B 0.000122871
13 *1012:B *1012:A_N 1.54008e-05
14 *1075:invsel[2] *138:13 0
15 *47:12 *1010:B 0
16 *47:12 *138:17 0
17 *48:14 *1010:B 0
18 *48:14 *138:17 0
19 *51:8 *1011:A 4.77425e-05
20 *54:12 *138:17 0
21 *68:8 *1010:B 0.000449344
22 *68:8 *138:17 0.000501546
23 *68:8 *138:28 0.000235055
24 *68:8 *138:39 0.000181608
25 *71:35 *1010:B 0.000266405
26 *71:35 *138:17 0.000821726
27 *71:35 *138:28 0.000212958
28 *71:35 *138:39 0.000159511
29 *97:13 *138:13 0
30 *99:19 *138:13 0
31 *110:19 *138:13 0
32 *113:8 *138:13 0
33 *126:13 *138:13 0
34 *137:9 *138:13 0
35 *137:13 *138:17 0
*RES
1 *1074:sel_load_src_o[1] *138:13 47.09 
2 *138:13 *138:17 40.3734 
3 *138:17 *1011:A 40.5356 
4 *138:17 *138:28 1.0918 
5 *138:28 *1006:A 40.5356 
6 *138:28 *138:39 0.8446 
7 *138:39 *1012:A_N 40.5356 
8 *138:39 *1010:B 43.3578 
*END

*D_NET *139 0.0168841
*CONN
*I *1036:A2 I *D sg13cmos5l_a21oi_1
*I *1037:A I *D sg13cmos5l_nor2b_1
*I *1074:sel_load_src_o[2] O *D ctrl
*CAP
1 *1036:A2 0.000598695
2 *1037:A 0.000193661
3 *1074:sel_load_src_o[2] 0.00298529
4 *139:13 0.00293892
5 *139:9 0.00513185
6 *139:9 *140:13 0
7 *139:9 *150:13 0.000403699
8 *1013:A2 *1036:A2 0
9 *1036:A1 *1036:A2 1.54008e-05
10 *52:14 *1036:A2 0.00145878
11 *52:14 *139:13 0.000288173
12 *63:14 *1036:A2 0.000715749
13 *66:10 *139:13 0
14 *71:20 *1036:A2 0
15 *71:20 *1037:A 0
16 *71:20 *139:13 0
17 *99:19 *139:9 0.000105688
18 *108:15 *139:9 0
19 *113:8 *139:9 0.000241776
20 *121:9 *139:9 0.0018064
21 *137:13 *139:13 0
22 *138:13 *139:9 0
*RES
1 *1074:sel_load_src_o[2] *139:9 49.6692 
2 *139:9 *139:13 45.0702 
3 *139:13 *1037:A 41.6171 
4 *139:13 *1036:A2 48.3945 
*END

*D_NET *140 0.0170283
*CONN
*I *1008:A I *D sg13cmos5l_inv_1
*I *1039:A1 I *D sg13cmos5l_o21ai_1
*I *1074:sel_load_src_o[3] O *D ctrl
*CAP
1 *1008:A 0
2 *1039:A1 0
3 *1074:sel_load_src_o[3] 0.00241014
4 *140:31 0.0003467
5 *140:21 0.00052055
6 *140:17 0.000998889
7 *140:13 0.00323518
8 *140:31 *1034:A1 0.000213787
9 *140:31 *141:27 0.000128576
10 *140:31 *142:19 0.000235556
11 *1075:invsel[3] *140:13 0
12 *51:22 *140:31 0.000821812
13 *64:8 *140:31 0
14 *69:12 *140:31 0
15 *99:19 *140:13 0
16 *108:15 *140:13 0.00196847
17 *113:10 *140:17 0.00295572
18 *126:13 *140:13 0
19 *138:13 *140:13 0.00319287
20 *139:9 *140:13 0
*RES
1 *1074:sel_load_src_o[3] *140:13 47.3722 
2 *140:13 *140:17 33.699 
3 *140:17 *140:21 21.4008 
4 *140:21 *140:31 45.1912 
5 *140:31 *1039:A1 20 
6 *140:21 *1008:A 20 
*END

*D_NET *141 0.0214687
*CONN
*I *1032:A I *D sg13cmos5l_nor2b_1
*I *1031:A2 I *D sg13cmos5l_a21oi_1
*I *1074:sel_load_src_o[4] O *D ctrl
*CAP
1 *1032:A 0
2 *1031:A2 0.000189694
3 *1074:sel_load_src_o[4] 0.000477523
4 *141:27 0.000921012
5 *141:21 0.00138291
6 *141:15 0.00338743
7 *141:11 0.00321336
8 *141:11 *142:13 0
9 *141:15 *142:15 0
10 *1031:A1 *1031:A2 8.00842e-05
11 *1039:A2 *141:21 0
12 *1039:A2 *141:27 0
13 *1041:S *1031:A2 4.77425e-05
14 *1075:invsel[3] *141:11 0
15 *51:22 *141:27 0.000608024
16 *51:29 *141:27 0.00167423
17 *51:40 *141:27 7.51285e-05
18 *53:8 *1031:A2 0
19 *69:12 *141:21 0
20 *96:13 *141:15 0.00309733
21 *97:13 *141:15 0
22 *99:29 *141:21 0.0030934
23 *99:29 *141:27 0
24 *113:10 *141:21 0.00309228
25 *140:31 *141:27 0.000128576
*RES
1 *1074:sel_load_src_o[4] *141:11 25.423 
2 *141:11 *141:15 47.5731 
3 *141:15 *141:21 35.1616 
4 *141:21 *141:27 31.2682 
5 *141:27 *1031:A2 41.8334 
6 *141:21 *1032:A 20 
*END

*D_NET *142 0.01155
*CONN
*I *1034:A1 I *D sg13cmos5l_o21ai_1
*I *1007:A I *D sg13cmos5l_inv_1
*I *1074:sel_load_src_o[5] O *D ctrl
*CAP
1 *1034:A1 8.82627e-05
2 *1007:A 0
3 *1074:sel_load_src_o[5] 0.000560043
4 *142:19 0.00101658
5 *142:15 0.00395558
6 *142:13 0.00358731
7 *1075:invsel[4] *142:13 0
8 *51:22 *142:19 0.00189291
9 *69:12 *1034:A1 0
10 *69:12 *142:19 0
11 *80:13 *142:13 0
12 *96:13 *142:15 0
13 *97:13 *142:15 0
14 *140:31 *1034:A1 0.000213787
15 *140:31 *142:19 0.000235556
16 *141:11 *142:13 0
17 *141:15 *142:15 0
*RES
1 *1074:sel_load_src_o[5] *142:13 26.0203 
2 *142:13 *142:15 30.1687 
3 *142:15 *142:19 30.7326 
4 *142:19 *1007:A 40 
5 *142:19 *1034:A1 41.0918 
*END

*D_NET *143 0.0252392
*CONN
*I *1074:rst_in I *D ctrl
*I *1079:X O *D sg13cmos5l_buf_1
*CAP
1 *1074:rst_in 0.000199957
2 *1079:X 0.00180846
3 *143:18 0.00415604
4 *143:16 0.00481328
5 *143:10 0.00266565
6 *143:10 *148:10 0
7 *143:10 *149:12 0
8 *143:10 *158:12 0.00147306
9 *143:10 *159:12 0.00231507
10 *143:16 *1074:din_i[4] 0
11 *143:16 *148:16 0
12 *1079:A *143:10 0
13 *1084:A *143:10 0
14 *3:9 *143:18 0.00780765
*RES
1 *1079:X *143:10 41.6609 
2 *143:10 *143:16 49.7438 
3 *143:16 *143:18 52.2313 
4 *143:18 *1074:rst_in 22.5029 
*END

*D_NET *144 0.0134799
*CONN
*I *1074:en_i I *D ctrl
*I *1080:X O *D sg13cmos5l_buf_1
*CAP
1 *1074:en_i 0.00127344
2 *1080:X 0.000469789
3 *144:16 0.00495834
4 *144:14 0.00368491
5 *144:12 0.000469789
6 *144:12 *145:6 0
7 *144:12 *145:8 0
8 *144:12 *157:12 0
9 *144:16 *145:8 0
10 *144:16 *149:12 0.00157225
11 *144:16 *152:10 0
12 *144:16 *153:8 0
13 *144:16 *154:10 0
14 *144:16 *155:12 0.000696725
15 *144:16 *157:12 0.00014491
16 uio_oe[0] *144:16 0
17 uio_oe[1] *144:16 0
18 uio_oe[2] *144:16 0
19 uio_oe[3] *144:16 0
20 uio_oe[5] *144:16 0
21 uio_oe[6] *144:16 0
22 uio_out[3] *1074:en_i 0
23 uio_out[4] *1074:en_i 0
24 uio_out[4] *144:16 0
25 uio_out[5] *144:16 0
26 uio_out[6] *144:16 0
27 uio_out[7] *144:16 0
28 *1080:A *144:12 0.000209779
29 *1086:A *144:16 0
30 *1087:A *144:16 0
31 *1088:A *144:16 0
32 *1089:A *144:16 0
33 *1093:A *144:12 0
*RES
1 *1080:X *144:12 44.326 
2 *144:12 *144:14 20 
3 *144:14 *144:16 42.0652 
4 *144:16 *1074:en_i 34.6698 
*END

*D_NET *145 0.0161625
*CONN
*I *1074:we_i I *D ctrl
*I *1081:X O *D sg13cmos5l_buf_1
*CAP
1 *1074:we_i 0.00110858
2 *1081:X 2.77263e-05
3 *145:8 0.00490664
4 *145:6 0.00382579
5 *145:8 *146:16 0
6 *145:8 *147:12 0.00455299
7 *145:8 *152:10 0
8 *145:8 *153:8 0.000242253
9 *145:8 *154:10 0
10 *145:8 *155:12 4.78982e-05
11 *145:8 *157:12 0
12 uio_oe[0] *145:8 0
13 uio_oe[1] *145:8 0.00027423
14 uio_oe[2] *145:8 7.94462e-05
15 uio_oe[3] *145:8 0.000209705
16 uio_oe[5] *145:8 0.000145173
17 uio_oe[6] *145:8 8.01938e-05
18 uio_oe[7] *145:8 0.000209681
19 uio_out[6] *145:8 0.000112486
20 uio_out[7] *145:8 0.000339678
21 *1080:A *145:8 0
22 *1081:A *145:8 0
23 *1086:A *145:8 0
24 *1087:A *145:8 0
25 *1088:A *145:8 0
26 *1089:A *145:8 0
27 *1090:A *145:8 0
28 *1091:A *145:8 0
29 *144:12 *145:6 0
30 *144:12 *145:8 0
31 *144:16 *145:8 0
*RES
1 *1081:X *145:6 20.3502 
2 *145:6 *145:8 41.6326 
3 *145:8 *1074:we_i 33.1325 
*END

*D_NET *146 0.0148519
*CONN
*I *1074:adr_i[0] I *D ctrl
*I *1082:X O *D sg13cmos5l_buf_1
*CAP
1 *1074:adr_i[0] 0.00104974
2 *1082:X 0.000278752
3 *146:16 0.00423965
4 *146:14 0.0031899
5 *146:12 0.000278752
6 *146:12 *147:10 0
7 *146:12 *147:12 0
8 *146:12 *148:10 0.000177273
9 *146:12 *157:12 0
10 *146:16 *147:12 0.00458532
11 *146:16 *156:14 0
12 *146:16 *158:12 0.0010525
13 *1081:A *146:12 0
14 *145:8 *146:16 0
*RES
1 *1082:X *146:12 42.781 
2 *146:12 *146:14 20 
3 *146:14 *146:16 36.2251 
4 *146:16 *1074:adr_i[0] 32.6381 
*END

*D_NET *147 0.0174557
*CONN
*I *1074:adr_i[1] I *D ctrl
*I *1083:X O *D sg13cmos5l_buf_1
*CAP
1 *1074:adr_i[1] 0.00106872
2 *1083:X 0.000390964
3 *147:12 0.00351731
4 *147:10 0.00283956
5 *147:10 *148:10 0
6 *147:10 *158:12 0.000500814
7 *147:12 *158:12 0
8 *1081:A *147:12 0
9 *145:8 *147:12 0.00455299
10 *146:12 *147:10 0
11 *146:12 *147:12 0
12 *146:16 *147:12 0.00458532
*RES
1 *1083:X *147:10 24.5423 
2 *147:10 *147:12 31.0339 
3 *147:12 *1074:adr_i[1] 32.8853 
*END

*D_NET *148 0.0384549
*CONN
*I *1009:B I *D sg13cmos5l_nand2_1
*I *1038:A I *D sg13cmos5l_nor2b_1
*I *1033:A I *D sg13cmos5l_nor2b_1
*I *1014:A I *D sg13cmos5l_nor2b_1
*I *1084:X O *D sg13cmos5l_buf_1
*CAP
1 *1009:B 0
2 *1038:A 0.000319156
3 *1033:A 0
4 *1014:A 0
5 *1084:X 0.000822482
6 *148:31 0.000429797
7 *148:22 0.00736891
8 *148:20 0.00725827
9 *148:18 0.00447036
10 *148:16 0.00732352
11 *148:10 0.00367564
12 *148:10 *149:12 0
13 *148:10 *157:12 0
14 *148:10 *158:12 0
15 *148:16 *1009:A 0
16 *148:22 *150:17 0
17 *1082:A *148:10 0.00024217
18 *1083:A *148:10 0.000175913
19 *1084:A *148:10 1.54008e-05
20 *49:6 *148:18 0.00617604
21 *54:12 *148:22 0
22 *54:12 *148:31 0
23 *65:12 *1038:A 0
24 *65:12 *148:31 0
25 *69:12 *1038:A 0
26 *143:10 *148:10 0
27 *143:16 *148:16 0
28 *146:12 *148:10 0.000177273
29 *147:10 *148:10 0
*RES
1 *1084:X *148:10 44.7895 
2 *148:10 *148:16 48.7267 
3 *148:16 *148:18 48.5542 
4 *148:18 *148:20 20 
5 *148:20 *148:22 93.5446 
6 *148:22 *1014:A 40 
7 *148:22 *148:31 1.339 
8 *148:31 *1033:A 40 
9 *148:31 *1038:A 43.5638 
10 *148:16 *1009:B 20 
*END

*D_NET *149 0.00936353
*CONN
*I *1009:A I *D sg13cmos5l_nand2_1
*I *1085:X O *D sg13cmos5l_buf_1
*CAP
1 *1009:A 0.000627658
2 *1085:X 0.00254272
3 *149:18 0.00135292
4 *149:12 0.00326798
5 *149:12 *157:12 0
6 *149:18 *1074:din_i[2] 0
7 *1083:A *149:12 0
8 *1084:A *149:12 0
9 *1088:A *149:18 0
10 *143:10 *149:12 0
11 *144:16 *149:12 0.00157225
12 *148:10 *149:12 0
13 *148:16 *1009:A 0
*RES
1 *1085:X *149:12 48.6855 
2 *149:12 *149:18 48.2606 
3 *149:18 *1009:A 25.7268 
*END

*D_NET *150 0.0330924
*CONN
*I *160:A I *D sg13cmos5l_antennanp
*I *1094:A I *D sg13cmos5l_buf_1
*I *1074:config_o[7] O *D ctrl
*CAP
1 *160:A 0
2 *1094:A 6.43396e-05
3 *1074:config_o[7] 4.02928e-05
4 *150:17 0.00834225
5 *150:15 0.00827791
6 *150:13 0.004013
7 *150:7 0.0040533
8 uo_out[1] *1094:A 0
9 *54:12 *150:17 0
10 *99:13 *150:13 0.00290865
11 *103:9 *150:13 0.00138307
12 *108:15 *150:13 0
13 *110:23 *150:13 0.00179952
14 *121:9 *150:13 0.0018064
15 *137:13 *150:17 0
16 *139:9 *150:13 0.000403699
17 *148:22 *150:17 0
*RES
1 *1074:config_o[7] *150:7 20.4764 
2 *150:7 *150:13 46.4556 
3 *150:13 *150:15 20 
4 *150:15 *150:17 105.905 
5 *150:17 *1094:A 40.8446 
6 *150:17 *160:A 40 
*END

*D_NET *151 0.0351444
*CONN
*I *1022:B1 I *D sg13cmos5l_o21ai_1
*I *1016:B1 I *D sg13cmos5l_o21ai_1
*I *1024:B1 I *D sg13cmos5l_o21ai_1
*I *1028:B1 I *D sg13cmos5l_o21ai_1
*I *1040:B1 I *D sg13cmos5l_o21ai_1
*I *1026:B1 I *D sg13cmos5l_o21ai_1
*I *1030:B1 I *D sg13cmos5l_o21ai_1
*I *1035:B1 I *D sg13cmos5l_o21ai_1
*I *1049:X O *D sg13cmos5l_buf_1
*CAP
1 *1022:B1 0
2 *1016:B1 0
3 *1024:B1 0.000238067
4 *1028:B1 9.55885e-05
5 *1040:B1 4.23563e-05
6 *1026:B1 0
7 *1030:B1 0
8 *1035:B1 7.67828e-05
9 *1049:X 8.10982e-05
10 *151:90 0.0069956
11 *151:88 0.00763812
12 *151:82 0.000759444
13 *151:43 0.000688104
14 *151:39 0.00106953
15 *151:24 0.000540575
16 *151:22 0.000247899
17 *151:16 0.000392529
18 *151:12 0.000491405
19 *151:8 0.000277593
20 *1016:A2 *151:90 8.03692e-05
21 *1024:A2 *1024:B1 0.000435792
22 *1025:A1 *151:90 0
23 *1028:A2 *1028:B1 1.54449e-05
24 *1049:A *151:8 7.97045e-05
25 *1049:A *151:82 9.67389e-05
26 *1076:osc[7] *151:90 0.00105366
27 *51:103 *151:39 0.000236903
28 *51:103 *151:43 0.00109024
29 *52:25 *151:22 0.000289628
30 *53:14 *151:43 0.00252814
31 *53:27 *151:39 0.000797192
32 *53:27 *151:43 0.000129679
33 *53:29 *1028:B1 0
34 *58:14 *151:82 1.5412e-05
35 *60:14 *151:16 0
36 *60:14 *151:22 0
37 *60:14 *151:88 0
38 *73:9 *1024:B1 0
39 *73:9 *151:8 0
40 *84:27 *151:90 0
41 *99:29 *151:43 0
42 *111:9 *1035:B1 1.54008e-05
43 *111:9 *151:39 0.000258958
44 *113:10 *151:39 0
45 *113:10 *151:43 0
46 *114:14 *151:88 0.000980355
47 *115:14 *151:90 0.00660181
48 *128:10 *1028:B1 0.000145031
49 *130:10 *1024:B1 0.000370966
50 *130:10 *151:12 0.00012816
51 *131:8 *151:88 0
52 *135:8 *1040:B1 8.00842e-05
53 *135:8 *151:22 8.00842e-05
54 *135:8 *151:39 0
*RES
1 *1049:X *151:8 20.8858 
2 *151:8 *151:12 20.8446 
3 *151:12 *151:16 1.4111 
4 *151:16 *151:22 21.8746 
5 *151:22 *151:24 1.0918 
6 *151:24 *1035:B1 20.8858 
7 *151:24 *151:39 25.6444 
8 *151:39 *151:43 32.2158 
9 *151:43 *1030:B1 20 
10 *151:39 *1026:B1 40 
11 *151:22 *1040:B1 20.5356 
12 *151:16 *1028:B1 40.9682 
13 *151:12 *1024:B1 42.9149 
14 *151:8 *151:82 1.1845 
15 *151:82 *151:88 47.519 
16 *151:88 *151:90 87.4882 
17 *151:90 *1016:B1 20 
18 *151:82 *1022:B1 20 
*END

*D_NET *152 0.00385005
*CONN
*I *1074:din_i[0] I *D ctrl
*I *1086:X O *D sg13cmos5l_buf_1
*CAP
1 *1074:din_i[0] 0.00112665
2 *1086:X 0.000567264
3 *152:10 0.00169392
4 uio_oe[6] *1074:din_i[0] 7.52149e-05
5 uio_oe[7] *152:10 0.000209681
6 *1086:A *152:10 0.000177323
7 *144:16 *152:10 0
8 *145:8 *152:10 0
*RES
1 *1086:X *152:10 45.6444 
2 *152:10 *1074:din_i[0] 13.6269 
*END

*D_NET *153 0.00278649
*CONN
*I *1074:din_i[1] I *D ctrl
*I *1087:X O *D sg13cmos5l_buf_1
*CAP
1 *1074:din_i[1] 0.00111728
2 *1087:X 0.000154839
3 *153:8 0.00127212
4 *1086:A *153:8 0
5 *1087:A *153:8 0
6 *144:16 *153:8 0
7 *145:8 *153:8 0.000242253
*RES
1 *1087:X *153:8 41.6171 
2 *153:8 *1074:din_i[1] 13.3797 
*END

*D_NET *154 0.00269237
*CONN
*I *1074:din_i[2] I *D ctrl
*I *1088:X O *D sg13cmos5l_buf_1
*CAP
1 *1074:din_i[2] 0.00113493
2 *1088:X 0.000155414
3 *154:10 0.00129034
4 *154:10 *155:12 0
5 *1089:A *154:10 0.00011169
6 *144:16 *154:10 0
7 *145:8 *154:10 0
8 *149:18 *1074:din_i[2] 0
*RES
1 *1088:X *154:10 41.5347 
2 *154:10 *1074:din_i[2] 13.6269 
*END

*D_NET *155 0.00438313
*CONN
*I *1074:din_i[3] I *D ctrl
*I *1089:X O *D sg13cmos5l_buf_1
*CAP
1 *1074:din_i[3] 0.00118882
2 *1089:X 0.000480139
3 *155:12 0.00166895
4 *155:12 *157:12 0
5 *1090:A *155:12 0.000112749
6 *1091:A *155:12 0.000112717
7 *1092:A *1074:din_i[3] 7.51285e-05
8 *144:16 *155:12 0.000696725
9 *145:8 *155:12 4.78982e-05
10 *154:10 *155:12 0
*RES
1 *1089:X *155:12 45.8092 
2 *155:12 *1074:din_i[3] 14.1213 
*END

*D_NET *156 0.00505078
*CONN
*I *1074:din_i[4] I *D ctrl
*I *1090:X O *D sg13cmos5l_buf_1
*CAP
1 *1074:din_i[4] 0.00105915
2 *1090:X 0.000125577
3 *156:14 0.00185021
4 *156:8 0.000916644
5 *156:14 *158:12 0.000695819
6 *156:14 *159:12 0.000403377
7 *143:16 *1074:din_i[4] 0
8 *146:16 *156:14 0
*RES
1 *1090:X *156:8 41.339 
2 *156:8 *156:14 48.5387 
3 *156:14 *1074:din_i[4] 12.1437 
*END

*D_NET *157 0.00630108
*CONN
*I *1074:din_i[5] I *D ctrl
*I *1091:X O *D sg13cmos5l_buf_1
*CAP
1 *1074:din_i[5] 0.00125689
2 *1091:X 0.00140105
3 *157:12 0.00265794
4 *1080:A *157:12 0.00030749
5 *1081:A *157:12 0.000210196
6 *1082:A *157:12 0.000242511
7 *1083:A *157:12 8.00842e-05
8 *144:12 *157:12 0
9 *144:16 *157:12 0.00014491
10 *145:8 *157:12 0
11 *146:12 *157:12 0
12 *148:10 *157:12 0
13 *149:12 *157:12 0
14 *155:12 *157:12 0
*RES
1 *1091:X *157:12 33.4827 
2 *157:12 *1074:din_i[5] 34.4226 
*END

*D_NET *158 0.0087058
*CONN
*I *1074:din_i[6] I *D ctrl
*I *1092:X O *D sg13cmos5l_buf_1
*CAP
1 *1074:din_i[6] 0.00107842
2 *1092:X 0.000105341
3 *158:12 0.00238646
4 *158:8 0.00141338
5 *158:12 *159:12 0
6 *143:10 *158:12 0.00147306
7 *146:16 *158:12 0.0010525
8 *147:10 *158:12 0.000500814
9 *147:12 *158:12 0
10 *148:10 *158:12 0
11 *156:14 *158:12 0.000695819
*RES
1 *1092:X *158:8 41.0918 
2 *158:8 *158:12 35.8929 
3 *158:12 *1074:din_i[6] 32.3909 
*END

*D_NET *159 0.00836465
*CONN
*I *1074:din_i[7] I *D ctrl
*I *1093:X O *D sg13cmos5l_buf_1
*CAP
1 *1074:din_i[7] 0.000982164
2 *1093:X 0.000149903
3 *159:12 0.0026732
4 *159:8 0.00184093
5 *3:7 *1074:din_i[7] 0
6 *143:10 *159:12 0.00231507
7 *156:14 *159:12 0.000403377
8 *158:12 *159:12 0
*RES
1 *1093:X *159:8 41.5862 
2 *159:8 *159:12 39.57 
3 *159:12 *1074:din_i[7] 31.8965 
*END
